ITEM: TIMESTEP
0
ITEM: NUMBER OF ATOMS
30
ITEM: BOX BOUNDS pp pp pp
0.0000000000000000e+00 8.3480326719615103e+00
0.0000000000000000e+00 8.3480326719615103e+00
0.0000000000000000e+00 8.3480326719615103e+00
ITEM: ATOMS id type fx fy fz x y z 
1 1 -3.43315e-06 5.89911e-06 1.77e-07 1.39479 1.26853 0.601397 
16 2 1.83434e-06 1.82259e-06 -5.56726e-06 0.0105186 3.72048 3.88146 
18 2 -4.73956e-06 1.3755e-06 4.48231e-06 4.16104 2.31926 5.2431 
19 2 3.83647e-06 1.28967e-05 2.34691e-06 2.25741 0.284794 6.48509 
6 1 4.35273e-06 1.1619e-05 -1.20037e-05 1.20425 0.0208571 4.84544 
2 1 1.10869e-06 2.47321e-06 -2.87591e-06 3.27296 4.80213 4.04675 
20 2 -1.20658e-05 -3.82952e-06 -1.04118e-05 2.23791 4.47202 3.68613 
17 2 -2.32462e-06 -5.41724e-06 -2.90203e-06 2.9109 8.25665 2.55057 
3 1 2.64263e-06 2.1985e-07 -6.44835e-06 2.23605 6.59054 5.5014 
4 1 -6.97015e-07 -1.26517e-05 5.91283e-06 2.41372 5.51971 5.58054 
23 2 -4.73366e-06 -2.05282e-08 6.66497e-07 0.180002 7.73766 6.05838 
22 2 4.39308e-06 -8.04642e-07 1.37635e-05 0.253494 8.15344 7.96022 
21 2 -1.34641e-06 -5.25976e-06 1.06485e-05 3.07519 6.2835 6.77274 
7 1 -9.48898e-06 -6.12184e-07 -9.24045e-06 4.73092 3.33262 0.6115 
8 1 5.0369e-06 -5.44693e-06 -1.72355e-06 6.28542 0.905108 3.06556 
24 2 3.82828e-06 3.66345e-07 -5.00915e-06 5.53473 2.2947 0.144507 
25 2 -3.20292e-06 -2.91214e-06 3.7405e-06 4.65443 2.89991 2.3095 
26 2 3.47142e-06 -4.9368e-06 6.65961e-06 5.11731 2.24976 2.61047 
9 1 2.77842e-06 8.6549e-06 -2.42395e-06 7.53259 0.54443 4.47363 
27 2 5.88758e-06 2.82816e-06 2.49669e-06 5.81981 3.52842 5.04229 
28 2 -2.04607e-06 3.35812e-06 1.6485e-06 6.32724 0.593382 7.66122 
29 2 -9.81793e-07 -1.12388e-06 5.729e-06 6.28306 0.540649 8.0213 
10 1 -2.99491e-06 5.65727e-06 5.28995e-06 4.97514 5.75231 0.151941 
11 1 5.18579e-06 1.34313e-05 -1.20951e-07 4.65521 4.64524 1.97793 
12 1 -6.23288e-07 3.00116e-08 -6.93352e-06 5.07299 7.34047 4.62748 
13 1 -3.5135e-06 -5.56403e-06 -2.9602e-06 7.72969 5.13146 5.26161 
14 1 1.09573e-05 -3.33419e-06 1.78939e-07 6.77947 4.54637 7.59106 
15 1 -4.01831e-06 -1.15357e-06 4.99863e-07 5.42384 6.70974 6.74037 
30 2 -5.39256e-06 -7.86579e-06 -1.09342e-05 7.35621 7.93264 4.5083 
5 1 6.28889e-06 -9.69917e-06 1.53143e-05 8.30674 5.95737 8.14685 
