ITEM: TIMESTEP
960110
ITEM: NUMBER OF ATOMS
341
ITEM: BOX BOUNDS ss ss ss
-1.9360300446137211e+00 1.9495118901764781e+00
-1.9388440561347573e+00 1.9487524452880283e+00
-1.9453750558316978e+00 1.9502296762444777e+00
ITEM: ATOMS id x y z width_SPH x_COM y_COM z_COM vx vy vz 
2 -0.585105 -0.586073 -1.93541 0.91 0 0 0 1.00608 1.00856 2.55681 
3 -0.94658 -0.947516 -1.39611 0.91 0 0 0 2.45481 2.45374 3.50131 
13 8.20339e-06 -5.66026e-05 -8.68717e-05 0.91 0 0 0 0.00269551 0.000772147 0.00231452 
72 9.99579e-06 -1.80629e-05 -8.50115e-05 0.91 0 0 0 0.00263201 -0.00149094 0.00224861 
103 5.00773e-05 -4.13074e-05 -4.72109e-05 0.91 0 0 0 0.000467048 -0.00052587 8.91546e-06 
7 -0.940335 -1.38948 -0.939637 0.91 0 0 0 2.51789 3.59862 2.51349 
263 0.000317219 5.35944e-05 -0.000138388 0.91 0 0 0 -0.00686466 -0.00281427 0.00246021 
9 -1.37996 -0.939333 -0.934138 0.91 0 0 0 3.67034 2.57613 2.56348 
265 4.78265e-05 -4.12959e-05 -4.49722e-05 0.91 0 0 0 0.000393179 -0.000531938 8.53002e-05 
313 4.78357e-05 -3.68146e-05 -5.21075e-05 0.91 0 0 0 0.000393494 -0.000378877 -3.04928e-05 
270 0.000135095 0.000222826 -0.000134866 0.91 0 0 0 -0.00202581 -0.00760006 0.00244256 
296 4.33353e-05 -3.68196e-05 -4.94712e-05 0.91 0 0 0 0.000246787 -0.000378964 -6.34692e-05 
299 4.78233e-05 -3.8896e-05 -4.93003e-05 0.91 0 0 0 0.000393444 -0.000353172 3.4826e-05 
15 -0.584504 -1.93824 -0.585918 0.91 0 0 0 1.00081 2.5305 1.00151 
229 4.78671e-05 -3.68066e-05 -0.000102274 0.91 0 0 0 0.000392405 -0.000381003 0.00330611 
328 4.78179e-05 -3.6854e-05 5.95916e-06 0.91 0 0 0 0.000392825 -0.000374291 -0.00321853 
249 6.7245e-05 2.03578e-06 -8.59729e-05 0.91 0 0 0 -0.000743781 -0.00265684 0.00228081 
279 4.78263e-05 -3.8625e-05 -4.7213e-05 0.91 0 0 0 0.000393406 -0.000345851 9.22187e-06 
295 4.5731e-05 -3.68098e-05 -4.9314e-05 0.91 0 0 0 0.00041879 -0.000378711 3.48178e-05 
21 -1.93543 -0.586856 -0.58413 0.91 0 0 0 2.52966 1.0038 1.00102 
274 4.78311e-05 -3.68092e-05 -4.7209e-05 0.91 0 0 0 0.000393309 -0.000378723 9.12821e-06 
245 4.65336e-05 -3.81342e-05 -4.45943e-05 0.91 0 0 0 0.000218864 -0.000553227 0.000359487 
200 4.78211e-05 -3.47184e-05 -4.93164e-05 0.91 0 0 0 0.000393436 -0.000404213 3.49089e-05 
93 -0.0133826 -4.27016e-05 -3.30164e-05 0.91 0 0 0 2.87781 -0.000658265 0.00020594 
89 4.91397e-05 -3.94474e-05 -4.58792e-05 0.91 0 0 0 0.000566742 -0.000727108 0.000183188 
32 -0.952981 -0.298413 -0.00054637 0.91 0 0 0 13.7544 4.38964 0.00856209 
79 -0.929901 0.000284161 -0.28862 0.91 0 0 0 13.9013 -0.00626417 4.39592 
262 4.52401e-05 -3.8133e-05 -4.59062e-05 0.91 0 0 0 4.23162e-05 -0.000554195 0.000184367 
315 6.20403e-05 -3.68335e-05 -3.30501e-05 0.91 0 0 0 -0.000915342 -0.000376062 -0.00129786 
96 4.96469e-05 -3.68122e-05 -4.7207e-05 0.91 0 0 0 0.000360485 -0.000378685 9.10784e-06 
294 4.78266e-05 -3.68002e-05 -4.90147e-05 0.91 0 0 0 0.0003934 -0.000378894 4.20067e-05 
142 -0.000137084 -0.283037 -0.906738 0.91 0 0 0 0.00228187 4.45297 14.0168 
193 4.79768e-05 -0.000160358 -5.74173e-06 0.91 0 0 0 0.000387534 0.00489603 -0.00176277 
183 4.55844e-05 -3.23111e-05 -4.72303e-05 0.91 0 0 0 0.000319706 -0.000231655 9.18133e-06 
98 -7.88203e-05 6.13668e-06 -4.70422e-05 0.91 0 0 0 0.00573788 -0.00219111 4.18745e-06 
111 4.99232e-05 -3.6806e-05 -4.93041e-05 0.91 0 0 0 0.000367855 -0.0003788 3.47767e-05 
196 4.78261e-05 -3.23207e-05 -4.94742e-05 0.91 0 0 0 0.000393167 -0.000228659 -6.57074e-05 
176 2.21957e-05 -0.0128597 -6.40753e-05 0.91 0 0 0 9.33874e-05 2.84525 0.00328503 
162 -0.000484375 -0.906559 -0.281551 0.91 0 0 0 0.00648718 14.0239 4.43302 
34 5.23119e-05 -3.45575e-05 -4.7215e-05 0.91 0 0 0 0.000543439 -0.000303918 9.13872e-06 
61 -1.8352 -0.000402786 -1.83177 0.91 0 0 0 -0.53672 -0.00931867 -0.517656 
59 -0.29787 0.000548134 -0.952694 0.91 0 0 0 4.38878 -0.0100273 13.7617 
144 -0.0019704 -1.82699 -1.82387 0.91 0 0 0 -0.0240892 -0.457094 -0.442268 
202 4.52217e-05 -3.54856e-05 -4.85403e-05 0.91 0 0 0 4.39535e-05 -0.000203369 -0.000164357 
304 4.78282e-05 -4.12974e-05 -4.9469e-05 0.91 0 0 0 0.000393527 -0.000527405 -6.54054e-05 
317 4.78199e-05 -3.90522e-05 -5.16949e-05 0.91 0 0 0 0.000393324 -0.000454966 -0.000143068 
305 4.65148e-05 -3.94438e-05 -4.85277e-05 0.91 0 0 0 0.000219806 -0.000727776 -0.000164281 
300 4.54902e-05 -3.9154e-05 -4.95474e-05 0.91 0 0 0 0.000403038 -0.000368955 1.90146e-05 
285 4.55909e-05 -4.13033e-05 -4.72166e-05 0.91 0 0 0 0.000318381 -0.000529055 9.01104e-06 
301 4.51777e-05 -3.81464e-05 -4.85492e-05 0.91 0 0 0 4.72163e-05 -0.000551058 -0.000162522 
318 4.65374e-05 -3.81018e-05 -4.97919e-05 0.91 0 0 0 0.000216799 -0.000555851 -0.00034458 
201 4.54922e-05 -3.44702e-05 -4.95455e-05 0.91 0 0 0 0.000403137 -0.000388625 1.92267e-05 
188 4.33526e-05 -3.45535e-05 -4.72287e-05 0.91 0 0 0 0.000243759 -0.00030377 9.20034e-06 
186 4.78332e-05 -3.50079e-05 -4.72188e-05 0.91 0 0 0 0.00039326 -0.000411471 9.33574e-06 
213 4.64825e-05 -3.5457e-05 -4.99161e-05 0.91 0 0 0 0.000222375 -0.000208335 -0.000332954 
314 4.5585e-05 -3.68078e-05 -5.16924e-05 0.91 0 0 0 0.000316146 -0.000378833 -0.000144739 
114 5.04116e-05 -3.81039e-05 -4.85106e-05 0.91 0 0 0 0.000746009 -0.000553974 -0.000166719 
280 4.57345e-05 -3.8892e-05 -4.72195e-05 0.91 0 0 0 0.000418914 -0.000353233 9.31682e-06 
212 4.78174e-05 -3.45648e-05 -5.17091e-05 0.91 0 0 0 0.000393083 -0.000303756 -0.000141564 
35 4.99134e-05 -3.47273e-05 -4.7218e-05 0.91 0 0 0 0.000367762 -0.000404338 9.29128e-06 
182 4.78307e-05 -3.1906e-05 -4.72199e-05 0.91 0 0 0 0.000393251 -0.000337333 9.33882e-06 
45 5.01526e-05 -3.44824e-05 -4.95347e-05 0.91 0 0 0 0.000383131 -0.000389094 1.95725e-05 
197 4.64809e-05 -3.41014e-05 -4.85807e-05 0.91 0 0 0 0.000222994 -3.75435e-05 -0.000160176 
124 5.00676e-05 -3.67993e-05 -5.16942e-05 0.91 0 0 0 0.000470011 -0.000378732 -0.000143573 
115 5.01638e-05 -3.91348e-05 -4.95561e-05 0.91 0 0 0 0.000383602 -0.000368935 1.91231e-05 
26 -1.83625 -1.8397 -0.00073941 0.91 0 0 0 -0.545383 -0.541395 -0.00819093 
288 4.7773e-05 1.55618e-05 -4.71867e-05 0.91 0 0 0 0.000396017 -0.00357713 9.407e-06 
306 8.51087e-05 3.69499e-07 -2.87117e-05 0.91 0 0 0 -0.00182625 -0.00259416 -0.00109382 
286 6.17055e-05 -2.29453e-05 -4.72052e-05 0.91 0 0 0 -0.00089823 -0.00167227 8.64943e-06 
321 4.77787e-05 -2.31258e-05 -3.35366e-05 0.91 0 0 0 0.000396617 -0.00166224 -0.00127333 
187 4.57462e-05 -3.47275e-05 -4.72069e-05 0.91 0 0 0 0.000418853 -0.000404287 9.18336e-06 
322 6.74975e-05 2.53273e-06 -7.89442e-06 0.91 0 0 0 -0.000754663 -0.0026718 -0.0022822 
319 8.63049e-05 -1.75511e-05 -8.76206e-06 0.91 0 0 0 -0.00186797 -0.00151196 -0.00225218 
275 4.60203e-05 -3.68056e-05 -4.72127e-05 0.91 0 0 0 0.000426103 -0.000378778 9.22622e-06 
100 4.99213e-05 -3.88998e-05 -4.72065e-05 0.91 0 0 0 0.000367859 -0.000353204 9.1153e-06 
277 0.000100715 -3.68893e-05 -4.72071e-05 0.91 0 0 0 -0.00282183 -0.000374986 7.41287e-06 
281 4.33473e-05 -3.90713e-05 -4.72157e-05 0.91 0 0 0 0.000244781 -0.000452899 9.32509e-06 
214 8.59984e-05 -5.58613e-05 -9.2337e-06 0.91 0 0 0 -0.00185815 0.000747626 -0.00223452 
284 4.7833e-05 -4.17079e-05 -4.7201e-05 0.91 0 0 0 0.000393407 -0.000419399 9.22635e-06 
276 4.29428e-05 -3.68185e-05 -4.72068e-05 0.91 0 0 0 0.000353116 -0.000378685 9.43105e-06 
99 5.23089e-05 -3.90551e-05 -4.71987e-05 0.91 0 0 0 0.000544257 -0.000453906 9.33351e-06 
118 4.9142e-05 -3.94422e-05 -4.85218e-05 0.91 0 0 0 0.000567816 -0.000727162 -0.000164065 
127 4.9116e-05 -3.80938e-05 -4.97898e-05 0.91 0 0 0 0.00057092 -0.000554953 -0.000344405 
44 5.04921e-05 -3.54636e-05 -4.8552e-05 0.91 0 0 0 0.000738311 -0.000207404 -0.000162013 
53 4.91493e-05 -3.54683e-05 -4.98559e-05 0.91 0 0 0 0.000567453 -0.000204763 -0.00033729 
95 5.27137e-05 -3.68006e-05 -4.72168e-05 0.91 0 0 0 0.000432975 -0.000378717 9.09821e-06 
282 0.000175767 6.14123e-06 -4.71499e-05 0.91 0 0 0 -0.00498531 -0.00218674 5.58957e-06 
110 5.22983e-05 -3.6813e-05 -4.94603e-05 0.91 0 0 0 0.000546438 -0.000379123 -6.72832e-05 
289 8.99209e-05 8.78731e-05 -4.71975e-05 0.91 0 0 0 -0.00139509 -0.00568046 1.02014e-05 
31 5.00818e-05 -3.23165e-05 -4.72065e-05 0.91 0 0 0 0.00046773 -0.000230158 9.71446e-06 
41 4.91231e-05 -3.42243e-05 -4.85223e-05 0.91 0 0 0 0.00057025 -2.59476e-05 -0.000167498 
332 4.79986e-05 6.45022e-06 8.17421e-05 0.91 0 0 0 0.000384381 -0.00218969 -0.00539691 
167 4.78359e-05 -3.23359e-05 -4.49722e-05 0.91 0 0 0 0.000393235 -0.000224897 8.62353e-05 
308 4.76409e-05 9.2046e-05 -3.59461e-06 0.91 0 0 0 0.000399597 -0.00578074 -0.00181627 
241 4.55923e-05 -3.68223e-05 -4.27441e-05 0.91 0 0 0 0.0003153 -0.000378702 0.000164273 
302 0.000313779 5.31306e-05 4.27228e-05 0.91 0 0 0 -0.00684768 -0.00282485 -0.00243684 
333 0.000135971 5.1466e-05 0.000214899 0.91 0 0 0 -0.00203396 -0.00280652 -0.00722425 
309 0.000138057 0.000229576 4.27254e-05 0.91 0 0 0 -0.00205593 -0.0076274 -0.00242916 
82 4.99177e-05 -3.68163e-05 -4.51131e-05 0.91 0 0 0 0.000367908 -0.000378642 -1.64503e-05 
256 4.57371e-05 -3.68109e-05 -4.51318e-05 0.91 0 0 0 0.000418868 -0.000378676 -1.62835e-05 
255 4.78381e-05 -3.68064e-05 -4.54031e-05 0.91 0 0 0 0.000393176 -0.000378777 -2.36399e-05 
172 4.54992e-05 -3.44654e-05 -4.48772e-05 0.91 0 0 0 0.000402915 -0.00038846 -5.25314e-07 
81 5.23052e-05 -3.68005e-05 -4.49546e-05 0.91 0 0 0 0.000544599 -0.000378361 8.48113e-05 
171 4.78404e-05 -3.47177e-05 -4.5137e-05 0.91 0 0 0 0.000393171 -0.00040439 -1.62981e-05 
260 4.78371e-05 -3.89012e-05 -4.51234e-05 0.91 0 0 0 0.000393234 -0.000353147 -1.63705e-05 
257 4.33507e-05 -3.68075e-05 -4.49798e-05 0.91 0 0 0 0.000241447 -0.000378264 8.45255e-05 
86 5.01756e-05 -3.91578e-05 -4.48613e-05 0.91 0 0 0 0.000383967 -0.000369266 -3.3708e-07 
240 4.78278e-05 -3.68242e-05 -4.23248e-05 0.91 0 0 0 0.00039318 -0.000378701 4.83673e-05 
261 4.54883e-05 -3.91597e-05 -4.48743e-05 0.91 0 0 0 0.000402797 -0.000369054 -3.77698e-07 
329 9.01071e-05 -3.66472e-05 7.76775e-05 0.91 0 0 0 -0.00140203 -0.000383961 -0.00529667 
24 5.01625e-05 -3.44772e-05 -4.4888e-05 0.91 0 0 0 0.000383288 -0.000388786 -8.62343e-07 
297 0.00017344 -3.68527e-05 -4.98335e-06 0.91 0 0 0 -0.00492837 -0.00037758 -0.00178226 
225 8.97588e-05 -8.94241e-06 -0.0167233 0.91 0 0 0 -0.00483923 -0.00410709 3.04474 
135 4.16108e-06 -3.69141e-05 8.22899e-05 0.91 0 0 0 0.00221696 -0.000371772 -0.00540929 
123 3.44134e-05 -3.68061e-05 -3.38285e-05 0.91 0 0 0 0.00166268 -0.000377253 -0.00125974 
94 -5.83183e-06 -3.68284e-05 -4.71353e-05 0.91 0 0 0 0.00363705 -0.000376916 5.56525e-06 
102 3.4261e-05 -2.33261e-05 -4.71878e-05 0.91 0 0 0 0.00167139 -0.00165151 8.99785e-06 
52 9.95991e-06 -5.56258e-05 -9.24005e-06 0.91 0 0 0 0.00263081 0.000737267 -0.00223721 
106 5.3085e-06 8.88624e-05 -4.7001e-05 0.91 0 0 0 0.00219182 -0.00570375 3.03946e-06 
117 9.10176e-06 1.85479e-06 -2.79089e-05 0.91 0 0 0 0.00266318 -0.00264721 -0.00112275 
126 9.55659e-06 -1.77464e-05 -9.00322e-06 0.91 0 0 0 0.0026469 -0.00150223 -0.00224258 
130 2.89403e-05 1.09238e-06 -9.28385e-06 0.91 0 0 0 0.00150936 -0.00261979 -0.00223297 
209 6.66354e-05 -7.43847e-05 -9.66708e-06 0.91 0 0 0 -0.000722727 0.00185183 -0.00222043 
184 6.12358e-05 -5.0146e-05 -4.72395e-05 0.91 0 0 0 -0.000876572 0.000887157 9.20907e-06 
30 3.4054e-05 -5.06037e-05 -4.72433e-05 0.91 0 0 0 0.00167961 0.000911729 1.12765e-05 
50 2.83764e-05 -7.58894e-05 -8.11416e-06 0.91 0 0 0 0.00152981 0.00190666 -0.00227675 
40 1.01564e-05 -7.44389e-05 -2.84856e-05 0.91 0 0 0 0.00262555 0.0018544 -0.00110331 
198 8.59994e-05 -7.49351e-05 -2.82568e-05 0.91 0 0 0 -0.0018568 0.00187144 -0.00111279 
203 0.000310165 -0.000125597 4.16532e-05 0.91 0 0 0 -0.00682793 0.00206083 -0.00243699 
221 0.000137982 -0.000127203 0.00022046 0.91 0 0 0 -0.00204426 0.00206831 -0.00725111 
208 4.78323e-05 -5.04945e-05 -3.35025e-05 0.91 0 0 0 0.000392745 0.000904986 -0.00127721 
220 4.79762e-05 -7.8815e-05 7.77066e-05 0.91 0 0 0 0.000386036 0.00140739 -0.00529904 
178 4.78555e-05 -9.09136e-05 -4.72645e-05 0.91 0 0 0 0.000392517 0.00288355 1.02513e-05 
189 0.000175448 -7.97679e-05 -4.71564e-05 0.91 0 0 0 -0.00497673 0.00142873 4.46962e-06 
20 4.91984e-05 -3.40805e-05 -4.585e-05 0.91 0 0 0 0.000562031 -4.02751e-05 0.000177937 
154 4.78174e-05 -5.05637e-05 -6.09366e-05 0.91 0 0 0 0.000395948 0.000908599 0.0012935 
168 4.64956e-05 -3.41266e-05 -4.5878e-05 0.91 0 0 0 0.000221954 -3.55128e-05 0.000180264 
85 5.04245e-05 -3.81197e-05 -4.58989e-05 0.91 0 0 0 0.00074499 -0.000553889 0.00018387 
14 4.91561e-05 -3.55006e-05 -4.45815e-05 0.91 0 0 0 0.000567803 -0.000205307 0.000357578 
169 8.53739e-05 -7.43303e-05 -6.5964e-05 0.91 0 0 0 -0.00183344 0.00184891 0.00112182 
19 9.6957e-06 -7.48644e-05 -6.61452e-05 0.91 0 0 0 0.00264364 0.00186842 0.00112759 
73 4.91825e-05 -3.81738e-05 -4.45136e-05 0.91 0 0 0 0.000564246 -0.000549544 0.000350447 
323 0.000339414 0.000255247 0.000244788 0.91 0 0 0 -9.81117e-05 -0.00087537 -0.000489842 
23 5.04946e-05 -3.54701e-05 -4.58719e-05 0.91 0 0 0 0.000737892 -0.000206948 0.000180797 
69 3.46636e-05 -3.67976e-05 -6.03707e-05 0.91 0 0 0 0.00165087 -0.000380946 0.00126802 
248 4.78555e-05 -2.33986e-05 -6.06701e-05 0.91 0 0 0 0.000391371 -0.00164919 0.0012832 
70 5.00921e-05 -3.68136e-05 -4.27242e-05 0.91 0 0 0 0.000468117 -0.000378568 0.000157773 
88 1.01114e-05 7.75148e-07 -6.59474e-05 0.91 0 0 0 0.00262804 -0.00260841 0.00112334 
266 4.65224e-05 -3.9446e-05 -4.58925e-05 0.91 0 0 0 0.000219361 -0.000727827 0.000183032 
158 4.78413e-05 -3.45586e-05 -4.272e-05 0.91 0 0 0 0.000393359 -0.000304693 0.000156763 
244 4.78281e-05 -3.90671e-05 -4.27327e-05 0.91 0 0 0 0.000393041 -0.000455 0.000161559 
267 8.64161e-05 1.75421e-06 -6.64096e-05 0.91 0 0 0 -0.00187142 -0.00264614 0.00113831 
242 6.09078e-05 -3.682e-05 -6.02588e-05 0.91 0 0 0 -0.000859544 -0.000379983 0.00126141 
173 4.52079e-05 -3.54942e-05 -4.58968e-05 0.91 0 0 0 4.50642e-05 -0.000205225 0.000183032 
159 4.65042e-05 -3.5478e-05 -4.45476e-05 0.91 0 0 0 0.000221066 -0.0002064 0.000353626 
109 -8.0075e-05 -3.6753e-05 -3.96411e-06 0.91 0 0 0 0.00576893 -0.000379379 -0.00180808 
120 -4.18145e-05 0.000227968 4.23514e-05 0.91 0 0 0 0.00283365 -0.00761771 -0.0024292 
33 -8.06838e-05 -8.0316e-05 -4.72449e-05 0.91 0 0 0 0.0057838 0.00144788 1.10899e-05 
43 -0.000218924 -0.000127184 4.23635e-05 0.91 0 0 0 0.00763843 0.00207491 -0.0024194 
57 -4.00825e-05 -0.000124825 0.000213862 0.91 0 0 0 0.00281709 0.00205537 -0.00721842 
113 -0.000212871 5.11505e-05 4.07088e-05 0.91 0 0 0 0.00760802 -0.00280731 -0.00241753 
137 -4.15817e-05 5.30662e-05 0.000218658 0.91 0 0 0 0.00282015 -0.00281926 -0.00723868 
179 9.0685e-05 -0.000163666 -4.74287e-05 0.91 0 0 0 -0.00141243 0.00497558 1.55268e-05 
28 4.82779e-06 -0.00016356 -4.71877e-05 0.91 0 0 0 0.00220727 0.00497239 6.25559e-06 
287 -1.41937e-05 -8.3962e-05 -4.69546e-05 0.91 0 0 0 0.0465491 0.0312943 2.08821e-06 
38 -4.05167e-05 -0.000299419 4.09819e-05 0.91 0 0 0 0.00282037 0.00685995 -0.00241822 
290 9.24879e-06 -8.4062e-05 -4.71811e-05 0.91 0 0 0 0.0315293 0.0449103 2.55977e-05 
194 0.000138389 -0.000304847 4.33112e-05 0.91 0 0 0 -0.00204912 0.00687873 -0.00243962 
25 -0.272617 -0.87539 0.00052468 0.91 0 0 0 4.48545 14.1618 -0.00946612 
335 4.81554e-05 -8.02028e-05 -0.000102078 0.91 0 0 0 0.000437894 0.0311256 0.0457209 
325 4.8156e-05 -9.88974e-05 -9.5441e-05 0.91 0 0 0 0.000332182 0.0457959 0.031765 
165 0.000137346 -0.000301631 -0.000136872 0.91 0 0 0 -0.00204368 0.00686064 0.00245073 
17 -4.03461e-05 -0.000298846 -0.000136173 0.91 0 0 0 0.00281951 0.00684896 0.00245489 
164 4.78739e-05 -0.000165838 -9.07174e-05 0.91 0 0 0 0.000392918 0.00502841 0.00182942 
330 2.65355e-05 -3.70923e-05 -6.93073e-05 0.91 0 0 0 0.0304673 -0.000450132 0.0437891 
316 -8.62694e-05 -3.7183e-05 -0.000143445 0.91 0 0 0 0.050819 -0.000318479 0.0346149 
22 -0.000213347 -0.00012464 -0.000135134 0.91 0 0 0 0.0076159 0.00204685 0.00243816 
148 4.7659e-05 -8.04901e-05 -0.00017634 0.91 0 0 0 0.000402443 0.00144823 0.00541757 
84 -0.000214971 5.21652e-05 -0.000136011 0.91 0 0 0 0.00761779 -0.00282078 0.00244998 
91 -4.21148e-05 0.00023121 -0.000137355 0.91 0 0 0 0.00282131 -0.00764303 0.00244944 
174 0.000304635 -0.000123208 -0.000133643 0.91 0 0 0 -0.00680253 0.00203663 0.00242482 
160 8.65523e-05 -5.61087e-05 -8.58523e-05 0.91 0 0 0 -0.00187656 0.000753542 0.00227607 
11 2.86863e-05 -7.52408e-05 -8.56074e-05 0.91 0 0 0 0.00152119 0.00188215 0.00226778 
80 -7.88714e-05 -3.70152e-05 -8.97193e-05 0.91 0 0 0 0.00574211 -0.000369912 0.00180563 
155 6.70002e-05 -7.52726e-05 -8.57534e-05 0.91 0 0 0 -0.000732693 0.00188204 0.00227409 
246 8.64618e-05 -1.75319e-05 -8.57712e-05 0.91 0 0 0 -0.00187289 -0.00151438 0.00227363 
258 0.000173902 -3.69879e-05 -8.96111e-05 0.91 0 0 0 -0.00493916 -0.00037326 0.00180184 
233 4.79956e-05 6.22528e-06 -0.00017465 0.91 0 0 0 0.000387627 -0.00219345 0.00537762 
230 9.07764e-05 -3.67831e-05 -0.000174755 0.91 0 0 0 -0.00141182 -0.000382615 0.00538044 
63 5.66652e-06 -3.70509e-05 -0.000171704 0.91 0 0 0 0.0021864 -0.000370438 0.00530492 
76 2.89177e-05 1.22897e-06 -8.52208e-05 0.91 0 0 0 0.00151075 -0.00262714 0.00225565 
269 4.77026e-05 8.83511e-05 -8.94946e-05 0.91 0 0 0 0.000398244 -0.0056922 0.00180508 
129 -0.000242512 0.000254407 0.000244056 0.91 0 0 0 0.00105306 -0.00105206 -0.000661802 
105 7.99074e-05 -7.48334e-05 -4.7772e-05 0.91 0 0 0 -0.0303929 0.0443215 -6.72635e-06 
134 0.000131115 -3.73331e-05 -0.000158967 0.91 0 0 0 -0.0334128 -0.000328752 0.0491399 
217 4.83759e-05 6.02899e-06 -0.000101673 0.91 0 0 0 0.000312226 -0.0318644 0.0457244 
210 0.000337158 -0.000326901 0.000242931 0.91 0 0 0 -0.000549231 0.000577737 -0.000959237 
49 -0.000243726 -0.000328934 0.000244738 0.91 0 0 0 0.000873132 0.000125184 -0.000491675 
185 -1.59801e-06 1.82354e-06 -4.64797e-05 0.91 0 0 0 0.0458132 -0.0315077 -5.43979e-06 
29 8.90299e-05 -3.91579e-06 -4.74314e-05 0.91 0 0 0 -0.04451 -0.0311842 -2.61108e-06 
6 -4.08644e-05 -0.000125938 -0.000310596 0.91 0 0 0 0.00282516 0.00206172 0.00724566 
149 0.000138909 -0.000127311 -0.000316603 0.91 0 0 0 -0.00205121 0.00205205 0.00727264 
336 -0.00183856 -0.00384843 -0.00557035 0.91 0 0 0 0.0783444 0.157202 0.229053 
307 -0.00645471 -0.00452922 -0.00227645 0.91 0 0 0 0.248649 0.170678 0.0849145 
10 -0.000242979 -0.000328149 -0.000337583 0.91 0 0 0 0.00112724 0.000358985 0.000749259 
334 -0.00431915 -0.0021961 -0.00636049 0.91 0 0 0 0.16926 0.0830255 0.244849 
310 -0.00383243 -0.00565209 -0.00197027 0.91 0 0 0 0.159461 0.230506 0.0788506 
326 -0.00188421 -0.0056717 -0.00392909 0.91 0 0 0 0.0794473 0.231016 0.159009 
320 -0.00565499 -0.00198742 -0.00398328 0.91 0 0 0 0.233154 0.0789265 0.160302 
156 0.000339037 -0.000328696 -0.00033877 0.91 0 0 0 -0.000124153 0.000150083 0.000537637 
65 -3.97068e-05 5.02098e-05 -0.000306066 0.91 0 0 0 0.00282691 -0.00280105 0.00722403 
250 0.000336663 0.000253107 -0.000336428 0.91 0 0 0 -0.000627776 -0.00142561 0.00104368 
75 -0.000242678 0.000253133 -0.000338089 0.91 0 0 0 0.00121907 -0.00121376 0.000851348 
234 0.000137235 5.22973e-05 -0.000312978 0.91 0 0 0 -0.00203647 -0.00280902 0.00726252 
122 0.000135583 -3.71574e-05 -0.000112369 0.91 0 0 0 -0.0473238 -0.000358022 0.0327138 
132 0.00215382 -0.00618974 -0.00429326 0.91 0 0 0 -0.082092 0.241438 0.166426 
116 0.00595497 -0.00411034 -0.00206298 0.91 0 0 0 -0.236593 0.162637 0.0805794 
125 0.00602578 -0.00207549 -0.00416798 0.91 0 0 0 -0.238018 0.0806905 0.163903 
136 0.00396454 -0.00198753 -0.00572888 0.91 0 0 0 -0.159286 0.0791398 0.232361 
119 0.00395478 -0.00570039 -0.00199522 0.91 0 0 0 -0.159146 0.231569 0.0794883 
139 0.00197348 -0.00389229 -0.00564099 0.91 0 0 0 -0.0786506 0.158051 0.230505 
101 0.000158584 -0.000117796 -4.7946e-05 0.91 0 0 0 -0.0486637 0.0333201 3.45959e-05 
27 0.000125263 6.67787e-05 -4.72159e-05 0.91 0 0 0 -0.0331096 -0.0490262 4.9694e-05 
55 0.00201854 0.00395287 -0.00580995 0.91 0 0 0 -0.0792371 -0.161946 0.233948 
205 4.8122e-05 -8.81549e-06 -7.13343e-05 0.91 0 0 0 0.000360649 -0.0444974 0.0303181 
39 0.00553843 0.00375527 -0.00191901 0.91 0 0 0 -0.22785 -0.157646 0.0775423 
51 0.00584078 0.00193419 -0.00404586 0.91 0 0 0 -0.234236 -0.0799851 0.161534 
180 -5.32081e-05 0.000100971 -4.62188e-05 0.91 0 0 0 0.0352779 -0.0510175 -6.80012e-05 
56 0.00447568 0.00215257 -0.00645728 0.91 0 0 0 -0.169449 -0.0843861 0.24666 
222 -0.00427781 0.00210839 -0.0063078 0.91 0 0 0 0.168427 -0.0837382 0.243889 
215 -0.00561051 0.00189139 -0.00394206 0.91 0 0 0 0.232367 -0.0792456 0.159329 
218 -0.00197923 0.00406776 -0.00598917 0.91 0 0 0 0.0812638 -0.16418 0.237715 
199 -0.00621813 0.00428834 -0.00218743 0.91 0 0 0 0.244374 -0.16843 0.0831763 
145 4.72501e-05 5.53554e-05 7.84499e-05 0.91 0 0 0 0.000395076 -0.0347386 -0.0499268 
62 0.000124847 -3.6632e-05 5.6609e-05 0.91 0 0 0 -0.0330871 -0.000378968 -0.0486611 
170 -0.00634012 0.00436916 0.00213868 0.91 0 0 0 0.246657 -0.169858 -0.0839291 
68 8.82757e-05 -3.67666e-05 -1.48477e-05 0.91 0 0 0 -0.0444719 -0.000344321 -0.0307753 
18 0.00582616 0.00395148 0.00193287 0.91 0 0 0 -0.233901 -0.161685 -0.0800542 
236 4.74305e-05 -8.90946e-05 2.12945e-05 0.91 0 0 0 0.000340821 0.0316372 -0.0465579 
252 4.74173e-05 -8.31696e-05 -9.89338e-06 0.91 0 0 0 0.000435062 0.0448066 -0.0311604 
231 7.50158e-06 -3.64869e-05 2.41966e-06 0.91 0 0 0 0.0316022 -0.000354467 -0.0454341 
243 5.53735e-06 -3.63926e-05 -1.32586e-05 0.91 0 0 0 0.0453094 -0.000484182 -0.0309029 
151 4.74804e-05 3.60057e-05 8.36092e-06 0.91 0 0 0 0.000352066 -0.0471843 -0.0322049 
90 0.00414392 -0.00596887 0.0019865 0.91 0 0 0 -0.163108 0.237044 -0.0811492 
268 -0.00587384 -0.0041169 0.00197109 0.91 0 0 0 0.237682 0.162695 -0.0806134 
271 -0.00410582 -0.00603618 0.00201635 0.91 0 0 0 0.165107 0.238252 -0.0818109 
87 0.0060938 -0.00421553 0.00201163 0.91 0 0 0 -0.239303 0.164856 -0.0813943 
161 -0.00613316 0.0020814 0.00422208 0.91 0 0 0 0.24266 -0.083173 -0.166885 
140 -0.286961 0.00140714 0.924148 0.91 0 0 0 4.40558 -0.0206318 -13.9347 
339 4.11816e-05 -4.03455e-05 0.00925752 0.91 0 0 0 0.000569321 0.00272794 -2.65853 
4 0.00213123 0.00417765 0.00605507 0.91 0 0 0 -0.0815806 -0.166254 -0.240821 
58 -0.58694 -0.5891 1.94407 0.91 0 0 0 0.981092 0.991892 -2.4683 
150 -0.00394122 0.00194593 0.0057334 0.91 0 0 0 0.161631 -0.0805036 -0.23437 
12 0.00616795 0.00204909 0.0041869 0.91 0 0 0 -0.240706 -0.0822892 -0.166387 
146 -0.00212942 0.00434361 0.00628771 0.91 0 0 0 0.0843374 -0.169464 -0.245143 
54 -0.938075 -0.940015 1.38531 0.91 0 0 0 2.53969 2.54818 -3.63242 
191 -0.000981358 -0.952799 0.297646 0.91 0 0 0 0.015509 13.7594 -4.38223 
216 0.00179694 -1.8289 1.8291 0.91 0 0 0 0.0103319 -0.508423 0.48698 
36 -0.579112 -1.92141 0.579666 0.91 0 0 0 1.05644 2.70495 -1.04932 
5 0.00440393 0.00211509 0.00625223 0.91 0 0 0 -0.168263 -0.0836381 -0.244554 
108 -0.889341 -2.77535e-05 0.278299 0.91 0 0 0 14.0913 -0.000401272 -4.48475 
67 0.00199518 -0.00398577 0.00565672 0.91 0 0 0 -0.0788224 0.160289 -0.23273 
133 -1.83338 -0.000192772 1.82988 0.91 0 0 0 -0.523115 -0.00239266 0.498771 
46 -0.955755 -1.40759 0.951318 0.91 0 0 0 2.38714 3.38715 -2.37426 
42 -1.91402 -0.57719 0.579078 0.91 0 0 0 2.76675 1.07055 -1.06944 
223 0.000602805 -0.28499 0.916201 0.91 0 0 0 -0.0101408 4.4247 -13.9757 
48 -1.39939 -0.944118 0.948549 0.91 0 0 0 3.48819 2.44382 -2.45189 
235 -0.00371597 -0.0018991 0.00540999 0.91 0 0 0 0.156866 0.0770386 -0.227629 
237 -0.00183688 -0.00383685 0.00545531 0.91 0 0 0 0.0783337 0.156993 -0.228536 
253 -0.00187452 -0.00565726 0.00382841 0.91 0 0 0 0.0791039 0.230701 -0.158917 
71 0.00609243 -0.00210582 0.00411955 0.91 0 0 0 -0.239329 0.0814178 -0.164835 
78 0.00213385 -0.00612722 0.00416569 0.91 0 0 0 -0.0817439 0.24011 -0.165927 
247 -0.00599096 -0.00210706 0.00411053 0.91 0 0 0 0.239983 0.0815057 -0.16455 
64 0.00400909 -0.00200585 0.00569363 0.91 0 0 0 -0.160328 0.0794686 -0.233572 
83 -1.90954 0.576366 -0.578332 0.91 0 0 0 2.80942 -1.07948 1.08959 
60 -0.579955 0.585389 -1.93274 0.91 0 0 0 1.02052 -1.02868 2.59524 
227 0.000794669 0.281753 -0.902468 0.91 0 0 0 -0.00811851 -4.46064 14.0359 
92 -0.578033 1.9165 -0.576864 0.91 0 0 0 1.06231 -2.76501 1.07115 
239 0.000270053 1.83706 -1.83586 0.91 0 0 0 0.00150495 0.503682 -0.510993 
37 0.0044697 0.00636724 -0.00224442 0.91 0 0 0 -0.169283 -0.246943 0.084313 
47 0.00208049 0.00587271 -0.00412061 0.91 0 0 0 -0.0807616 -0.237458 0.162956 
66 -0.950975 0.950176 -1.40535 0.91 0 0 0 2.40709 -2.40566 3.43159 
77 -0.950297 1.40306 -0.948546 0.91 0 0 0 2.42108 -3.44758 2.42331 
74 -1.39481 0.942571 -0.942728 0.91 0 0 0 3.54501 -2.48325 2.48895 
97 -0.911149 0.282581 0.000596144 0.91 0 0 0 14.0008 -4.42153 -0.00766058 
292 5.16698e-05 0.00911272 -5.73231e-05 0.91 0 0 0 0.00146911 -2.65013 0.00315282 
195 -0.0039372 0.00573946 -0.00201199 0.91 0 0 0 0.161648 -0.234828 0.0795552 
272 -0.00115697 0.889126 -0.277003 0.91 0 0 0 0.0197922 -14.1039 4.4693 
104 -1.83367 1.83223 -0.000602111 0.91 0 0 0 -0.540892 0.529046 0.00520049 
107 -0.292208 0.935358 0.000731991 0.91 0 0 0 4.4123 -13.8625 -0.00938043 
206 -0.00183927 0.0054639 -0.00383921 0.91 0 0 0 0.0785773 -0.228982 0.157169 
16 0.00395155 0.00561546 0.00189092 0.91 0 0 0 -0.159142 -0.232095 -0.0791787 
166 -0.00408612 0.0059441 0.00200347 0.91 0 0 0 0.164694 -0.238818 -0.0813837 
311 0.000268426 0.891274 0.278639 0.91 0 0 0 -0.00318517 -14.0865 -4.47708 
141 -0.576505 0.574629 1.91228 0.91 0 0 0 1.08393 -1.07858 -2.81936 
121 -0.578851 1.91838 0.581149 0.91 0 0 0 1.05392 -2.72819 -1.06162 
8 0.00191003 0.00541861 0.00371776 0.91 0 0 0 -0.0770184 -0.227961 -0.156589 
138 -0.964082 0.963965 1.42306 0.91 0 0 0 2.26876 -2.26937 -3.21941 
112 -1.91618 0.580868 0.57748 0.91 0 0 0 2.73945 -1.06672 -1.06032 
341 -0.000598067 0.286457 0.919104 0.91 0 0 0 0.00924629 -4.42585 -13.9555 
128 -1.38498 0.936838 0.937029 0.91 0 0 0 3.6444 -2.55408 -2.55663 
131 -0.946608 1.39601 0.945739 0.91 0 0 0 2.46486 -3.50924 -2.46619 
338 0.00120417 1.82454 1.8242 0.91 0 0 0 0.00975766 0.470908 0.465603 
152 -0.0019183 0.00568404 0.00391287 0.91 0 0 0 0.0801845 -0.233443 -0.160818 
175 1.91642 -0.579033 -0.578456 0.91 0 0 0 -2.76345 1.06693 1.06313 
143 0.587724 -0.586766 -1.94478 0.91 0 0 0 -0.996092 1.00157 2.48404 
278 0.0147053 -3.56709e-05 -6.13595e-05 0.91 0 0 0 -2.94148 0.00327511 0.00147507 
163 0.579646 -1.92545 -0.581413 0.91 0 0 0 -1.04357 2.67146 1.05166 
177 0.284116 -0.914876 0.000577159 0.91 0 0 0 -4.42155 13.9807 -0.00747442 
147 0.959049 -0.956672 -1.41565 0.91 0 0 0 -2.34008 2.3409 3.32986 
259 0.891776 -0.000545044 -0.279229 0.91 0 0 0 -14.0857 0.00917265 4.4811 
232 1.82127 0.002271 -1.82113 0.91 0 0 0 0.446072 0.0160573 -0.437591 
190 0.93485 -0.291482 -0.000287649 0.91 0 0 0 -13.8733 4.40437 0.00213531 
226 0.274575 0.00149988 -0.877418 0.91 0 0 0 -4.49958 -0.0223178 14.1481 
157 1.3919 -0.942041 -0.940284 0.91 0 0 0 -3.5831 2.51865 2.51255 
153 0.951995 -1.40796 -0.951925 0.91 0 0 0 -2.39521 3.41152 2.40013 
224 0.591516 -0.584812 1.94963 0.91 0 0 0 -0.97953 0.964296 -2.42992 
298 0.886153 0.000938526 0.277178 0.91 0 0 0 -14.1144 -0.0150814 -4.49021 
192 0.578216 -1.91264 0.579703 0.91 0 0 0 -1.06826 2.77433 -1.06821 
331 1.84029 0.000219718 1.84083 0.91 0 0 0 0.517041 -0.00730602 0.513715 
219 0.943644 -0.941958 1.39062 0.91 0 0 0 -2.50416 2.49364 -3.57525 
181 1.83113 -1.83321 0.00388145 0.91 0 0 0 0.517372 -0.522903 0.0175473 
211 1.37764 -0.932583 0.9343 0.91 0 0 0 -3.72198 2.59134 -2.60316 
204 1.94673 -0.585986 0.589016 0.91 0 0 0 -2.44709 0.966592 -0.98034 
340 0.271522 -0.000456955 0.873321 0.91 0 0 0 -4.48218 0.00911324 -14.1777 
207 0.943057 -1.39158 0.944949 0.91 0 0 0 -2.48537 3.54133 -2.49053 
254 0.943189 1.39265 -0.945071 0.91 0 0 0 -2.48318 -3.556 2.48786 
238 0.953484 0.951454 -1.40823 0.91 0 0 0 -2.38216 -2.38645 3.39255 
291 1.83249 1.83276 -0.00102898 0.91 0 0 0 0.511796 0.510894 0.00602382 
228 0.578296 0.579109 -1.91454 0.91 0 0 0 -1.06854 -1.07414 2.7846 
283 0.948757 0.296024 -0.000610162 0.91 0 0 0 -13.7926 -4.38372 0.00637135 
293 0.297402 0.953384 5.45815e-05 0.91 0 0 0 -4.3749 -13.7627 0.000928242 
251 1.37236 0.930804 -0.931589 0.91 0 0 0 -3.76817 -2.639 2.63083 
273 0.585333 1.94815 -0.592044 0.91 0 0 0 -0.968893 -2.42913 0.981251 
264 1.94891 0.590124 -0.590142 0.91 0 0 0 -2.41124 -0.971273 0.961018 
342 0.584517 0.586353 1.93755 0.91 0 0 0 -1.01165 -1.00232 -2.5478 
337 0.949596 0.950649 1.40077 0.91 0 0 0 -2.4298 -2.42223 -3.45686 
324 1.39362 0.945982 0.943224 0.91 0 0 0 -3.54472 -2.4796 -2.47715 
327 0.928236 1.3734 0.932116 0.91 0 0 0 -2.62941 -3.76855 -2.63543 
312 0.588008 1.94418 0.585706 0.91 0 0 0 -0.984248 -2.46469 -0.971481 
303 1.93766 0.586332 0.585861 0.91 0 0 0 -2.54034 -1.00056 -1.00274 
ITEM: TIMESTEP
960111
ITEM: NUMBER OF ATOMS
341
ITEM: BOX BOUNDS ss ss ss
-1.9360300446137211e+00 1.9495118901764781e+00
-1.9388440561347573e+00 1.9487524452880283e+00
-1.9453750558316978e+00 1.9502296762444777e+00
ITEM: ATOMS id x y z width_SPH x_COM y_COM z_COM vx vy vz 
2 -0.585104 -0.586072 -1.93541 0.91 0 0 0 1.00608 1.00856 2.55682 
3 -0.946579 -0.947515 -1.39611 0.91 0 0 0 2.45482 2.45375 3.50133 
13 8.20474e-06 -5.66022e-05 -8.68705e-05 0.91 0 0 0 0.00269546 0.00077214 0.0023145 
72 9.99711e-06 -1.80637e-05 -8.50104e-05 0.91 0 0 0 0.00263196 -0.00149092 0.00224859 
103 5.00775e-05 -4.13077e-05 -4.72109e-05 0.91 0 0 0 0.000467027 -0.000525851 8.93466e-06 
7 -0.940334 -1.38948 -0.939636 0.91 0 0 0 2.51791 3.59865 2.51351 
263 0.000317216 5.3593e-05 -0.000138387 0.91 0 0 0 -0.00686468 -0.00281426 0.00246023 
9 -1.37996 -0.939332 -0.934137 0.91 0 0 0 3.67037 2.57614 2.5635 
265 4.78267e-05 -4.12962e-05 -4.49721e-05 0.91 0 0 0 0.000393162 -0.00053192 8.53153e-05 
313 4.78359e-05 -3.68148e-05 -5.21075e-05 0.91 0 0 0 0.000393477 -0.000378867 -3.04685e-05 
270 0.000135094 0.000222823 -0.000134865 0.91 0 0 0 -0.00202582 -0.00760005 0.00244258 
296 4.33354e-05 -3.68197e-05 -4.94713e-05 0.91 0 0 0 0.000246779 -0.000378954 -6.34461e-05 
299 4.78235e-05 -3.88962e-05 -4.93002e-05 0.91 0 0 0 0.000393427 -0.000353161 3.48461e-05 
15 -0.584504 -1.93824 -0.585918 0.91 0 0 0 1.00081 2.53051 1.00151 
229 4.78673e-05 -3.68068e-05 -0.000102272 0.91 0 0 0 0.000392388 -0.000380993 0.00330607 
328 4.7818e-05 -3.68542e-05 5.95755e-06 0.91 0 0 0 0.000392808 -0.000374281 -0.00321846 
249 6.72447e-05 2.03445e-06 -8.59717e-05 0.91 0 0 0 -0.00074378 -0.0026568 0.00228079 
279 4.78265e-05 -3.86252e-05 -4.7213e-05 0.91 0 0 0 0.000393389 -0.00034584 9.24107e-06 
295 4.57312e-05 -3.681e-05 -4.9314e-05 0.91 0 0 0 0.000418774 -0.0003787 3.4838e-05 
21 -1.93543 -0.586855 -0.584129 0.91 0 0 0 2.52968 1.0038 1.00102 
274 4.78313e-05 -3.68094e-05 -4.7209e-05 0.91 0 0 0 0.000393292 -0.000378713 9.14741e-06 
245 4.65337e-05 -3.81345e-05 -4.45941e-05 0.91 0 0 0 0.000218853 -0.000553211 0.000359494 
200 4.78213e-05 -3.47186e-05 -4.93164e-05 0.91 0 0 0 0.000393419 -0.000404204 3.49291e-05 
93 -0.0133812 -4.27019e-05 -3.30163e-05 0.91 0 0 0 2.87774 -0.000658243 0.000205942 
89 4.914e-05 -3.94477e-05 -4.58791e-05 0.91 0 0 0 0.00056672 -0.000727086 0.000183201 
32 -0.952974 -0.298411 -0.000546366 0.91 0 0 0 13.7545 4.38965 0.00856209 
79 -0.929894 0.000284158 -0.288618 0.91 0 0 0 13.9014 -0.0062642 4.39593 
262 4.52401e-05 -3.81333e-05 -4.59061e-05 0.91 0 0 0 4.23118e-05 -0.000554178 0.00018438 
315 6.20399e-05 -3.68337e-05 -3.30508e-05 0.91 0 0 0 -0.000915332 -0.000376052 -0.00129781 
96 4.96471e-05 -3.68124e-05 -4.7207e-05 0.91 0 0 0 0.000360467 -0.000378674 9.12703e-06 
294 4.78268e-05 -3.68004e-05 -4.90147e-05 0.91 0 0 0 0.000393383 -0.000378884 4.20264e-05 
142 -0.000137083 -0.283035 -0.906731 0.91 0 0 0 0.00228186 4.45298 14.0168 
193 4.7977e-05 -0.000160355 -5.74261e-06 0.91 0 0 0 0.000387517 0.00489599 -0.00176273 
183 4.55845e-05 -3.23113e-05 -4.72303e-05 0.91 0 0 0 0.000319694 -0.000231652 9.20054e-06 
98 -7.88174e-05 6.13559e-06 -4.70422e-05 0.91 0 0 0 0.00573781 -0.00219109 4.20666e-06 
111 4.99234e-05 -3.68062e-05 -4.93041e-05 0.91 0 0 0 0.000367838 -0.00037879 3.47968e-05 
196 4.78263e-05 -3.23208e-05 -4.94742e-05 0.91 0 0 0 0.00039315 -0.000228657 -6.56842e-05 
176 2.21957e-05 -0.0128583 -6.40737e-05 0.91 0 0 0 9.33995e-05 2.84518 0.00328497 
162 -0.000484372 -0.906552 -0.281549 0.91 0 0 0 0.00648724 14.0239 4.43303 
34 5.23122e-05 -3.45576e-05 -4.7215e-05 0.91 0 0 0 0.000543414 -0.000303912 9.15793e-06 
61 -1.8352 -0.000402791 -1.83177 0.91 0 0 0 -0.536725 -0.00931873 -0.51766 
59 -0.297867 0.000548129 -0.952687 0.91 0 0 0 4.38879 -0.0100273 13.7617 
144 -0.00197041 -1.82699 -1.82387 0.91 0 0 0 -0.0240893 -0.457098 -0.442272 
202 4.52217e-05 -3.54857e-05 -4.85404e-05 0.91 0 0 0 4.3949e-05 -0.000203365 -0.000164331 
304 4.78284e-05 -4.12976e-05 -4.9469e-05 0.91 0 0 0 0.00039351 -0.000527386 -6.53822e-05 
317 4.78201e-05 -3.90525e-05 -5.1695e-05 0.91 0 0 0 0.000393308 -0.000454952 -0.000143041 
305 4.6515e-05 -3.94442e-05 -4.85277e-05 0.91 0 0 0 0.000219795 -0.000727754 -0.000164256 
300 4.54904e-05 -3.91542e-05 -4.95474e-05 0.91 0 0 0 0.000403023 -0.000368943 1.90354e-05 
285 4.55911e-05 -4.13036e-05 -4.72166e-05 0.91 0 0 0 0.000318368 -0.000529037 9.03025e-06 
301 4.51778e-05 -3.81467e-05 -4.85492e-05 0.91 0 0 0 4.72118e-05 -0.000551042 -0.000162497 
318 4.65375e-05 -3.81021e-05 -4.97921e-05 0.91 0 0 0 0.000216788 -0.000555835 -0.000344548 
201 4.54924e-05 -3.44704e-05 -4.95455e-05 0.91 0 0 0 0.000403121 -0.000388617 1.92475e-05 
188 4.33527e-05 -3.45537e-05 -4.72287e-05 0.91 0 0 0 0.00024375 -0.000303764 9.21956e-06 
186 4.78334e-05 -3.50081e-05 -4.72188e-05 0.91 0 0 0 0.000393243 -0.000411461 9.35494e-06 
213 4.64827e-05 -3.54571e-05 -4.99163e-05 0.91 0 0 0 0.000222364 -0.000208331 -0.000332923 
314 4.55851e-05 -3.6808e-05 -5.16925e-05 0.91 0 0 0 0.000316133 -0.000378823 -0.000144712 
114 5.0412e-05 -3.81042e-05 -4.85107e-05 0.91 0 0 0 0.00074598 -0.000553958 -0.000166694 
280 4.57347e-05 -3.88921e-05 -4.72195e-05 0.91 0 0 0 0.000418898 -0.000353222 9.33602e-06 
212 4.78176e-05 -3.45649e-05 -5.17092e-05 0.91 0 0 0 0.000393066 -0.000303749 -0.000141537 
35 4.99136e-05 -3.47275e-05 -4.7218e-05 0.91 0 0 0 0.000367745 -0.000404329 9.31048e-06 
182 4.78309e-05 -3.19062e-05 -4.72198e-05 0.91 0 0 0 0.000393234 -0.000337328 9.35802e-06 
45 5.01528e-05 -3.44825e-05 -4.95347e-05 0.91 0 0 0 0.000383113 -0.000389086 1.95933e-05 
197 4.6481e-05 -3.41014e-05 -4.85808e-05 0.91 0 0 0 0.000222983 -3.75454e-05 -0.000160151 
124 5.00679e-05 -3.67995e-05 -5.16942e-05 0.91 0 0 0 0.00046999 -0.000378722 -0.000143546 
115 5.0164e-05 -3.9135e-05 -4.95561e-05 0.91 0 0 0 0.000383584 -0.000368923 1.91439e-05 
26 -1.83625 -1.8397 -0.000739414 0.91 0 0 0 -0.545388 -0.541399 -0.00819097 
288 4.77732e-05 1.556e-05 -4.71867e-05 0.91 0 0 0 0.000396 -0.00357706 9.42618e-06 
306 8.51078e-05 3.68202e-07 -2.87123e-05 0.91 0 0 0 -0.00182623 -0.00259411 -0.00109378 
286 6.1705e-05 -2.29461e-05 -4.72052e-05 0.91 0 0 0 -0.00089822 -0.00167223 8.66864e-06 
321 4.77789e-05 -2.31266e-05 -3.35372e-05 0.91 0 0 0 0.0003966 -0.0016622 -0.00127329 
187 4.57465e-05 -3.47277e-05 -4.72069e-05 0.91 0 0 0 0.000418838 -0.000404277 9.20256e-06 
322 6.74971e-05 2.5314e-06 -7.89556e-06 0.91 0 0 0 -0.000754662 -0.00267175 -0.00228215 
319 8.6304e-05 -1.75519e-05 -8.76319e-06 0.91 0 0 0 -0.00186795 -0.00151194 -0.00225213 
275 4.60205e-05 -3.68057e-05 -4.72126e-05 0.91 0 0 0 0.000426086 -0.000378768 9.24541e-06 
100 4.99215e-05 -3.89e-05 -4.72065e-05 0.91 0 0 0 0.000367842 -0.000353193 9.13449e-06 
277 0.000100713 -3.68895e-05 -4.72071e-05 0.91 0 0 0 -0.00282179 -0.000374976 7.43212e-06 
281 4.33475e-05 -3.90715e-05 -4.72157e-05 0.91 0 0 0 0.000244773 -0.000452885 9.34428e-06 
214 8.59975e-05 -5.58609e-05 -9.23482e-06 0.91 0 0 0 -0.00185813 0.000747619 -0.00223447 
284 4.78332e-05 -4.17082e-05 -4.7201e-05 0.91 0 0 0 0.000393391 -0.000419384 9.24554e-06 
276 4.2943e-05 -3.68187e-05 -4.72068e-05 0.91 0 0 0 0.000353104 -0.000378675 9.45023e-06 
99 5.23092e-05 -3.90553e-05 -4.71987e-05 0.91 0 0 0 0.000544232 -0.000453892 9.35269e-06 
118 4.91423e-05 -3.94425e-05 -4.85218e-05 0.91 0 0 0 0.000567794 -0.00072714 -0.000164039 
127 4.91163e-05 -3.80941e-05 -4.97899e-05 0.91 0 0 0 0.000570897 -0.000554936 -0.000344373 
44 5.04924e-05 -3.54637e-05 -4.85521e-05 0.91 0 0 0 0.000738282 -0.0002074 -0.000161988 
53 4.91495e-05 -3.54684e-05 -4.9856e-05 0.91 0 0 0 0.00056743 -0.000204759 -0.000337259 
95 5.27139e-05 -3.68008e-05 -4.72168e-05 0.91 0 0 0 0.000432953 -0.000378707 9.11741e-06 
282 0.000175764 6.14014e-06 -4.71499e-05 0.91 0 0 0 -0.00498528 -0.00218671 5.60882e-06 
110 5.22986e-05 -3.68132e-05 -4.94604e-05 0.91 0 0 0 0.000546413 -0.000379112 -6.72599e-05 
289 8.99202e-05 8.78703e-05 -4.71975e-05 0.91 0 0 0 -0.00139509 -0.00568039 1.02206e-05 
31 5.0082e-05 -3.23166e-05 -4.72065e-05 0.91 0 0 0 0.00046771 -0.000230155 9.73364e-06 
41 4.91234e-05 -3.42243e-05 -4.85224e-05 0.91 0 0 0 0.000570227 -2.59497e-05 -0.000167472 
332 4.79988e-05 6.44913e-06 8.17394e-05 0.91 0 0 0 0.000384364 -0.00218966 -0.00539684 
167 4.78361e-05 -3.2336e-05 -4.49722e-05 0.91 0 0 0 0.000393219 -0.000224894 8.62504e-05 
308 4.76411e-05 9.20431e-05 -3.59552e-06 0.91 0 0 0 0.00039958 -0.00578068 -0.00181623 
241 4.55925e-05 -3.68225e-05 -4.2744e-05 0.91 0 0 0 0.000315287 -0.000378692 0.000164284 
302 0.000313775 5.31292e-05 4.27216e-05 0.91 0 0 0 -0.0068477 -0.00282484 -0.00243683 
333 0.00013597 5.14646e-05 0.000214896 0.91 0 0 0 -0.00203398 -0.00280651 -0.00722423 
309 0.000138056 0.000229572 4.27242e-05 0.91 0 0 0 -0.00205595 -0.00762739 -0.00242914 
82 4.99179e-05 -3.68165e-05 -4.51131e-05 0.91 0 0 0 0.00036789 -0.000378632 -1.6432e-05 
256 4.57373e-05 -3.68111e-05 -4.51318e-05 0.91 0 0 0 0.000418852 -0.000378666 -1.62653e-05 
255 4.78383e-05 -3.68066e-05 -4.54031e-05 0.91 0 0 0 0.00039316 -0.000378766 -2.36212e-05 
172 4.54994e-05 -3.44656e-05 -4.48772e-05 0.91 0 0 0 0.0004029 -0.000388451 -5.07725e-07 
81 5.23054e-05 -3.68006e-05 -4.49546e-05 0.91 0 0 0 0.000544575 -0.000378351 8.48264e-05 
171 4.78406e-05 -3.47179e-05 -4.5137e-05 0.91 0 0 0 0.000393154 -0.00040438 -1.62799e-05 
260 4.78373e-05 -3.89013e-05 -4.51234e-05 0.91 0 0 0 0.000393217 -0.000353136 -1.63523e-05 
257 4.33508e-05 -3.68077e-05 -4.49798e-05 0.91 0 0 0 0.000241438 -0.000378253 8.45406e-05 
86 5.01758e-05 -3.9158e-05 -4.48613e-05 0.91 0 0 0 0.000383949 -0.000369254 -3.1951e-07 
240 4.7828e-05 -3.68243e-05 -4.23248e-05 0.91 0 0 0 0.000393163 -0.00037869 4.83814e-05 
261 4.54885e-05 -3.91599e-05 -4.48743e-05 0.91 0 0 0 0.000402782 -0.000369042 -3.60116e-07 
329 9.01064e-05 -3.66474e-05 7.76749e-05 0.91 0 0 0 -0.00140203 -0.00038395 -0.0052966 
24 5.01627e-05 -3.44774e-05 -4.4888e-05 0.91 0 0 0 0.00038327 -0.000388777 -8.44735e-07 
297 0.000173437 -3.68529e-05 -4.98424e-06 0.91 0 0 0 -0.00492834 -0.00037757 -0.00178222 
225 8.97564e-05 -8.94446e-06 -0.0167218 0.91 0 0 0 -0.00483913 -0.00410699 3.04467 
135 4.16218e-06 -3.69143e-05 8.22872e-05 0.91 0 0 0 0.00221692 -0.000371762 -0.00540922 
123 3.44142e-05 -3.68063e-05 -3.38292e-05 0.91 0 0 0 0.00166264 -0.000377242 -0.00125969 
94 -5.83002e-06 -3.68285e-05 -4.71353e-05 0.91 0 0 0 0.00363698 -0.000376906 5.58449e-06 
102 3.42618e-05 -2.3327e-05 -4.71878e-05 0.91 0 0 0 0.00167135 -0.00165147 9.01703e-06 
52 9.96122e-06 -5.56254e-05 -9.24117e-06 0.91 0 0 0 0.00263075 0.00073726 -0.00223716 
106 5.3096e-06 8.88595e-05 -4.7001e-05 0.91 0 0 0 0.00219178 -0.00570369 3.05867e-06 
117 9.10309e-06 1.85347e-06 -2.79095e-05 0.91 0 0 0 0.00266313 -0.00264717 -0.00112271 
126 9.55791e-06 -1.77472e-05 -9.00434e-06 0.91 0 0 0 0.00264685 -0.0015022 -0.00224252 
130 2.89411e-05 1.09107e-06 -9.28496e-06 0.91 0 0 0 0.00150933 -0.00261974 -0.00223292 
209 6.66351e-05 -7.43837e-05 -9.66819e-06 0.91 0 0 0 -0.000722727 0.00185181 -0.00222038 
184 6.12353e-05 -5.01455e-05 -4.72395e-05 0.91 0 0 0 -0.000876562 0.000887141 9.22829e-06 
30 3.40548e-05 -5.06033e-05 -4.72433e-05 0.91 0 0 0 0.00167957 0.000911713 1.12956e-05 
50 2.83771e-05 -7.58884e-05 -8.1153e-06 0.91 0 0 0 0.00152978 0.00190663 -0.00227669 
40 1.01577e-05 -7.4438e-05 -2.84861e-05 0.91 0 0 0 0.0026255 0.00185438 -0.00110327 
198 8.59985e-05 -7.49341e-05 -2.82573e-05 0.91 0 0 0 -0.00185678 0.00187141 -0.00111275 
203 0.000310161 -0.000125596 4.1652e-05 0.91 0 0 0 -0.00682795 0.00206085 -0.00243697 
221 0.000137981 -0.000127202 0.000220456 0.91 0 0 0 -0.00204428 0.00206832 -0.00725109 
208 4.78325e-05 -5.0494e-05 -3.35032e-05 0.91 0 0 0 0.000392728 0.00090497 -0.00127716 
220 4.79764e-05 -7.88143e-05 7.7704e-05 0.91 0 0 0 0.00038602 0.00140738 -0.00529897 
178 4.78557e-05 -9.09122e-05 -4.72645e-05 0.91 0 0 0 0.0003925 0.00288351 1.02705e-05 
189 0.000175446 -7.97672e-05 -4.71564e-05 0.91 0 0 0 -0.00497669 0.00142872 4.48891e-06 
20 4.91987e-05 -3.40805e-05 -4.585e-05 0.91 0 0 0 0.000562009 -4.02769e-05 0.00017795 
154 4.78176e-05 -5.05632e-05 -6.0936e-05 0.91 0 0 0 0.000395931 0.000908583 0.00129349 
168 4.64957e-05 -3.41266e-05 -4.58779e-05 0.91 0 0 0 0.000221943 -3.55147e-05 0.000180277 
85 5.04249e-05 -3.812e-05 -4.58988e-05 0.91 0 0 0 0.000744961 -0.000553872 0.000183883 
14 4.91564e-05 -3.55007e-05 -4.45813e-05 0.91 0 0 0 0.00056778 -0.000205303 0.000357585 
169 8.5373e-05 -7.43294e-05 -6.59635e-05 0.91 0 0 0 -0.00183342 0.00184889 0.00112182 
19 9.69702e-06 -7.48634e-05 -6.61446e-05 0.91 0 0 0 0.00264359 0.0018684 0.00112759 
73 4.91827e-05 -3.81741e-05 -4.45134e-05 0.91 0 0 0 0.000564224 -0.000549528 0.000350455 
323 0.000339414 0.000255247 0.000244788 0.91 0 0 0 -9.83505e-05 -0.000875582 -0.000490045 
23 5.0495e-05 -3.54702e-05 -4.58718e-05 0.91 0 0 0 0.000737863 -0.000206944 0.00018081 
69 3.46645e-05 -3.67978e-05 -6.03701e-05 0.91 0 0 0 0.00165083 -0.000380936 0.00126801 
248 4.78557e-05 -2.33995e-05 -6.06695e-05 0.91 0 0 0 0.000391354 -0.00164915 0.00128319 
70 5.00923e-05 -3.68137e-05 -4.27241e-05 0.91 0 0 0 0.000468097 -0.000378558 0.000157784 
88 1.01127e-05 7.73844e-07 -6.59468e-05 0.91 0 0 0 0.00262799 -0.00260836 0.00112335 
266 4.65225e-05 -3.94464e-05 -4.58925e-05 0.91 0 0 0 0.00021935 -0.000727804 0.000183045 
158 4.78415e-05 -3.45588e-05 -4.272e-05 0.91 0 0 0 0.000393342 -0.000304687 0.000156775 
244 4.78283e-05 -3.90674e-05 -4.27326e-05 0.91 0 0 0 0.000393024 -0.000454986 0.00016157 
267 8.64152e-05 1.75289e-06 -6.64091e-05 0.91 0 0 0 -0.0018714 -0.00264609 0.00113831 
242 6.09074e-05 -3.68202e-05 -6.02582e-05 0.91 0 0 0 -0.000859535 -0.000379972 0.0012614 
173 4.52079e-05 -3.54943e-05 -4.58967e-05 0.91 0 0 0 4.50598e-05 -0.000205221 0.000183045 
159 4.65043e-05 -3.54781e-05 -4.45474e-05 0.91 0 0 0 0.000221055 -0.000206396 0.000353633 
109 -8.00721e-05 -3.67532e-05 -3.96502e-06 0.91 0 0 0 0.00576886 -0.000379369 -0.00180805 
120 -4.18131e-05 0.000227964 4.23502e-05 0.91 0 0 0 0.00283364 -0.00761771 -0.00242918 
33 -8.06809e-05 -8.03153e-05 -4.72449e-05 0.91 0 0 0 0.00578374 0.00144787 1.11091e-05 
43 -0.000218921 -0.000127183 4.23623e-05 0.91 0 0 0 0.00763842 0.00207492 -0.00241938 
57 -4.00811e-05 -0.000124824 0.000213858 0.91 0 0 0 0.00281708 0.00205538 -0.00721841 
113 -0.000212867 5.11491e-05 4.07076e-05 0.91 0 0 0 0.00760801 -0.0028073 -0.00241751 
137 -4.15803e-05 5.30647e-05 0.000218655 0.91 0 0 0 0.00282014 -0.00281925 -0.00723867 
179 9.06843e-05 -0.000163664 -4.74287e-05 0.91 0 0 0 -0.00141243 0.00497553 1.5546e-05 
28 4.8289e-06 -0.000163557 -4.71877e-05 0.91 0 0 0 0.00220724 0.00497235 6.27485e-06 
287 -1.41704e-05 -8.39463e-05 -4.69546e-05 0.91 0 0 0 0.0465478 0.0312934 2.10741e-06 
38 -4.05153e-05 -0.000299416 4.09807e-05 0.91 0 0 0 0.00282036 0.00685996 -0.0024182 
290 9.26456e-06 -8.40396e-05 -4.71811e-05 0.91 0 0 0 0.0315284 0.044909 2.56164e-05 
194 0.000138388 -0.000304843 4.331e-05 0.91 0 0 0 -0.00204914 0.00687875 -0.0024396 
25 -0.272615 -0.875383 0.000524675 0.91 0 0 0 4.48546 14.1618 -0.00946612 
335 4.81556e-05 -8.01872e-05 -0.000102055 0.91 0 0 0 0.000437876 0.0311248 0.0457196 
325 4.81561e-05 -9.88745e-05 -9.54251e-05 0.91 0 0 0 0.000332167 0.0457946 0.0317642 
165 0.000137345 -0.000301628 -0.00013687 0.91 0 0 0 -0.00204369 0.00686065 0.00245075 
17 -4.03447e-05 -0.000298842 -0.000136172 0.91 0 0 0 0.00281949 0.00684897 0.00245491 
164 4.78741e-05 -0.000165835 -9.07165e-05 0.91 0 0 0 0.000392901 0.00502837 0.00182943 
330 2.65507e-05 -3.70926e-05 -6.92854e-05 0.91 0 0 0 0.0304664 -0.000450119 0.0437879 
316 -8.6244e-05 -3.71832e-05 -0.000143427 0.91 0 0 0 0.0508176 -0.000318471 0.034614 
22 -0.000213343 -0.000124639 -0.000135132 0.91 0 0 0 0.00761588 0.00204686 0.00243818 
148 4.76592e-05 -8.04894e-05 -0.000176337 0.91 0 0 0 0.000402426 0.00144822 0.00541754 
84 -0.000214967 5.21638e-05 -0.00013601 0.91 0 0 0 0.00761778 -0.00282077 0.00245 
91 -4.21134e-05 0.000231206 -0.000137354 0.91 0 0 0 0.00282129 -0.00764303 0.00244946 
174 0.000304631 -0.000123207 -0.000133642 0.91 0 0 0 -0.00680255 0.00203664 0.00242484 
160 8.65513e-05 -5.61083e-05 -8.58512e-05 0.91 0 0 0 -0.00187654 0.000753535 0.00227605 
11 2.8687e-05 -7.52399e-05 -8.56062e-05 0.91 0 0 0 0.00152116 0.00188213 0.00226776 
80 -7.88685e-05 -3.70154e-05 -8.97184e-05 0.91 0 0 0 0.00574204 -0.000369902 0.00180563 
155 6.69999e-05 -7.52717e-05 -8.57522e-05 0.91 0 0 0 -0.000732692 0.00188202 0.00227407 
246 8.64608e-05 -1.75327e-05 -8.57701e-05 0.91 0 0 0 -0.00187287 -0.00151435 0.00227362 
258 0.000173899 -3.69881e-05 -8.96102e-05 0.91 0 0 0 -0.00493913 -0.00037325 0.00180185 
233 4.79958e-05 6.22418e-06 -0.000174648 0.91 0 0 0 0.00038761 -0.00219342 0.00537758 
230 9.07756e-05 -3.67833e-05 -0.000174752 0.91 0 0 0 -0.00141182 -0.000382604 0.0053804 
63 5.66761e-06 -3.70511e-05 -0.000171701 0.91 0 0 0 0.00218637 -0.000370428 0.00530489 
76 2.89184e-05 1.22766e-06 -8.52197e-05 0.91 0 0 0 0.00151072 -0.00262709 0.00225563 
269 4.77028e-05 8.83483e-05 -8.94937e-05 0.91 0 0 0 0.000398227 -0.00569214 0.00180508 
129 -0.000242511 0.000254407 0.000244055 0.91 0 0 0 0.00105326 -0.00105227 -0.000662 
105 7.98922e-05 -7.48112e-05 -4.7772e-05 0.91 0 0 0 -0.030392 0.0443203 -6.70623e-06 
134 0.000131098 -3.73332e-05 -0.000158943 0.91 0 0 0 -0.0334119 -0.000328743 0.0491385 
217 4.83761e-05 6.01305e-06 -0.00010165 0.91 0 0 0 0.000312212 -0.0318635 0.0457231 
210 0.000337158 -0.000326901 0.000242931 0.91 0 0 0 -0.000549455 0.000577955 -0.000959425 
49 -0.000243726 -0.000328933 0.000244737 0.91 0 0 0 0.000873338 0.000125417 -0.000491878 
185 -1.5751e-06 1.80778e-06 -4.64797e-05 0.91 0 0 0 0.0458119 -0.0315069 -5.42075e-06 
29 8.90077e-05 -3.93138e-06 -4.74314e-05 0.91 0 0 0 -0.0445087 -0.0311833 -2.59136e-06 
6 -4.0863e-05 -0.000125936 -0.000310592 0.91 0 0 0 0.00282514 0.00206174 0.00724568 
149 0.000138908 -0.00012731 -0.000316599 0.91 0 0 0 -0.00205123 0.00205206 0.00727267 
336 -0.00183853 -0.00384836 -0.00557024 0.91 0 0 0 0.0783437 0.157201 0.22905 
307 -0.00645459 -0.00452913 -0.0022764 0.91 0 0 0 0.248647 0.170677 0.0849139 
10 -0.000242978 -0.000328149 -0.000337582 0.91 0 0 0 0.00112744 0.00035921 0.000749492 
334 -0.00431906 -0.00219606 -0.00636037 0.91 0 0 0 0.169258 0.0830248 0.244847 
310 -0.00383235 -0.00565198 -0.00197023 0.91 0 0 0 0.159459 0.230503 0.0788499 
326 -0.00188417 -0.00567158 -0.00392901 0.91 0 0 0 0.0794466 0.231014 0.159007 
320 -0.00565487 -0.00198738 -0.0039832 0.91 0 0 0 0.233152 0.0789258 0.160301 
156 0.000339037 -0.000328696 -0.000338769 0.91 0 0 0 -0.00012439 0.000150314 0.000537877 
65 -3.97054e-05 5.02084e-05 -0.000306062 0.91 0 0 0 0.0028269 -0.00280104 0.00722405 
250 0.000336663 0.000253106 -0.000336427 0.91 0 0 0 -0.000627997 -0.00142581 0.0010439 
75 -0.000242678 0.000253132 -0.000338089 0.91 0 0 0 0.00121927 -0.00121396 0.000851578 
234 0.000137234 5.22959e-05 -0.000312975 0.91 0 0 0 -0.00203649 -0.00280901 0.00726255 
122 0.00013556 -3.71575e-05 -0.000112352 0.91 0 0 0 -0.0473225 -0.000358012 0.0327129 
132 0.00215378 -0.00618962 -0.00429318 0.91 0 0 0 -0.0820913 0.241436 0.166425 
116 0.00595486 -0.00411026 -0.00206294 0.91 0 0 0 -0.236591 0.162636 0.0805787 
125 0.00602566 -0.00207545 -0.0041679 0.91 0 0 0 -0.238015 0.0806898 0.163901 
136 0.00396446 -0.00198749 -0.00572876 0.91 0 0 0 -0.159285 0.0791391 0.232358 
119 0.0039547 -0.00570027 -0.00199518 0.91 0 0 0 -0.159145 0.231567 0.0794876 
139 0.00197344 -0.00389222 -0.00564087 0.91 0 0 0 -0.0786499 0.15805 0.230503 
101 0.00015856 -0.000117779 -4.7946e-05 0.91 0 0 0 -0.0486623 0.0333192 3.46149e-05 
27 0.000125246 6.67542e-05 -4.72159e-05 0.91 0 0 0 -0.0331087 -0.0490248 4.9712e-05 
55 0.0020185 0.00395279 -0.00580984 0.91 0 0 0 -0.0792363 -0.161945 0.233946 
205 4.81221e-05 -8.83774e-06 -7.13191e-05 0.91 0 0 0 0.000360633 -0.0444962 0.0303173 
39 0.00553832 0.00375519 -0.00191897 0.91 0 0 0 -0.227847 -0.157645 0.0775416 
51 0.00584067 0.00193415 -0.00404578 0.91 0 0 0 -0.234234 -0.0799844 0.161532 
180 -5.31905e-05 0.000100946 -4.62188e-05 0.91 0 0 0 0.0352769 -0.0510161 -6.79805e-05 
56 0.0044756 0.00215252 -0.00645715 0.91 0 0 0 -0.169447 -0.0843855 0.246658 
222 -0.00427772 0.00210835 -0.00630768 0.91 0 0 0 0.168426 -0.0837375 0.243887 
215 -0.00561039 0.00189135 -0.00394198 0.91 0 0 0 0.232365 -0.0792448 0.159328 
218 -0.00197919 0.00406768 -0.00598905 0.91 0 0 0 0.0812631 -0.164179 0.237713 
199 -0.006218 0.00428825 -0.00218739 0.91 0 0 0 0.244372 -0.168428 0.0831756 
145 4.72503e-05 5.5338e-05 7.8425e-05 0.91 0 0 0 0.00039506 -0.0347376 -0.0499254 
62 0.00012483 -3.66322e-05 5.65847e-05 0.91 0 0 0 -0.0330862 -0.000378958 -0.0486598 
170 -0.00634 0.00436907 0.00213863 0.91 0 0 0 0.246655 -0.169856 -0.0839284 
68 8.82534e-05 -3.67668e-05 -1.48631e-05 0.91 0 0 0 -0.0444706 -0.000344312 -0.0307744 
18 0.00582604 0.0039514 0.00193283 0.91 0 0 0 -0.233899 -0.161684 -0.0800534 
236 4.74306e-05 -8.90787e-05 2.12712e-05 0.91 0 0 0 0.000340806 0.0316363 -0.0465566 
252 4.74175e-05 -8.31472e-05 -9.90896e-06 0.91 0 0 0 0.000435044 0.0448053 -0.0311595 
231 7.51738e-06 -3.64871e-05 2.39694e-06 0.91 0 0 0 0.0316013 -0.000354458 -0.0454328 
243 5.56e-06 -3.63928e-05 -1.3274e-05 0.91 0 0 0 0.0453081 -0.000484169 -0.030902 
151 4.74805e-05 3.59822e-05 8.34482e-06 0.91 0 0 0 0.000352051 -0.047183 -0.032204 
90 0.00414384 -0.00596875 0.00198646 0.91 0 0 0 -0.163107 0.237041 -0.0811485 
268 -0.00587373 -0.00411682 0.00197105 0.91 0 0 0 0.23768 0.162694 -0.0806127 
271 -0.00410573 -0.00603606 0.00201631 0.91 0 0 0 0.165105 0.23825 -0.0818101 
87 0.00609368 -0.00421545 0.00201159 0.91 0 0 0 -0.239301 0.164855 -0.0813936 
161 -0.00613304 0.00208136 0.00422199 0.91 0 0 0 0.242658 -0.0831723 -0.166883 
140 -0.286959 0.00140713 0.924141 0.91 0 0 0 4.4056 -0.0206318 -13.9347 
339 4.11819e-05 -4.03441e-05 0.00925619 0.91 0 0 0 0.000569304 0.00272786 -2.65846 
4 0.00213118 0.00417756 0.00605495 0.91 0 0 0 -0.08158 -0.166252 -0.240819 
58 -0.58694 -0.5891 1.94407 0.91 0 0 0 0.981096 0.991896 -2.46832 
150 -0.00394114 0.00194589 0.00573328 0.91 0 0 0 0.161629 -0.0805029 -0.234368 
12 0.00616783 0.00204905 0.00418682 0.91 0 0 0 -0.240703 -0.0822885 -0.166385 
146 -0.00212937 0.00434352 0.00628759 0.91 0 0 0 0.0843367 -0.169463 -0.245141 
54 -0.938074 -0.940013 1.38531 0.91 0 0 0 2.5397 2.54819 -3.63244 
191 -0.000981351 -0.952793 0.297644 0.91 0 0 0 0.015509 13.7595 -4.38224 
216 0.00179694 -1.8289 1.8291 0.91 0 0 0 0.0103319 -0.508427 0.486984 
36 -0.579111 -1.92141 0.579666 0.91 0 0 0 1.05644 2.70497 -1.04933 
5 0.00440385 0.00211505 0.00625211 0.91 0 0 0 -0.168262 -0.0836374 -0.244552 
108 -0.889334 -2.77537e-05 0.278297 0.91 0 0 0 14.0913 -0.000401283 -4.48476 
67 0.00199514 -0.00398569 0.0056566 0.91 0 0 0 -0.0788217 0.160288 -0.232728 
133 -1.83338 -0.000192774 1.82988 0.91 0 0 0 -0.52312 -0.00239268 0.498775 
46 -0.955754 -1.40758 0.951317 0.91 0 0 0 2.38715 3.38717 -2.37427 
42 -1.91402 -0.577189 0.579077 0.91 0 0 0 2.76677 1.07055 -1.06944 
223 0.0006028 -0.284988 0.916194 0.91 0 0 0 -0.0101408 4.42471 -13.9757 
48 -1.39939 -0.944117 0.948547 0.91 0 0 0 3.48821 2.44384 -2.4519 
235 -0.00371589 -0.00189906 0.00540987 0.91 0 0 0 0.156864 0.0770378 -0.227627 
237 -0.00183684 -0.00383677 0.0054552 0.91 0 0 0 0.0783329 0.156992 -0.228533 
253 -0.00187448 -0.00565715 0.00382833 0.91 0 0 0 0.0791031 0.230699 -0.158916 
71 0.00609231 -0.00210578 0.00411946 0.91 0 0 0 -0.239327 0.0814171 -0.164833 
78 0.00213381 -0.0061271 0.00416561 0.91 0 0 0 -0.0817432 0.240108 -0.165926 
247 -0.00599084 -0.00210702 0.00411044 0.91 0 0 0 0.239981 0.081505 -0.164549 
64 0.00400901 -0.00200581 0.00569351 0.91 0 0 0 -0.160326 0.0794679 -0.23357 
83 -1.90954 0.576366 -0.578332 0.91 0 0 0 2.80944 -1.07948 1.0896 
60 -0.579954 0.585389 -1.93274 0.91 0 0 0 1.02052 -1.02868 2.59526 
227 0.000794665 0.28175 -0.902461 0.91 0 0 0 -0.00811861 -4.46065 14.0359 
92 -0.578032 1.9165 -0.576864 0.91 0 0 0 1.06231 -2.76503 1.07116 
239 0.000270053 1.83706 -1.83586 0.91 0 0 0 0.00150494 0.503686 -0.510998 
37 0.00446962 0.00636712 -0.00224438 0.91 0 0 0 -0.169281 -0.24694 0.0843123 
47 0.00208045 0.00587259 -0.00412053 0.91 0 0 0 -0.0807609 -0.237456 0.162955 
66 -0.950974 0.950175 -1.40535 0.91 0 0 0 2.4071 -2.40567 3.43161 
77 -0.950296 1.40306 -0.948545 0.91 0 0 0 2.42109 -3.4476 2.42332 
74 -1.39481 0.94257 -0.942727 0.91 0 0 0 3.54503 -2.48326 2.48896 
97 -0.911142 0.282579 0.00059614 0.91 0 0 0 14.0009 -4.42154 -0.00766063 
292 5.16705e-05 0.0091114 -5.73215e-05 0.91 0 0 0 0.00146906 -2.65006 0.00315276 
195 -0.00393712 0.00573934 -0.00201195 0.91 0 0 0 0.161646 -0.234826 0.0795545 
272 -0.00115696 0.889119 -0.277 0.91 0 0 0 0.0197923 -14.104 4.4693 
104 -1.83367 1.83223 -0.000602108 0.91 0 0 0 -0.540896 0.529051 0.00520049 
107 -0.292205 0.935351 0.000731986 0.91 0 0 0 4.41231 -13.8626 -0.00938044 
206 -0.00183923 0.00546378 -0.00383913 0.91 0 0 0 0.0785766 -0.22898 0.157168 
16 0.00395147 0.00561534 0.00189088 0.91 0 0 0 -0.159141 -0.232093 -0.0791779 
166 -0.00408603 0.00594398 0.00200343 0.91 0 0 0 0.164692 -0.238816 -0.081383 
311 0.000268424 0.891267 0.278637 0.91 0 0 0 -0.00318516 -14.0866 -4.47709 
141 -0.576505 0.574628 1.91228 0.91 0 0 0 1.08394 -1.07858 -2.81937 
121 -0.57885 1.91838 0.581149 0.91 0 0 0 1.05393 -2.72821 -1.06163 
8 0.00191 0.00541849 0.00371769 0.91 0 0 0 -0.0770177 -0.227959 -0.156587 
138 -0.96408 0.963964 1.42306 0.91 0 0 0 2.26877 -2.26939 -3.21943 
112 -1.91618 0.580867 0.577479 0.91 0 0 0 2.73947 -1.06673 -1.06033 
341 -0.000598063 0.286455 0.919097 0.91 0 0 0 0.00924628 -4.42586 -13.9555 
128 -1.38498 0.936836 0.937028 0.91 0 0 0 3.64442 -2.55409 -2.55664 
131 -0.946607 1.39601 0.945738 0.91 0 0 0 2.46487 -3.50926 -2.46621 
338 0.00120418 1.82454 1.8242 0.91 0 0 0 0.00975768 0.470912 0.465607 
152 -0.00191826 0.00568392 0.00391279 0.91 0 0 0 0.0801838 -0.233441 -0.160816 
175 1.91642 -0.579033 -0.578456 0.91 0 0 0 -2.76347 1.06693 1.06314 
143 0.587723 -0.586765 -1.94477 0.91 0 0 0 -0.996096 1.00157 2.48405 
278 0.0147038 -3.56692e-05 -6.13588e-05 0.91 0 0 0 -2.9414 0.00327502 0.00147506 
163 0.579646 -1.92545 -0.581413 0.91 0 0 0 -1.04357 2.67148 1.05166 
177 0.284114 -0.914869 0.000577156 0.91 0 0 0 -4.42156 13.9807 -0.00747446 
147 0.959048 -0.95667 -1.41564 0.91 0 0 0 -2.34009 2.34091 3.32988 
259 0.891769 -0.00054504 -0.279226 0.91 0 0 0 -14.0857 0.00917267 4.48111 
232 1.82127 0.00227101 -1.82113 0.91 0 0 0 0.446077 0.0160574 -0.437595 
190 0.934843 -0.29148 -0.000287648 0.91 0 0 0 -13.8734 4.40438 0.00213532 
226 0.274573 0.00149986 -0.877411 0.91 0 0 0 -4.49959 -0.0223179 14.1481 
157 1.3919 -0.942039 -0.940283 0.91 0 0 0 -3.58313 2.51866 2.51257 
153 0.951994 -1.40796 -0.951924 0.91 0 0 0 -2.39522 3.41154 2.40014 
224 0.591516 -0.584812 1.94963 0.91 0 0 0 -0.979534 0.9643 -2.42994 
298 0.886146 0.000938519 0.277176 0.91 0 0 0 -14.1144 -0.0150814 -4.49022 
192 0.578216 -1.91264 0.579703 0.91 0 0 0 -1.06826 2.77435 -1.06822 
331 1.84029 0.000219714 1.84083 0.91 0 0 0 0.517045 -0.00730604 0.513719 
219 0.943643 -0.941956 1.39062 0.91 0 0 0 -2.50418 2.49365 -3.57527 
181 1.83113 -1.83321 0.00388146 0.91 0 0 0 0.517376 -0.522907 0.0175475 
211 1.37764 -0.932582 0.934298 0.91 0 0 0 -3.722 2.59136 -2.60317 
204 1.94673 -0.585986 0.589016 0.91 0 0 0 -2.44711 0.966595 -0.980344 
340 0.27152 -0.000456951 0.873314 0.91 0 0 0 -4.48219 0.00911324 -14.1777 
207 0.943055 -1.39158 0.944948 0.91 0 0 0 -2.48539 3.54135 -2.49054 
254 0.943188 1.39265 -0.94507 0.91 0 0 0 -2.4832 -3.55602 2.48787 
238 0.953483 0.951453 -1.40823 0.91 0 0 0 -2.38218 -2.38646 3.39257 
291 1.83249 1.83276 -0.00102898 0.91 0 0 0 0.5118 0.510899 0.00602384 
228 0.578295 0.579108 -1.91454 0.91 0 0 0 -1.06854 -1.07415 2.78462 
283 0.94875 0.296022 -0.000610159 0.91 0 0 0 -13.7927 -4.38373 0.00637138 
293 0.2974 0.953377 5.4582e-05 0.91 0 0 0 -4.37492 -13.7627 0.000928236 
251 1.37235 0.930802 -0.931587 0.91 0 0 0 -3.76819 -2.63901 2.63084 
273 0.585333 1.94815 -0.592043 0.91 0 0 0 -0.968897 -2.42914 0.981255 
264 1.94891 0.590124 -0.590141 0.91 0 0 0 -2.41126 -0.971277 0.961022 
342 0.584516 0.586353 1.93755 0.91 0 0 0 -1.01165 -1.00233 -2.54781 
337 0.949595 0.950647 1.40077 0.91 0 0 0 -2.42981 -2.42225 -3.45689 
324 1.39362 0.945981 0.943223 0.91 0 0 0 -3.54474 -2.47961 -2.47716 
327 0.928235 1.3734 0.932114 0.91 0 0 0 -2.62942 -3.76857 -2.63544 
312 0.588007 1.94418 0.585706 0.91 0 0 0 -0.984252 -2.4647 -0.971485 
303 1.93766 0.586331 0.58586 0.91 0 0 0 -2.54036 -1.00057 -1.00275 
ITEM: TIMESTEP
960112
ITEM: NUMBER OF ATOMS
341
ITEM: BOX BOUNDS ss ss ss
-1.9360300446137211e+00 1.9495118901764781e+00
-1.9388440561347573e+00 1.9487524452880283e+00
-1.9453750558316978e+00 1.9502296762444777e+00
ITEM: ATOMS id x y z width_SPH x_COM y_COM z_COM vx vy vz 
2 -0.585104 -0.586072 -1.93541 0.91 0 0 0 1.00608 1.00856 2.55684 
3 -0.946578 -0.947514 -1.3961 0.91 0 0 0 2.45483 2.45376 3.50135 
13 8.20609e-06 -5.66018e-05 -8.68694e-05 0.91 0 0 0 0.0026954 0.000772133 0.00231449 
72 9.99843e-06 -1.80644e-05 -8.50093e-05 0.91 0 0 0 0.0026319 -0.00149089 0.00224858 
103 5.00778e-05 -4.13079e-05 -4.72109e-05 0.91 0 0 0 0.000467006 -0.000525833 8.95387e-06 
7 -0.940333 -1.38948 -0.939635 0.91 0 0 0 2.51792 3.59867 2.51352 
263 0.000317212 5.35916e-05 -0.000138386 0.91 0 0 0 -0.00686471 -0.00281425 0.00246025 
9 -1.37996 -0.939331 -0.934135 0.91 0 0 0 3.67039 2.57616 2.56351 
265 4.78269e-05 -4.12964e-05 -4.49721e-05 0.91 0 0 0 0.000393145 -0.000531901 8.53305e-05 
313 4.78361e-05 -3.6815e-05 -5.21075e-05 0.91 0 0 0 0.00039346 -0.000378857 -3.04441e-05 
270 0.000135093 0.000222819 -0.000134864 0.91 0 0 0 -0.00202584 -0.00760004 0.0024426 
296 4.33355e-05 -3.68199e-05 -4.94713e-05 0.91 0 0 0 0.00024677 -0.000378944 -6.34229e-05 
299 4.78237e-05 -3.88963e-05 -4.93002e-05 0.91 0 0 0 0.00039341 -0.000353149 3.48662e-05 
15 -0.584503 -1.93824 -0.585917 0.91 0 0 0 1.00082 2.53053 1.00151 
229 4.78675e-05 -3.68069e-05 -0.000102271 0.91 0 0 0 0.000392371 -0.000380982 0.00330604 
328 4.78182e-05 -3.68544e-05 5.95595e-06 0.91 0 0 0 0.000392791 -0.000374271 -0.00321839 
249 6.72443e-05 2.03312e-06 -8.59706e-05 0.91 0 0 0 -0.00074378 -0.00265675 0.00228077 
279 4.78267e-05 -3.86254e-05 -4.7213e-05 0.91 0 0 0 0.000393372 -0.000345829 9.26027e-06 
295 4.57314e-05 -3.68102e-05 -4.9314e-05 0.91 0 0 0 0.000418758 -0.00037869 3.48581e-05 
21 -1.93543 -0.586855 -0.584129 0.91 0 0 0 2.52969 1.0038 1.00102 
274 4.78315e-05 -3.68096e-05 -4.7209e-05 0.91 0 0 0 0.000393275 -0.000378703 9.1666e-06 
245 4.65339e-05 -3.81348e-05 -4.4594e-05 0.91 0 0 0 0.000218843 -0.000553194 0.000359501 
200 4.78215e-05 -3.47188e-05 -4.93164e-05 0.91 0 0 0 0.000393402 -0.000404194 3.49492e-05 
93 -0.0133798 -4.27022e-05 -3.30162e-05 0.91 0 0 0 2.87766 -0.00065822 0.000205944 
89 4.91403e-05 -3.94481e-05 -4.5879e-05 0.91 0 0 0 0.000566697 -0.000727063 0.000183214 
32 -0.952967 -0.298409 -0.000546361 0.91 0 0 0 13.7545 4.38967 0.0085621 
79 -0.929887 0.000284154 -0.288616 0.91 0 0 0 13.9014 -0.00626422 4.39594 
262 4.52401e-05 -3.81336e-05 -4.5906e-05 0.91 0 0 0 4.23074e-05 -0.000554162 0.000184393 
315 6.20394e-05 -3.68339e-05 -3.30514e-05 0.91 0 0 0 -0.000915322 -0.000376042 -0.00129777 
96 4.96472e-05 -3.68126e-05 -4.7207e-05 0.91 0 0 0 0.00036045 -0.000378664 9.14623e-06 
294 4.7827e-05 -3.68006e-05 -4.90147e-05 0.91 0 0 0 0.000393367 -0.000378874 4.20461e-05 
142 -0.000137081 -0.283032 -0.906724 0.91 0 0 0 0.00228186 4.45299 14.0168 
193 4.79772e-05 -0.000160353 -5.74349e-06 0.91 0 0 0 0.0003875 0.00489594 -0.00176269 
183 4.55847e-05 -3.23114e-05 -4.72303e-05 0.91 0 0 0 0.000319681 -0.00023165 9.21976e-06 
98 -7.88145e-05 6.13449e-06 -4.70422e-05 0.91 0 0 0 0.00573774 -0.00219106 4.22587e-06 
111 4.99236e-05 -3.68063e-05 -4.93041e-05 0.91 0 0 0 0.00036782 -0.000378779 3.4817e-05 
196 4.78265e-05 -3.23209e-05 -4.94742e-05 0.91 0 0 0 0.000393133 -0.000228654 -6.5661e-05 
176 2.21958e-05 -0.0128568 -6.4072e-05 0.91 0 0 0 9.34116e-05 2.84511 0.00328491 
162 -0.000484369 -0.906545 -0.281547 0.91 0 0 0 0.00648729 14.0239 4.43304 
34 5.23124e-05 -3.45578e-05 -4.7215e-05 0.91 0 0 0 0.000543389 -0.000303906 9.17713e-06 
61 -1.8352 -0.000402796 -1.83177 0.91 0 0 0 -0.536729 -0.00931878 -0.517665 
59 -0.297865 0.000548124 -0.95268 0.91 0 0 0 4.3888 -0.0100274 13.7618 
144 -0.00197042 -1.82699 -1.82387 0.91 0 0 0 -0.0240895 -0.457102 -0.442276 
202 4.52217e-05 -3.54858e-05 -4.85405e-05 0.91 0 0 0 4.39446e-05 -0.000203361 -0.000164306 
304 4.78286e-05 -4.12979e-05 -4.94691e-05 0.91 0 0 0 0.000393493 -0.000527368 -6.5359e-05 
317 4.78203e-05 -3.90527e-05 -5.16951e-05 0.91 0 0 0 0.000393291 -0.000454938 -0.000143014 
305 4.65151e-05 -3.94445e-05 -4.85278e-05 0.91 0 0 0 0.000219785 -0.000727731 -0.000164231 
300 4.54906e-05 -3.91544e-05 -4.95474e-05 0.91 0 0 0 0.000403008 -0.000368931 1.90562e-05 
285 4.55913e-05 -4.13039e-05 -4.72166e-05 0.91 0 0 0 0.000318355 -0.000529018 9.04946e-06 
301 4.51778e-05 -3.81469e-05 -4.85493e-05 0.91 0 0 0 4.72073e-05 -0.000551026 -0.000162472 
318 4.65376e-05 -3.81024e-05 -4.97922e-05 0.91 0 0 0 0.000216777 -0.000555818 -0.000344517 
201 4.54926e-05 -3.44706e-05 -4.95455e-05 0.91 0 0 0 0.000403106 -0.000388608 1.92683e-05 
188 4.33528e-05 -3.45539e-05 -4.72287e-05 0.91 0 0 0 0.000243741 -0.000303758 9.23877e-06 
186 4.78336e-05 -3.50083e-05 -4.72188e-05 0.91 0 0 0 0.000393226 -0.000411452 9.37413e-06 
213 4.64828e-05 -3.54572e-05 -4.99165e-05 0.91 0 0 0 0.000222353 -0.000208327 -0.000332892 
314 4.55853e-05 -3.68082e-05 -5.16926e-05 0.91 0 0 0 0.000316121 -0.000378813 -0.000144684 
114 5.04124e-05 -3.81045e-05 -4.85108e-05 0.91 0 0 0 0.000745951 -0.000553941 -0.000166669 
280 4.57349e-05 -3.88923e-05 -4.72195e-05 0.91 0 0 0 0.000418883 -0.000353211 9.35522e-06 
212 4.78178e-05 -3.45651e-05 -5.17093e-05 0.91 0 0 0 0.000393049 -0.000303743 -0.00014151 
35 4.99138e-05 -3.47277e-05 -4.7218e-05 0.91 0 0 0 0.000367727 -0.00040432 9.32968e-06 
182 4.78311e-05 -3.19063e-05 -4.72198e-05 0.91 0 0 0 0.000393218 -0.000337323 9.37722e-06 
45 5.0153e-05 -3.44827e-05 -4.95347e-05 0.91 0 0 0 0.000383095 -0.000389077 1.96141e-05 
197 4.64811e-05 -3.41014e-05 -4.85808e-05 0.91 0 0 0 0.000222972 -3.75472e-05 -0.000160125 
124 5.00681e-05 -3.67997e-05 -5.16943e-05 0.91 0 0 0 0.00046997 -0.000378712 -0.000143519 
115 5.01642e-05 -3.91352e-05 -4.95561e-05 0.91 0 0 0 0.000383566 -0.000368911 1.91648e-05 
26 -1.83625 -1.8397 -0.000739418 0.91 0 0 0 -0.545392 -0.541404 -0.00819102 
288 4.77734e-05 1.55582e-05 -4.71867e-05 0.91 0 0 0 0.000395984 -0.003577 9.44535e-06 
306 8.51069e-05 3.66905e-07 -2.87128e-05 0.91 0 0 0 -0.00182622 -0.00259407 -0.00109375 
286 6.17046e-05 -2.2947e-05 -4.72052e-05 0.91 0 0 0 -0.00089821 -0.0016722 8.68785e-06 
321 4.77791e-05 -2.31275e-05 -3.35379e-05 0.91 0 0 0 0.000396584 -0.00166217 -0.00127324 
187 4.57467e-05 -3.47279e-05 -4.72069e-05 0.91 0 0 0 0.000418822 -0.000404268 9.22175e-06 
322 6.74967e-05 2.53006e-06 -7.8967e-06 0.91 0 0 0 -0.000754662 -0.00267171 -0.0022821 
319 8.63031e-05 -1.75527e-05 -8.76432e-06 0.91 0 0 0 -0.00186793 -0.00151191 -0.00225207 
275 4.60207e-05 -3.68059e-05 -4.72126e-05 0.91 0 0 0 0.00042607 -0.000378757 9.26461e-06 
100 4.99217e-05 -3.89002e-05 -4.72065e-05 0.91 0 0 0 0.000367824 -0.000353182 9.15369e-06 
277 0.000100712 -3.68897e-05 -4.72071e-05 0.91 0 0 0 -0.00282176 -0.000374966 7.45136e-06 
281 4.33476e-05 -3.90717e-05 -4.72157e-05 0.91 0 0 0 0.000244764 -0.000452871 9.36348e-06 
214 8.59965e-05 -5.58605e-05 -9.23594e-06 0.91 0 0 0 -0.00185811 0.000747612 -0.00223442 
284 4.78334e-05 -4.17084e-05 -4.7201e-05 0.91 0 0 0 0.000393374 -0.000419369 9.26473e-06 
276 4.29432e-05 -3.68189e-05 -4.72068e-05 0.91 0 0 0 0.000353092 -0.000378665 9.46942e-06 
99 5.23095e-05 -3.90556e-05 -4.71987e-05 0.91 0 0 0 0.000544207 -0.000453878 9.37188e-06 
118 4.91426e-05 -3.94429e-05 -4.85219e-05 0.91 0 0 0 0.000567771 -0.000727117 -0.000164014 
127 4.91166e-05 -3.80944e-05 -4.97901e-05 0.91 0 0 0 0.000570874 -0.00055492 -0.000344342 
44 5.04928e-05 -3.54638e-05 -4.85522e-05 0.91 0 0 0 0.000738253 -0.000207396 -0.000161963 
53 4.91498e-05 -3.54685e-05 -4.98562e-05 0.91 0 0 0 0.000567407 -0.000204755 -0.000337227 
95 5.27141e-05 -3.6801e-05 -4.72168e-05 0.91 0 0 0 0.000432931 -0.000378697 9.13662e-06 
282 0.000175762 6.13904e-06 -4.71499e-05 0.91 0 0 0 -0.00498524 -0.00218669 5.62807e-06 
110 5.22988e-05 -3.68134e-05 -4.94604e-05 0.91 0 0 0 0.000546388 -0.000379102 -6.72367e-05 
289 8.99195e-05 8.78674e-05 -4.71975e-05 0.91 0 0 0 -0.00139509 -0.00568033 1.02397e-05 
31 5.00823e-05 -3.23167e-05 -4.72065e-05 0.91 0 0 0 0.000467689 -0.000230153 9.75282e-06 
41 4.91237e-05 -3.42243e-05 -4.85225e-05 0.91 0 0 0 0.000570204 -2.59518e-05 -0.000167447 
332 4.7999e-05 6.44803e-06 8.17367e-05 0.91 0 0 0 0.000384348 -0.00218963 -0.00539676 
167 4.78363e-05 -3.23361e-05 -4.49721e-05 0.91 0 0 0 0.000393202 -0.000224892 8.62656e-05 
308 4.76413e-05 9.20402e-05 -3.59642e-06 0.91 0 0 0 0.000399563 -0.00578062 -0.00181619 
241 4.55926e-05 -3.68227e-05 -4.27439e-05 0.91 0 0 0 0.000315274 -0.000378682 0.000164295 
302 0.000313772 5.31278e-05 4.27204e-05 0.91 0 0 0 -0.00684772 -0.00282483 -0.00243681 
333 0.000135969 5.14632e-05 0.000214892 0.91 0 0 0 -0.002034 -0.0028065 -0.00722422 
309 0.000138055 0.000229568 4.2723e-05 0.91 0 0 0 -0.00205597 -0.00762738 -0.00242912 
82 4.99181e-05 -3.68166e-05 -4.51131e-05 0.91 0 0 0 0.000367873 -0.000378621 -1.64138e-05 
256 4.57376e-05 -3.68113e-05 -4.51318e-05 0.91 0 0 0 0.000418836 -0.000378656 -1.6247e-05 
255 4.78385e-05 -3.68067e-05 -4.54031e-05 0.91 0 0 0 0.000393143 -0.000378756 -2.36026e-05 
172 4.54996e-05 -3.44658e-05 -4.48772e-05 0.91 0 0 0 0.000402884 -0.000388442 -4.90136e-07 
81 5.23057e-05 -3.68008e-05 -4.49545e-05 0.91 0 0 0 0.00054455 -0.00037834 8.48416e-05 
171 4.78408e-05 -3.47181e-05 -4.51371e-05 0.91 0 0 0 0.000393137 -0.000404371 -1.62616e-05 
260 4.78375e-05 -3.89015e-05 -4.51234e-05 0.91 0 0 0 0.0003932 -0.000353124 -1.6334e-05 
257 4.3351e-05 -3.68079e-05 -4.49798e-05 0.91 0 0 0 0.00024143 -0.000378243 8.45558e-05 
86 5.0176e-05 -3.91582e-05 -4.48613e-05 0.91 0 0 0 0.000383931 -0.000369242 -3.01939e-07 
240 4.78282e-05 -3.68245e-05 -4.23248e-05 0.91 0 0 0 0.000393146 -0.00037868 4.83955e-05 
261 4.54887e-05 -3.91601e-05 -4.48743e-05 0.91 0 0 0 0.000402767 -0.00036903 -3.42534e-07 
329 9.01057e-05 -3.66476e-05 7.76722e-05 0.91 0 0 0 -0.00140203 -0.00038394 -0.00529652 
24 5.01629e-05 -3.44776e-05 -4.4888e-05 0.91 0 0 0 0.000383252 -0.000388769 -8.27128e-07 
297 0.000173435 -3.68531e-05 -4.98513e-06 0.91 0 0 0 -0.0049283 -0.00037756 -0.00178218 
225 8.9754e-05 -8.94651e-06 -0.0167202 0.91 0 0 0 -0.00483902 -0.0041069 3.04459 
135 4.16329e-06 -3.69145e-05 8.22845e-05 0.91 0 0 0 0.00221689 -0.000371752 -0.00540915 
123 3.44151e-05 -3.68064e-05 -3.38298e-05 0.91 0 0 0 0.00166259 -0.000377232 -0.00125965 
94 -5.8282e-06 -3.68287e-05 -4.71353e-05 0.91 0 0 0 0.00363692 -0.000376896 5.60373e-06 
102 3.42627e-05 -2.33278e-05 -4.71878e-05 0.91 0 0 0 0.00167131 -0.00165144 9.03622e-06 
52 9.96254e-06 -5.5625e-05 -9.24229e-06 0.91 0 0 0 0.0026307 0.000737253 -0.00223711 
106 5.3107e-06 8.88567e-05 -4.7001e-05 0.91 0 0 0 0.00219175 -0.00570362 3.07789e-06 
117 9.10442e-06 1.85214e-06 -2.791e-05 0.91 0 0 0 0.00266308 -0.00264712 -0.00112268 
126 9.55924e-06 -1.77479e-05 -9.00546e-06 0.91 0 0 0 0.0026468 -0.00150217 -0.00224247 
130 2.89418e-05 1.08976e-06 -9.28608e-06 0.91 0 0 0 0.00150929 -0.0026197 -0.00223286 
209 6.66347e-05 -7.43828e-05 -9.6693e-06 0.91 0 0 0 -0.000722726 0.00185179 -0.00222032 
184 6.12349e-05 -5.01451e-05 -4.72395e-05 0.91 0 0 0 -0.000876553 0.000887125 9.24751e-06 
30 3.40556e-05 -5.06028e-05 -4.72433e-05 0.91 0 0 0 0.00167952 0.000911697 1.13148e-05 
50 2.83779e-05 -7.58875e-05 -8.11644e-06 0.91 0 0 0 0.00152975 0.00190661 -0.00227664 
40 1.0159e-05 -7.44371e-05 -2.84867e-05 0.91 0 0 0 0.00262545 0.00185435 -0.00110324 
198 8.59976e-05 -7.49332e-05 -2.82579e-05 0.91 0 0 0 -0.00185676 0.00187139 -0.00111272 
203 0.000310158 -0.000125595 4.16508e-05 0.91 0 0 0 -0.00682796 0.00206086 -0.00243696 
221 0.00013798 -0.000127201 0.000220453 0.91 0 0 0 -0.0020443 0.00206833 -0.00725108 
208 4.78327e-05 -5.04936e-05 -3.35038e-05 0.91 0 0 0 0.000392711 0.000904954 -0.00127712 
220 4.79766e-05 -7.88136e-05 7.77013e-05 0.91 0 0 0 0.000386003 0.00140737 -0.0052989 
178 4.78559e-05 -9.09108e-05 -4.72645e-05 0.91 0 0 0 0.000392483 0.00288347 1.02897e-05 
189 0.000175443 -7.97665e-05 -4.71564e-05 0.91 0 0 0 -0.00497666 0.00142871 4.50819e-06 
20 4.9199e-05 -3.40805e-05 -4.58499e-05 0.91 0 0 0 0.000561986 -4.02787e-05 0.000177963 
154 4.78178e-05 -5.05628e-05 -6.09353e-05 0.91 0 0 0 0.000395914 0.000908566 0.00129348 
168 4.64959e-05 -3.41266e-05 -4.58778e-05 0.91 0 0 0 0.000221933 -3.55166e-05 0.00018029 
85 5.04253e-05 -3.81202e-05 -4.58987e-05 0.91 0 0 0 0.000744932 -0.000553856 0.000183896 
14 4.91567e-05 -3.55008e-05 -4.45811e-05 0.91 0 0 0 0.000567757 -0.000205299 0.000357592 
169 8.53721e-05 -7.43284e-05 -6.59629e-05 0.91 0 0 0 -0.0018334 0.00184886 0.00112182 
19 9.69834e-06 -7.48625e-05 -6.6144e-05 0.91 0 0 0 0.00264354 0.00186837 0.0011276 
73 4.9183e-05 -3.81743e-05 -4.45132e-05 0.91 0 0 0 0.000564201 -0.000549512 0.000350462 
323 0.000339414 0.000255246 0.000244788 0.91 0 0 0 -9.85893e-05 -0.000875794 -0.000490248 
23 5.04954e-05 -3.54703e-05 -4.58717e-05 0.91 0 0 0 0.000737834 -0.00020694 0.000180824 
69 3.46653e-05 -3.6798e-05 -6.03694e-05 0.91 0 0 0 0.00165079 -0.000380925 0.001268 
248 4.78559e-05 -2.34003e-05 -6.06688e-05 0.91 0 0 0 0.000391338 -0.00164912 0.00128319 
70 5.00926e-05 -3.68139e-05 -4.27241e-05 0.91 0 0 0 0.000468076 -0.000378548 0.000157796 
88 1.01141e-05 7.72539e-07 -6.59462e-05 0.91 0 0 0 0.00262794 -0.00260832 0.00112335 
266 4.65227e-05 -3.94468e-05 -4.58924e-05 0.91 0 0 0 0.00021934 -0.000727782 0.000183058 
158 4.78417e-05 -3.4559e-05 -4.27199e-05 0.91 0 0 0 0.000393325 -0.00030468 0.000156786 
244 4.78285e-05 -3.90676e-05 -4.27326e-05 0.91 0 0 0 0.000393007 -0.000454972 0.000161581 
267 8.64143e-05 1.75157e-06 -6.64085e-05 0.91 0 0 0 -0.00187138 -0.00264605 0.00113831 
242 6.0907e-05 -3.68204e-05 -6.02575e-05 0.91 0 0 0 -0.000859526 -0.000379962 0.0012614 
173 4.5208e-05 -3.54944e-05 -4.58966e-05 0.91 0 0 0 4.50553e-05 -0.000205217 0.000183058 
159 4.65044e-05 -3.54782e-05 -4.45472e-05 0.91 0 0 0 0.000221044 -0.000206392 0.00035364 
109 -8.00692e-05 -3.67534e-05 -3.96592e-06 0.91 0 0 0 0.0057688 -0.000379358 -0.00180801 
120 -4.18117e-05 0.00022796 4.2349e-05 0.91 0 0 0 0.00283362 -0.0076177 -0.00242917 
33 -8.0678e-05 -8.03146e-05 -4.72449e-05 0.91 0 0 0 0.00578367 0.00144786 1.11282e-05 
43 -0.000218917 -0.000127181 4.23611e-05 0.91 0 0 0 0.00763841 0.00207493 -0.00241936 
57 -4.00797e-05 -0.000124823 0.000213855 0.91 0 0 0 0.00281706 0.00205539 -0.00721839 
113 -0.000212863 5.11477e-05 4.07063e-05 0.91 0 0 0 0.00760799 -0.00280729 -0.00241749 
137 -4.15789e-05 5.30633e-05 0.000218651 0.91 0 0 0 0.00282012 -0.00281924 -0.00723865 
179 9.06836e-05 -0.000163661 -4.74287e-05 0.91 0 0 0 -0.00141242 0.00497549 1.55651e-05 
28 4.83e-06 -0.000163555 -4.71877e-05 0.91 0 0 0 0.0022072 0.0049723 6.29411e-06 
287 -1.41471e-05 -8.39307e-05 -4.69546e-05 0.91 0 0 0 0.0465465 0.0312925 2.12661e-06 
38 -4.05139e-05 -0.000299413 4.09795e-05 0.91 0 0 0 0.00282034 0.00685997 -0.00241818 
290 9.28032e-06 -8.40171e-05 -4.71811e-05 0.91 0 0 0 0.0315275 0.0449077 2.56351e-05 
194 0.000138387 -0.00030484 4.33088e-05 0.91 0 0 0 -0.00204916 0.00687876 -0.00243958 
25 -0.272613 -0.875376 0.000524671 0.91 0 0 0 4.48547 14.1619 -0.00946611 
335 4.81559e-05 -8.01716e-05 -0.000102033 0.91 0 0 0 0.000437857 0.0311239 0.0457183 
325 4.81563e-05 -9.88516e-05 -9.54092e-05 0.91 0 0 0 0.000332152 0.0457934 0.0317633 
165 0.000137344 -0.000301624 -0.000136869 0.91 0 0 0 -0.00204371 0.00686067 0.00245077 
17 -4.03433e-05 -0.000298839 -0.000136171 0.91 0 0 0 0.00281947 0.00684898 0.00245493 
164 4.78743e-05 -0.000165832 -9.07155e-05 0.91 0 0 0 0.000392884 0.00502832 0.00182943 
330 2.6566e-05 -3.70928e-05 -6.92635e-05 0.91 0 0 0 0.0304655 -0.000450107 0.0437867 
316 -8.62186e-05 -3.71833e-05 -0.00014341 0.91 0 0 0 0.0508162 -0.000318462 0.0346131 
22 -0.000213339 -0.000124638 -0.000135131 0.91 0 0 0 0.00761587 0.00204687 0.0024382 
148 4.76594e-05 -8.04887e-05 -0.000176334 0.91 0 0 0 0.000402409 0.00144821 0.00541751 
84 -0.000214964 5.21624e-05 -0.000136009 0.91 0 0 0 0.00761776 -0.00282076 0.00245002 
91 -4.2112e-05 0.000231202 -0.000137353 0.91 0 0 0 0.00282128 -0.00764302 0.00244948 
174 0.000304628 -0.000123206 -0.000133641 0.91 0 0 0 -0.00680256 0.00203665 0.00242486 
160 8.65504e-05 -5.6108e-05 -8.585e-05 0.91 0 0 0 -0.00187652 0.000753527 0.00227603 
11 2.86878e-05 -7.5239e-05 -8.56051e-05 0.91 0 0 0 0.00152113 0.0018821 0.00226775 
80 -7.88657e-05 -3.70156e-05 -8.97175e-05 0.91 0 0 0 0.00574197 -0.000369892 0.00180563 
155 6.69995e-05 -7.52707e-05 -8.57511e-05 0.91 0 0 0 -0.000732691 0.00188199 0.00227406 
246 8.64599e-05 -1.75334e-05 -8.5769e-05 0.91 0 0 0 -0.00187285 -0.00151432 0.0022736 
258 0.000173897 -3.69883e-05 -8.96093e-05 0.91 0 0 0 -0.00493909 -0.00037324 0.00180185 
233 4.7996e-05 6.22309e-06 -0.000174645 0.91 0 0 0 0.000387594 -0.00219339 0.00537755 
230 9.07749e-05 -3.67835e-05 -0.00017475 0.91 0 0 0 -0.00141182 -0.000382594 0.00538037 
63 5.6687e-06 -3.70513e-05 -0.000171698 0.91 0 0 0 0.00218633 -0.000370417 0.00530486 
76 2.89192e-05 1.22635e-06 -8.52186e-05 0.91 0 0 0 0.00151068 -0.00262705 0.00225562 
269 4.7703e-05 8.83454e-05 -8.94928e-05 0.91 0 0 0 0.000398211 -0.00569207 0.00180509 
129 -0.000242511 0.000254406 0.000244055 0.91 0 0 0 0.00105346 -0.00105248 -0.000662197 
105 7.9877e-05 -7.47891e-05 -4.7772e-05 0.91 0 0 0 -0.0303912 0.044319 -6.68612e-06 
134 0.000131082 -3.73334e-05 -0.000158918 0.91 0 0 0 -0.033411 -0.000328734 0.0491372 
217 4.83762e-05 5.99712e-06 -0.000101628 0.91 0 0 0 0.000312197 -0.0318626 0.0457219 
210 0.000337158 -0.000326901 0.00024293 0.91 0 0 0 -0.000549679 0.000578172 -0.000959612 
49 -0.000243725 -0.000328933 0.000244737 0.91 0 0 0 0.000873544 0.000125649 -0.000492081 
185 -1.5522e-06 1.79203e-06 -4.64797e-05 0.91 0 0 0 0.0458106 -0.031506 -5.40172e-06 
29 8.89854e-05 -3.94697e-06 -4.74314e-05 0.91 0 0 0 -0.0445075 -0.0311824 -2.57165e-06 
6 -4.08616e-05 -0.000125935 -0.000310589 0.91 0 0 0 0.00282513 0.00206175 0.0072457 
149 0.000138906 -0.000127309 -0.000316596 0.91 0 0 0 -0.00205124 0.00205208 0.0072727 
336 -0.00183849 -0.00384828 -0.00557012 0.91 0 0 0 0.0783429 0.157199 0.229048 
307 -0.00645446 -0.00452905 -0.00227636 0.91 0 0 0 0.248645 0.170675 0.0849132 
10 -0.000242977 -0.000328148 -0.000337582 0.91 0 0 0 0.00112764 0.000359435 0.000749725 
334 -0.00431898 -0.00219602 -0.00636024 0.91 0 0 0 0.169257 0.0830242 0.244845 
310 -0.00383227 -0.00565186 -0.00197019 0.91 0 0 0 0.159458 0.230501 0.0788492 
326 -0.00188413 -0.00567147 -0.00392893 0.91 0 0 0 0.0794458 0.231011 0.159006 
320 -0.00565475 -0.00198734 -0.00398312 0.91 0 0 0 0.23315 0.0789251 0.160299 
156 0.000339037 -0.000328696 -0.000338769 0.91 0 0 0 -0.000124628 0.000150546 0.000538118 
65 -3.9704e-05 5.0207e-05 -0.000306059 0.91 0 0 0 0.00282688 -0.00280103 0.00722407 
250 0.000336662 0.000253105 -0.000336427 0.91 0 0 0 -0.000628218 -0.001426 0.00104412 
75 -0.000242677 0.000253132 -0.000338088 0.91 0 0 0 0.00121946 -0.00121416 0.000851809 
234 0.000137233 5.22945e-05 -0.000312971 0.91 0 0 0 -0.00203651 -0.002809 0.00726257 
122 0.000135536 -3.71577e-05 -0.000112336 0.91 0 0 0 -0.0473212 -0.000358002 0.032712 
132 0.00215374 -0.0061895 -0.0042931 0.91 0 0 0 -0.0820906 0.241434 0.166424 
116 0.00595474 -0.00411017 -0.0020629 0.91 0 0 0 -0.236589 0.162634 0.080578 
125 0.00602554 -0.00207541 -0.00416782 0.91 0 0 0 -0.238013 0.0806891 0.1639 
136 0.00396438 -0.00198745 -0.00572865 0.91 0 0 0 -0.159283 0.0791383 0.232356 
119 0.00395462 -0.00570016 -0.00199514 0.91 0 0 0 -0.159143 0.231564 0.0794868 
139 0.0019734 -0.00389214 -0.00564076 0.91 0 0 0 -0.0786492 0.158048 0.2305 
101 0.000158536 -0.000117763 -4.7946e-05 0.91 0 0 0 -0.048661 0.0333183 3.4634e-05 
27 0.00012523 6.67297e-05 -4.72158e-05 0.91 0 0 0 -0.0331078 -0.0490235 4.973e-05 
55 0.00201846 0.00395271 -0.00580972 0.91 0 0 0 -0.0792356 -0.161943 0.233944 
205 4.81223e-05 -8.85999e-06 -7.1304e-05 0.91 0 0 0 0.000360617 -0.0444949 0.0303165 
39 0.0055382 0.00375511 -0.00191893 0.91 0 0 0 -0.227845 -0.157643 0.0775409 
51 0.00584055 0.00193411 -0.0040457 0.91 0 0 0 -0.234232 -0.0799836 0.161531 
180 -5.31728e-05 0.00010092 -4.62188e-05 0.91 0 0 0 0.035276 -0.0510147 -6.79599e-05 
56 0.00447551 0.00215248 -0.00645703 0.91 0 0 0 -0.169446 -0.0843848 0.246656 
222 -0.00427764 0.0021083 -0.00630756 0.91 0 0 0 0.168425 -0.0837368 0.243885 
215 -0.00561028 0.00189131 -0.0039419 0.91 0 0 0 0.232362 -0.0792441 0.159326 
218 -0.00197915 0.0040676 -0.00598893 0.91 0 0 0 0.0812624 -0.164177 0.237711 
199 -0.00621788 0.00428817 -0.00218735 0.91 0 0 0 0.244369 -0.168427 0.0831749 
145 4.72505e-05 5.53207e-05 7.84e-05 0.91 0 0 0 0.000395043 -0.0347367 -0.049924 
62 0.000124814 -3.66324e-05 5.65603e-05 0.91 0 0 0 -0.0330853 -0.000378948 -0.0486584 
170 -0.00633988 0.00436899 0.00213859 0.91 0 0 0 0.246653 -0.169855 -0.0839277 
68 8.82312e-05 -3.6767e-05 -1.48785e-05 0.91 0 0 0 -0.0444694 -0.000344303 -0.0307735 
18 0.00582593 0.00395131 0.00193279 0.91 0 0 0 -0.233897 -0.161682 -0.0800527 
236 4.74308e-05 -8.90629e-05 2.12479e-05 0.91 0 0 0 0.000340791 0.0316354 -0.0465553 
252 4.74177e-05 -8.31248e-05 -9.92454e-06 0.91 0 0 0 0.000435027 0.044804 -0.0311586 
231 7.53318e-06 -3.64873e-05 2.37423e-06 0.91 0 0 0 0.0316004 -0.000354449 -0.0454315 
243 5.58266e-06 -3.6393e-05 -1.32895e-05 0.91 0 0 0 0.0453068 -0.000484156 -0.0309011 
151 4.74807e-05 3.59586e-05 8.32872e-06 0.91 0 0 0 0.000352036 -0.0471817 -0.032203 
90 0.00414376 -0.00596863 0.00198642 0.91 0 0 0 -0.163105 0.237039 -0.0811478 
268 -0.00587361 -0.00411674 0.00197101 0.91 0 0 0 0.237678 0.162692 -0.080612 
271 -0.00410565 -0.00603594 0.00201626 0.91 0 0 0 0.165104 0.238248 -0.0818094 
87 0.00609356 -0.00421536 0.00201155 0.91 0 0 0 -0.239299 0.164853 -0.0813929 
161 -0.00613292 0.00208131 0.00422191 0.91 0 0 0 0.242656 -0.0831716 -0.166882 
140 -0.286957 0.00140712 0.924135 0.91 0 0 0 4.40561 -0.0206319 -13.9348 
339 4.11822e-05 -4.03427e-05 0.00925486 0.91 0 0 0 0.000569288 0.00272779 -2.6584 
4 0.00213114 0.00417748 0.00605483 0.91 0 0 0 -0.0815793 -0.166251 -0.240816 
58 -0.586939 -0.589099 1.94407 0.91 0 0 0 0.981099 0.991899 -2.46833 
150 -0.00394106 0.00194585 0.00573316 0.91 0 0 0 0.161628 -0.0805021 -0.234366 
12 0.00616771 0.002049 0.00418674 0.91 0 0 0 -0.240701 -0.0822878 -0.166384 
146 -0.00212933 0.00434344 0.00628747 0.91 0 0 0 0.084336 -0.169461 -0.245139 
54 -0.938072 -0.940012 1.3853 0.91 0 0 0 2.53971 2.54821 -3.63246 
191 -0.000981343 -0.952786 0.297641 0.91 0 0 0 0.0155091 13.7595 -4.38225 
216 0.00179695 -1.8289 1.8291 0.91 0 0 0 0.010332 -0.508432 0.486989 
36 -0.579111 -1.9214 0.579665 0.91 0 0 0 1.05645 2.70498 -1.04933 
5 0.00440376 0.00211501 0.00625199 0.91 0 0 0 -0.168261 -0.0836367 -0.24455 
108 -0.889327 -2.77539e-05 0.278294 0.91 0 0 0 14.0913 -0.000401294 -4.48477 
67 0.0019951 -0.00398561 0.00565648 0.91 0 0 0 -0.078821 0.160286 -0.232726 
133 -1.83338 -0.000192775 1.82988 0.91 0 0 0 -0.523124 -0.00239271 0.49878 
46 -0.955753 -1.40758 0.951316 0.91 0 0 0 2.38717 3.38719 -2.37428 
42 -1.91401 -0.577189 0.579077 0.91 0 0 0 2.76678 1.07056 -1.06945 
223 0.000602794 -0.284986 0.916187 0.91 0 0 0 -0.0101409 4.42472 -13.9758 
48 -1.39938 -0.944116 0.948546 0.91 0 0 0 3.48823 2.44385 -2.45192 
235 -0.00371582 -0.00189902 0.00540976 0.91 0 0 0 0.156863 0.0770371 -0.227624 
237 -0.0018368 -0.00383669 0.00545509 0.91 0 0 0 0.0783321 0.15699 -0.228531 
253 -0.00187444 -0.00565703 0.00382825 0.91 0 0 0 0.0791024 0.230697 -0.158914 
71 0.00609219 -0.00210574 0.00411938 0.91 0 0 0 -0.239325 0.0814164 -0.164832 
78 0.00213377 -0.00612698 0.00416552 0.91 0 0 0 -0.0817425 0.240106 -0.165925 
247 -0.00599072 -0.00210698 0.00411036 0.91 0 0 0 0.239979 0.0815043 -0.164547 
64 0.00400893 -0.00200577 0.00569339 0.91 0 0 0 -0.160325 0.0794672 -0.233568 
83 -1.90954 0.576365 -0.578331 0.91 0 0 0 2.80946 -1.07948 1.0896 
60 -0.579954 0.585388 -1.93274 0.91 0 0 0 1.02052 -1.02869 2.59528 
227 0.000794661 0.281748 -0.902454 0.91 0 0 0 -0.0081187 -4.46066 14.0359 
92 -0.578032 1.9165 -0.576863 0.91 0 0 0 1.06232 -2.76505 1.07116 
239 0.000270054 1.83706 -1.83586 0.91 0 0 0 0.00150494 0.503691 -0.511002 
37 0.00446953 0.006367 -0.00224434 0.91 0 0 0 -0.16928 -0.246938 0.0843117 
47 0.00208041 0.00587248 -0.00412045 0.91 0 0 0 -0.0807602 -0.237453 0.162953 
66 -0.950973 0.950174 -1.40535 0.91 0 0 0 2.40711 -2.40568 3.43163 
77 -0.950294 1.40306 -0.948544 0.91 0 0 0 2.4211 -3.44763 2.42333 
74 -1.39481 0.942568 -0.942726 0.91 0 0 0 3.54505 -2.48328 2.48898 
97 -0.911135 0.282577 0.000596136 0.91 0 0 0 14.0009 -4.42155 -0.00766067 
292 5.16713e-05 0.00911007 -5.732e-05 0.91 0 0 0 0.00146901 -2.64999 0.00315269 
195 -0.00393704 0.00573923 -0.00201191 0.91 0 0 0 0.161645 -0.234824 0.0795538 
272 -0.00115695 0.889112 -0.276998 0.91 0 0 0 0.0197924 -14.104 4.46931 
104 -1.83367 1.83223 -0.000602106 0.91 0 0 0 -0.540901 0.529055 0.00520048 
107 -0.292203 0.935344 0.000731982 0.91 0 0 0 4.41232 -13.8626 -0.00938046 
206 -0.00183919 0.00546367 -0.00383906 0.91 0 0 0 0.0785758 -0.228977 0.157166 
16 0.00395139 0.00561523 0.00189084 0.91 0 0 0 -0.159139 -0.232091 -0.0791772 
166 -0.00408595 0.00594386 0.00200339 0.91 0 0 0 0.164691 -0.238814 -0.0813823 
311 0.000268423 0.89126 0.278634 0.91 0 0 0 -0.00318516 -14.0866 -4.4771 
141 -0.576504 0.574627 1.91228 0.91 0 0 0 1.08394 -1.07859 -2.81939 
121 -0.57885 1.91838 0.581148 0.91 0 0 0 1.05393 -2.72823 -1.06163 
8 0.00190996 0.00541838 0.00371761 0.91 0 0 0 -0.077017 -0.227956 -0.156586 
138 -0.964079 0.963962 1.42306 0.91 0 0 0 2.26878 -2.2694 -3.21945 
112 -1.91618 0.580867 0.577479 0.91 0 0 0 2.73949 -1.06673 -1.06033 
341 -0.000598058 0.286453 0.919091 0.91 0 0 0 0.00924627 -4.42588 -13.9556 
128 -1.38498 0.936835 0.937026 0.91 0 0 0 3.64444 -2.55411 -2.55665 
131 -0.946606 1.39601 0.945737 0.91 0 0 0 2.46488 -3.50928 -2.46622 
338 0.00120418 1.82454 1.8242 0.91 0 0 0 0.00975769 0.470917 0.465611 
152 -0.00191822 0.0056838 0.00391271 0.91 0 0 0 0.080183 -0.233439 -0.160815 
175 1.91641 -0.579032 -0.578455 0.91 0 0 0 -2.76349 1.06693 1.06314 
143 0.587723 -0.586765 -1.94477 0.91 0 0 0 -0.9961 1.00158 2.48407 
278 0.0147024 -3.56676e-05 -6.1358e-05 0.91 0 0 0 -2.94133 0.00327492 0.00147505 
163 0.579645 -1.92545 -0.581412 0.91 0 0 0 -1.04358 2.6715 1.05167 
177 0.284112 -0.914862 0.000577152 0.91 0 0 0 -4.42157 13.9808 -0.00747449 
147 0.959046 -0.956669 -1.41564 0.91 0 0 0 -2.3401 2.34092 3.3299 
259 0.891762 -0.000545035 -0.279224 0.91 0 0 0 -14.0857 0.00917269 4.48112 
232 1.82127 0.00227102 -1.82113 0.91 0 0 0 0.446081 0.0160575 -0.437599 
190 0.934836 -0.291477 -0.000287647 0.91 0 0 0 -13.8734 4.40439 0.00213533 
226 0.27457 0.00149985 -0.877404 0.91 0 0 0 -4.4996 -0.022318 14.1481 
157 1.39189 -0.942038 -0.940281 0.91 0 0 0 -3.58315 2.51868 2.51258 
153 0.951993 -1.40795 -0.951922 0.91 0 0 0 -2.39523 3.41156 2.40015 
224 0.591515 -0.584811 1.94963 0.91 0 0 0 -0.979538 0.964303 -2.42995 
298 0.886138 0.000938511 0.277173 0.91 0 0 0 -14.1145 -0.0150815 -4.49023 
192 0.578215 -1.91264 0.579702 0.91 0 0 0 -1.06827 2.77437 -1.06822 
331 1.84029 0.00021971 1.84083 0.91 0 0 0 0.517049 -0.00730606 0.513723 
219 0.943642 -0.941955 1.39061 0.91 0 0 0 -2.50419 2.49367 -3.57529 
181 1.83113 -1.83321 0.00388147 0.91 0 0 0 0.51738 -0.522912 0.0175476 
211 1.37764 -0.932581 0.934297 0.91 0 0 0 -3.72203 2.59137 -2.60319 
204 1.94673 -0.585985 0.589015 0.91 0 0 0 -2.44712 0.966599 -0.980347 
340 0.271518 -0.000456946 0.873307 0.91 0 0 0 -4.48219 0.00911324 -14.1778 
207 0.943054 -1.39158 0.944947 0.91 0 0 0 -2.4854 3.54137 -2.49056 
254 0.943187 1.39264 -0.945069 0.91 0 0 0 -2.48321 -3.55604 2.48788 
238 0.953482 0.951452 -1.40822 0.91 0 0 0 -2.38219 -2.38647 3.39259 
291 1.83249 1.83276 -0.00102897 0.91 0 0 0 0.511805 0.510903 0.00602387 
228 0.578295 0.579108 -1.91454 0.91 0 0 0 -1.06855 -1.07415 2.78464 
283 0.948743 0.29602 -0.000610156 0.91 0 0 0 -13.7927 -4.38374 0.00637141 
293 0.297398 0.95337 5.45824e-05 0.91 0 0 0 -4.37493 -13.7628 0.00092823 
251 1.37235 0.930801 -0.931586 0.91 0 0 0 -3.76822 -2.63903 2.63086 
273 0.585332 1.94815 -0.592043 0.91 0 0 0 -0.9689 -2.42916 0.981259 
264 1.94891 0.590123 -0.590141 0.91 0 0 0 -2.41127 -0.97128 0.961026 
342 0.584516 0.586352 1.93755 0.91 0 0 0 -1.01165 -1.00233 -2.54783 
337 0.949594 0.950646 1.40077 0.91 0 0 0 -2.42982 -2.42226 -3.45691 
324 1.39362 0.94598 0.943222 0.91 0 0 0 -3.54476 -2.47962 -2.47717 
327 0.928233 1.37339 0.932113 0.91 0 0 0 -2.62944 -3.76859 -2.63546 
312 0.588007 1.94417 0.585705 0.91 0 0 0 -0.984256 -2.46472 -0.971488 
303 1.93766 0.586331 0.58586 0.91 0 0 0 -2.54037 -1.00057 -1.00275 
ITEM: TIMESTEP
960113
ITEM: NUMBER OF ATOMS
341
ITEM: BOX BOUNDS ss ss ss
-1.9360300446137211e+00 1.9495118901764781e+00
-1.9388440561347573e+00 1.9487524452880283e+00
-1.9453750558316978e+00 1.9502296762444777e+00
ITEM: ATOMS id x y z width_SPH x_COM y_COM z_COM vx vy vz 
2 -0.585103 -0.586071 -1.9354 0.91 0 0 0 1.00609 1.00857 2.55686 
3 -0.946576 -0.947512 -1.3961 0.91 0 0 0 2.45485 2.45378 3.50137 
13 8.20743e-06 -5.66014e-05 -8.68682e-05 0.91 0 0 0 0.00269535 0.000772126 0.00231447 
72 9.99974e-06 -1.80652e-05 -8.50082e-05 0.91 0 0 0 0.00263185 -0.00149086 0.00224856 
103 5.0078e-05 -4.13082e-05 -4.72109e-05 0.91 0 0 0 0.000466986 -0.000525815 8.97307e-06 
7 -0.940331 -1.38947 -0.939633 0.91 0 0 0 2.51793 3.59869 2.51353 
263 0.000317209 5.35902e-05 -0.000138385 0.91 0 0 0 -0.00686473 -0.00281424 0.00246027 
9 -1.37996 -0.93933 -0.934134 0.91 0 0 0 3.67041 2.57617 2.56352 
265 4.78271e-05 -4.12967e-05 -4.4972e-05 0.91 0 0 0 0.000393128 -0.000531883 8.53457e-05 
313 4.78363e-05 -3.68152e-05 -5.21076e-05 0.91 0 0 0 0.000393444 -0.000378847 -3.04198e-05 
270 0.000135092 0.000222815 -0.000134862 0.91 0 0 0 -0.00202586 -0.00760003 0.00244262 
296 4.33356e-05 -3.68201e-05 -4.94713e-05 0.91 0 0 0 0.000246761 -0.000378933 -6.33998e-05 
299 4.78239e-05 -3.88965e-05 -4.93002e-05 0.91 0 0 0 0.000393394 -0.000353138 3.48864e-05 
15 -0.584503 -1.93824 -0.585917 0.91 0 0 0 1.00082 2.53055 1.00152 
229 4.78677e-05 -3.68071e-05 -0.000102269 0.91 0 0 0 0.000392355 -0.000380972 0.00330601 
328 4.78184e-05 -3.68546e-05 5.95434e-06 0.91 0 0 0 0.000392774 -0.00037426 -0.00321832 
249 6.72439e-05 2.03179e-06 -8.59695e-05 0.91 0 0 0 -0.000743779 -0.00265671 0.00228076 
279 4.78269e-05 -3.86256e-05 -4.7213e-05 0.91 0 0 0 0.000393356 -0.000345819 9.27946e-06 
295 4.57316e-05 -3.68104e-05 -4.9314e-05 0.91 0 0 0 0.000418742 -0.00037868 3.48783e-05 
21 -1.93543 -0.586854 -0.584128 0.91 0 0 0 2.52971 1.00381 1.00103 
274 4.78316e-05 -3.68098e-05 -4.72089e-05 0.91 0 0 0 0.000393258 -0.000378693 9.1858e-06 
245 4.6534e-05 -3.81351e-05 -4.45938e-05 0.91 0 0 0 0.000218832 -0.000553178 0.000359508 
200 4.78217e-05 -3.4719e-05 -4.93163e-05 0.91 0 0 0 0.000393386 -0.000404185 3.49694e-05 
93 -0.0133783 -4.27026e-05 -3.30161e-05 0.91 0 0 0 2.87759 -0.000658198 0.000205947 
89 4.91406e-05 -3.94484e-05 -4.58789e-05 0.91 0 0 0 0.000566674 -0.000727041 0.000183227 
32 -0.95296 -0.298406 -0.000546357 0.91 0 0 0 13.7545 4.38968 0.0085621 
79 -0.92988 0.000284151 -0.288614 0.91 0 0 0 13.9015 -0.00626425 4.39595 
262 4.52402e-05 -3.81339e-05 -4.59059e-05 0.91 0 0 0 4.2303e-05 -0.000554145 0.000184406 
315 6.20389e-05 -3.6834e-05 -3.3052e-05 0.91 0 0 0 -0.000915312 -0.000376031 -0.00129772 
96 4.96474e-05 -3.68128e-05 -4.7207e-05 0.91 0 0 0 0.000360433 -0.000378654 9.16543e-06 
294 4.78272e-05 -3.68008e-05 -4.90146e-05 0.91 0 0 0 0.00039335 -0.000378864 4.20658e-05 
142 -0.00013708 -0.28303 -0.906717 0.91 0 0 0 0.00228185 4.453 14.0169 
193 4.79774e-05 -0.00016035 -5.74437e-06 0.91 0 0 0 0.000387484 0.0048959 -0.00176266 
183 4.55848e-05 -3.23115e-05 -4.72303e-05 0.91 0 0 0 0.000319668 -0.000231648 9.23897e-06 
98 -7.88117e-05 6.1334e-06 -4.70422e-05 0.91 0 0 0 0.00573767 -0.00219103 4.24508e-06 
111 4.99237e-05 -3.68065e-05 -4.9304e-05 0.91 0 0 0 0.000367802 -0.000378769 3.48371e-05 
196 4.78267e-05 -3.23211e-05 -4.94743e-05 0.91 0 0 0 0.000393116 -0.000228652 -6.56377e-05 
176 2.21958e-05 -0.0128554 -6.40704e-05 0.91 0 0 0 9.34237e-05 2.84503 0.00328485 
162 -0.000484365 -0.906538 -0.281545 0.91 0 0 0 0.00648735 14.024 4.43305 
34 5.23127e-05 -3.45579e-05 -4.7215e-05 0.91 0 0 0 0.000543365 -0.0003039 9.19633e-06 
61 -1.8352 -0.0004028 -1.83177 0.91 0 0 0 -0.536734 -0.00931884 -0.517669 
59 -0.297863 0.000548119 -0.952673 0.91 0 0 0 4.38881 -0.0100274 13.7618 
144 -0.00197043 -1.82699 -1.82387 0.91 0 0 0 -0.0240897 -0.457106 -0.44228 
202 4.52218e-05 -3.54859e-05 -4.85405e-05 0.91 0 0 0 4.39402e-05 -0.000203357 -0.000164281 
304 4.78288e-05 -4.12982e-05 -4.94691e-05 0.91 0 0 0 0.000393477 -0.00052735 -6.53358e-05 
317 4.78205e-05 -3.90529e-05 -5.16951e-05 0.91 0 0 0 0.000393274 -0.000454923 -0.000142987 
305 4.65152e-05 -3.94449e-05 -4.85279e-05 0.91 0 0 0 0.000219774 -0.000727708 -0.000164205 
300 4.54908e-05 -3.91545e-05 -4.95474e-05 0.91 0 0 0 0.000402993 -0.000368919 1.9077e-05 
285 4.55914e-05 -4.13041e-05 -4.72166e-05 0.91 0 0 0 0.000318342 -0.000529 9.06867e-06 
301 4.51778e-05 -3.81472e-05 -4.85494e-05 0.91 0 0 0 4.72028e-05 -0.000551009 -0.000162447 
318 4.65378e-05 -3.81027e-05 -4.97924e-05 0.91 0 0 0 0.000216767 -0.000555802 -0.000344485 
201 4.54928e-05 -3.44708e-05 -4.95454e-05 0.91 0 0 0 0.000403091 -0.000388599 1.9289e-05 
188 4.33529e-05 -3.4554e-05 -4.72287e-05 0.91 0 0 0 0.000243733 -0.000303752 9.25798e-06 
186 4.78338e-05 -3.50085e-05 -4.72188e-05 0.91 0 0 0 0.00039321 -0.000411442 9.39333e-06 
213 4.64829e-05 -3.54573e-05 -4.99166e-05 0.91 0 0 0 0.000222343 -0.000208322 -0.00033286 
314 4.55855e-05 -3.68083e-05 -5.16926e-05 0.91 0 0 0 0.000316108 -0.000378803 -0.000144657 
114 5.04127e-05 -3.81048e-05 -4.85108e-05 0.91 0 0 0 0.000745922 -0.000553925 -0.000166643 
280 4.57351e-05 -3.88925e-05 -4.72195e-05 0.91 0 0 0 0.000418867 -0.000353199 9.37442e-06 
212 4.7818e-05 -3.45652e-05 -5.17093e-05 0.91 0 0 0 0.000393033 -0.000303737 -0.000141483 
35 4.9914e-05 -3.47279e-05 -4.7218e-05 0.91 0 0 0 0.000367709 -0.00040431 9.34888e-06 
182 4.78313e-05 -3.19065e-05 -4.72198e-05 0.91 0 0 0 0.000393201 -0.000337318 9.39642e-06 
45 5.01532e-05 -3.44829e-05 -4.95347e-05 0.91 0 0 0 0.000383076 -0.000389068 1.96349e-05 
197 4.64812e-05 -3.41014e-05 -4.85809e-05 0.91 0 0 0 0.000222962 -3.75491e-05 -0.0001601 
124 5.00683e-05 -3.67999e-05 -5.16944e-05 0.91 0 0 0 0.000469949 -0.000378701 -0.000143492 
115 5.01643e-05 -3.91354e-05 -4.95561e-05 0.91 0 0 0 0.000383547 -0.000368899 1.91856e-05 
26 -1.83625 -1.8397 -0.000739422 0.91 0 0 0 -0.545397 -0.541408 -0.00819107 
288 4.77736e-05 1.55564e-05 -4.71866e-05 0.91 0 0 0 0.000395967 -0.00357694 9.46452e-06 
306 8.5106e-05 3.65608e-07 -2.87134e-05 0.91 0 0 0 -0.0018262 -0.00259402 -0.00109371 
286 6.17041e-05 -2.29478e-05 -4.72052e-05 0.91 0 0 0 -0.000898201 -0.00167216 8.70705e-06 
321 4.77793e-05 -2.31283e-05 -3.35385e-05 0.91 0 0 0 0.000396567 -0.00166213 -0.00127319 
187 4.57469e-05 -3.47281e-05 -4.72069e-05 0.91 0 0 0 0.000418806 -0.000404259 9.24095e-06 
322 6.74964e-05 2.52872e-06 -7.89784e-06 0.91 0 0 0 -0.000754661 -0.00267166 -0.00228204 
319 8.63021e-05 -1.75534e-05 -8.76544e-06 0.91 0 0 0 -0.00186792 -0.00151188 -0.00225202 
275 4.60209e-05 -3.68061e-05 -4.72126e-05 0.91 0 0 0 0.000426054 -0.000378747 9.28381e-06 
100 4.99219e-05 -3.89004e-05 -4.72065e-05 0.91 0 0 0 0.000367806 -0.000353171 9.17288e-06 
277 0.000100711 -3.68899e-05 -4.72071e-05 0.91 0 0 0 -0.00282173 -0.000374956 7.47061e-06 
281 4.33477e-05 -3.9072e-05 -4.72157e-05 0.91 0 0 0 0.000244755 -0.000452856 9.38268e-06 
214 8.59956e-05 -5.58601e-05 -9.23705e-06 0.91 0 0 0 -0.0018581 0.000747605 -0.00223436 
284 4.78336e-05 -4.17086e-05 -4.7201e-05 0.91 0 0 0 0.000393357 -0.000419353 9.28392e-06 
276 4.29434e-05 -3.68191e-05 -4.72068e-05 0.91 0 0 0 0.000353081 -0.000378654 9.48861e-06 
99 5.23098e-05 -3.90558e-05 -4.71987e-05 0.91 0 0 0 0.000544182 -0.000453863 9.39106e-06 
118 4.91429e-05 -3.94433e-05 -4.8522e-05 0.91 0 0 0 0.000567748 -0.000727094 -0.000163989 
127 4.91169e-05 -3.80947e-05 -4.97903e-05 0.91 0 0 0 0.000570851 -0.000554903 -0.00034431 
44 5.04932e-05 -3.54639e-05 -4.85523e-05 0.91 0 0 0 0.000738224 -0.000207392 -0.000161938 
53 4.91501e-05 -3.54686e-05 -4.98564e-05 0.91 0 0 0 0.000567384 -0.000204751 -0.000337196 
95 5.27144e-05 -3.68012e-05 -4.72168e-05 0.91 0 0 0 0.000432909 -0.000378687 9.15582e-06 
282 0.000175759 6.13795e-06 -4.71499e-05 0.91 0 0 0 -0.00498521 -0.00218666 5.64732e-06 
110 5.22991e-05 -3.68135e-05 -4.94604e-05 0.91 0 0 0 0.000546363 -0.000379092 -6.72135e-05 
289 8.99188e-05 8.78646e-05 -4.71975e-05 0.91 0 0 0 -0.00139509 -0.00568027 1.02589e-05 
31 5.00825e-05 -3.23168e-05 -4.72065e-05 0.91 0 0 0 0.000467668 -0.000230151 9.77199e-06 
41 4.9124e-05 -3.42243e-05 -4.85226e-05 0.91 0 0 0 0.000570181 -2.59539e-05 -0.000167422 
332 4.79992e-05 6.44694e-06 8.1734e-05 0.91 0 0 0 0.000384331 -0.0021896 -0.00539669 
167 4.78365e-05 -3.23362e-05 -4.49721e-05 0.91 0 0 0 0.000393185 -0.00022489 8.62807e-05 
308 4.76415e-05 9.20373e-05 -3.59733e-06 0.91 0 0 0 0.000399547 -0.00578055 -0.00181615 
241 4.55928e-05 -3.68229e-05 -4.27439e-05 0.91 0 0 0 0.000315262 -0.000378671 0.000164306 
302 0.000313768 5.31264e-05 4.27192e-05 0.91 0 0 0 -0.00684775 -0.00282482 -0.00243679 
333 0.000135968 5.14618e-05 0.000214889 0.91 0 0 0 -0.00203402 -0.00280649 -0.0072242 
309 0.000138054 0.000229564 4.27217e-05 0.91 0 0 0 -0.00205598 -0.00762738 -0.00242911 
82 4.99183e-05 -3.68168e-05 -4.51131e-05 0.91 0 0 0 0.000367855 -0.000378611 -1.63955e-05 
256 4.57378e-05 -3.68115e-05 -4.51318e-05 0.91 0 0 0 0.00041882 -0.000378646 -1.62288e-05 
255 4.78387e-05 -3.68069e-05 -4.54031e-05 0.91 0 0 0 0.000393126 -0.000378746 -2.35839e-05 
172 4.54998e-05 -3.4466e-05 -4.48772e-05 0.91 0 0 0 0.000402869 -0.000388434 -4.72547e-07 
81 5.2306e-05 -3.6801e-05 -4.49545e-05 0.91 0 0 0 0.000544525 -0.00037833 8.48568e-05 
171 4.7841e-05 -3.47183e-05 -4.51371e-05 0.91 0 0 0 0.00039312 -0.000404362 -1.62434e-05 
260 4.78377e-05 -3.89017e-05 -4.51234e-05 0.91 0 0 0 0.000393184 -0.000353113 -1.63158e-05 
257 4.33511e-05 -3.68081e-05 -4.49797e-05 0.91 0 0 0 0.000241421 -0.000378233 8.4571e-05 
86 5.01762e-05 -3.91583e-05 -4.48613e-05 0.91 0 0 0 0.000383912 -0.00036923 -2.84369e-07 
240 4.78283e-05 -3.68247e-05 -4.23248e-05 0.91 0 0 0 0.00039313 -0.00037867 4.84096e-05 
261 4.5489e-05 -3.91603e-05 -4.48743e-05 0.91 0 0 0 0.000402752 -0.000369018 -3.24951e-07 
329 9.0105e-05 -3.66478e-05 7.76696e-05 0.91 0 0 0 -0.00140203 -0.00038393 -0.00529645 
24 5.01631e-05 -3.44778e-05 -4.4888e-05 0.91 0 0 0 0.000383233 -0.00038876 -8.0952e-07 
297 0.000173432 -3.68533e-05 -4.98602e-06 0.91 0 0 0 -0.00492826 -0.000377549 -0.00178215 
225 8.97515e-05 -8.94857e-06 -0.0167187 0.91 0 0 0 -0.00483892 -0.0041068 3.04451 
135 4.1644e-06 -3.69147e-05 8.22818e-05 0.91 0 0 0 0.00221685 -0.000371741 -0.00540908 
123 3.44159e-05 -3.68066e-05 -3.38304e-05 0.91 0 0 0 0.00166255 -0.000377222 -0.0012596 
94 -5.82638e-06 -3.68289e-05 -4.71353e-05 0.91 0 0 0 0.00363685 -0.000376886 5.62298e-06 
102 3.42635e-05 -2.33286e-05 -4.71878e-05 0.91 0 0 0 0.00167126 -0.0016514 9.0554e-06 
52 9.96385e-06 -5.56247e-05 -9.24341e-06 0.91 0 0 0 0.00263065 0.000737246 -0.00223705 
106 5.31179e-06 8.88538e-05 -4.7001e-05 0.91 0 0 0 0.00219171 -0.00570356 3.0971e-06 
117 9.10575e-06 1.85082e-06 -2.79106e-05 0.91 0 0 0 0.00266303 -0.00264708 -0.00112264 
126 9.56056e-06 -1.77487e-05 -9.00658e-06 0.91 0 0 0 0.00264675 -0.00150215 -0.00224241 
130 2.89426e-05 1.08845e-06 -9.28719e-06 0.91 0 0 0 0.00150926 -0.00261965 -0.00223281 
209 6.66343e-05 -7.43819e-05 -9.67041e-06 0.91 0 0 0 -0.000722726 0.00185176 -0.00222027 
184 6.12344e-05 -5.01446e-05 -4.72395e-05 0.91 0 0 0 -0.000876544 0.000887109 9.26673e-06 
30 3.40565e-05 -5.06024e-05 -4.72433e-05 0.91 0 0 0 0.00167948 0.000911681 1.13339e-05 
50 2.83786e-05 -7.58865e-05 -8.11758e-06 0.91 0 0 0 0.00152971 0.00190658 -0.00227659 
40 1.01603e-05 -7.44361e-05 -2.84872e-05 0.91 0 0 0 0.0026254 0.00185433 -0.0011032 
198 8.59967e-05 -7.49323e-05 -2.82585e-05 0.91 0 0 0 -0.00185675 0.00187136 -0.00111268 
203 0.000310155 -0.000125594 4.16496e-05 0.91 0 0 0 -0.00682798 0.00206087 -0.00243694 
221 0.000137979 -0.0001272 0.000220449 0.91 0 0 0 -0.00204432 0.00206834 -0.00725107 
208 4.78329e-05 -5.04931e-05 -3.35045e-05 0.91 0 0 0 0.000392695 0.000904938 -0.00127707 
220 4.79768e-05 -7.88129e-05 7.76987e-05 0.91 0 0 0 0.000385986 0.00140737 -0.00529882 
178 4.78561e-05 -9.09093e-05 -4.72645e-05 0.91 0 0 0 0.000392467 0.00288342 1.03089e-05 
189 0.000175441 -7.97658e-05 -4.71564e-05 0.91 0 0 0 -0.00497662 0.00142871 4.52748e-06 
20 4.91993e-05 -3.40805e-05 -4.58498e-05 0.91 0 0 0 0.000561963 -4.02805e-05 0.000177976 
154 4.7818e-05 -5.05623e-05 -6.09347e-05 0.91 0 0 0 0.000395898 0.00090855 0.00129347 
168 4.6496e-05 -3.41267e-05 -4.58778e-05 0.91 0 0 0 0.000221922 -3.55185e-05 0.000180303 
85 5.04257e-05 -3.81205e-05 -4.58986e-05 0.91 0 0 0 0.000744903 -0.000553839 0.000183909 
14 4.9157e-05 -3.55009e-05 -4.4581e-05 0.91 0 0 0 0.000567734 -0.000205295 0.000357599 
169 8.53712e-05 -7.43275e-05 -6.59624e-05 0.91 0 0 0 -0.00183339 0.00184884 0.00112182 
19 9.69966e-06 -7.48616e-05 -6.61435e-05 0.91 0 0 0 0.00264349 0.00186835 0.0011276 
73 4.91833e-05 -3.81746e-05 -4.4513e-05 0.91 0 0 0 0.000564178 -0.000549495 0.000350469 
323 0.000339414 0.000255246 0.000244788 0.91 0 0 0 -9.88281e-05 -0.000876006 -0.000490451 
23 5.04957e-05 -3.54704e-05 -4.58716e-05 0.91 0 0 0 0.000737806 -0.000206935 0.000180837 
69 3.46661e-05 -3.67982e-05 -6.03688e-05 0.91 0 0 0 0.00165074 -0.000380915 0.001268 
248 4.78561e-05 -2.34011e-05 -6.06682e-05 0.91 0 0 0 0.000391321 -0.00164908 0.00128318 
70 5.00928e-05 -3.68141e-05 -4.2724e-05 0.91 0 0 0 0.000468055 -0.000378537 0.000157807 
88 1.01154e-05 7.71235e-07 -6.59457e-05 0.91 0 0 0 0.00262789 -0.00260827 0.00112335 
266 4.65228e-05 -3.94471e-05 -4.58923e-05 0.91 0 0 0 0.000219329 -0.000727759 0.000183071 
158 4.78419e-05 -3.45591e-05 -4.27198e-05 0.91 0 0 0 0.000393309 -0.000304674 0.000156797 
244 4.78287e-05 -3.90678e-05 -4.27325e-05 0.91 0 0 0 0.000392991 -0.000454957 0.000161593 
267 8.64133e-05 1.75025e-06 -6.64079e-05 0.91 0 0 0 -0.00187136 -0.002646 0.00113831 
242 6.09065e-05 -3.68206e-05 -6.02569e-05 0.91 0 0 0 -0.000859517 -0.000379952 0.00126139 
173 4.5208e-05 -3.54945e-05 -4.58965e-05 0.91 0 0 0 4.50508e-05 -0.000205213 0.000183071 
159 4.65045e-05 -3.54783e-05 -4.4547e-05 0.91 0 0 0 0.000221034 -0.000206387 0.000353647 
109 -8.00663e-05 -3.67535e-05 -3.96682e-06 0.91 0 0 0 0.00576873 -0.000379348 -0.00180797 
120 -4.18102e-05 0.000227956 4.23478e-05 0.91 0 0 0 0.00283361 -0.00761769 -0.00242915 
33 -8.06751e-05 -8.03138e-05 -4.72449e-05 0.91 0 0 0 0.0057836 0.00144785 1.11474e-05 
43 -0.000218913 -0.00012718 4.23599e-05 0.91 0 0 0 0.0076384 0.00207495 -0.00241934 
57 -4.00783e-05 -0.000124822 0.000213851 0.91 0 0 0 0.00281704 0.0020554 -0.00721837 
113 -0.000212859 5.11462e-05 4.07051e-05 0.91 0 0 0 0.00760797 -0.00280728 -0.00241747 
137 -4.15775e-05 5.30619e-05 0.000218647 0.91 0 0 0 0.00282011 -0.00281923 -0.00723864 
179 9.06829e-05 -0.000163659 -4.74286e-05 0.91 0 0 0 -0.00141242 0.00497545 1.55843e-05 
28 4.83111e-06 -0.000163552 -4.71877e-05 0.91 0 0 0 0.00220717 0.00497226 6.31338e-06 
287 -1.41238e-05 -8.39151e-05 -4.69546e-05 0.91 0 0 0 0.0465452 0.0312917 2.14581e-06 
38 -4.05125e-05 -0.000299409 4.09783e-05 0.91 0 0 0 0.00282033 0.00685999 -0.00241816 
290 9.29608e-06 -8.39947e-05 -4.71811e-05 0.91 0 0 0 0.0315266 0.0449064 2.56538e-05 
194 0.000138386 -0.000304836 4.33076e-05 0.91 0 0 0 -0.00204918 0.00687878 -0.00243957 
25 -0.272611 -0.875369 0.000524666 0.91 0 0 0 4.48548 14.1619 -0.00946611 
335 4.81561e-05 -8.01561e-05 -0.00010201 0.91 0 0 0 0.000437839 0.031123 0.0457171 
325 4.81565e-05 -9.88287e-05 -9.53933e-05 0.91 0 0 0 0.000332137 0.0457921 0.0317624 
165 0.000137343 -0.000301621 -0.000136868 0.91 0 0 0 -0.00204373 0.00686068 0.00245079 
17 -4.03419e-05 -0.000298836 -0.000136169 0.91 0 0 0 0.00281946 0.00684899 0.00245495 
164 4.78745e-05 -0.00016583 -9.07146e-05 0.91 0 0 0 0.000392867 0.00502828 0.00182943 
330 2.65812e-05 -3.7093e-05 -6.92416e-05 0.91 0 0 0 0.0304647 -0.000450094 0.0437854 
316 -8.61932e-05 -3.71835e-05 -0.000143393 0.91 0 0 0 0.0508148 -0.000318453 0.0346122 
22 -0.000213335 -0.000124637 -0.00013513 0.91 0 0 0 0.00761585 0.00204688 0.00243822 
148 4.76596e-05 -8.0488e-05 -0.000176331 0.91 0 0 0 0.000402393 0.0014482 0.00541747 
84 -0.00021496 5.2161e-05 -0.000136008 0.91 0 0 0 0.00761775 -0.00282075 0.00245004 
91 -4.21106e-05 0.000231198 -0.000137352 0.91 0 0 0 0.00282126 -0.00764302 0.0024495 
174 0.000304625 -0.000123205 -0.00013364 0.91 0 0 0 -0.00680258 0.00203666 0.00242488 
160 8.65495e-05 -5.61076e-05 -8.58489e-05 0.91 0 0 0 -0.0018765 0.00075352 0.00227602 
11 2.86886e-05 -7.5238e-05 -8.5604e-05 0.91 0 0 0 0.00152109 0.00188208 0.00226773 
80 -7.88628e-05 -3.70158e-05 -8.97166e-05 0.91 0 0 0 0.0057419 -0.000369882 0.00180563 
155 6.69991e-05 -7.52698e-05 -8.57499e-05 0.91 0 0 0 -0.000732691 0.00188197 0.00227404 
246 8.6459e-05 -1.75342e-05 -8.57678e-05 0.91 0 0 0 -0.00187283 -0.0015143 0.00227358 
258 0.000173894 -3.69884e-05 -8.96084e-05 0.91 0 0 0 -0.00493905 -0.00037323 0.00180185 
233 4.79962e-05 6.22199e-06 -0.000174642 0.91 0 0 0 0.000387577 -0.00219336 0.00537752 
230 9.07742e-05 -3.67837e-05 -0.000174747 0.91 0 0 0 -0.00141182 -0.000382584 0.00538033 
63 5.6698e-06 -3.70515e-05 -0.000171696 0.91 0 0 0 0.0021863 -0.000370407 0.00530482 
76 2.89199e-05 1.22503e-06 -8.52174e-05 0.91 0 0 0 0.00151065 -0.002627 0.0022556 
269 4.77032e-05 8.83426e-05 -8.94919e-05 0.91 0 0 0 0.000398194 -0.00569201 0.00180509 
129 -0.00024251 0.000254406 0.000244055 0.91 0 0 0 0.00105366 -0.00105268 -0.000662394 
105 7.98618e-05 -7.47669e-05 -4.7772e-05 0.91 0 0 0 -0.0303903 0.0443177 -6.66601e-06 
134 0.000131065 -3.73336e-05 -0.000158894 0.91 0 0 0 -0.0334101 -0.000328725 0.0491359 
217 4.83764e-05 5.98119e-06 -0.000101605 0.91 0 0 0 0.000312182 -0.0318617 0.0457206 
210 0.000337158 -0.0003269 0.00024293 0.91 0 0 0 -0.000549903 0.00057839 -0.0009598 
49 -0.000243725 -0.000328933 0.000244737 0.91 0 0 0 0.000873749 0.000125882 -0.000492284 
185 -1.52929e-06 1.77628e-06 -4.64797e-05 0.91 0 0 0 0.0458093 -0.0315051 -5.38269e-06 
29 8.89632e-05 -3.96256e-06 -4.74314e-05 0.91 0 0 0 -0.0445062 -0.0311815 -2.55193e-06 
6 -4.08602e-05 -0.000125934 -0.000310585 0.91 0 0 0 0.00282511 0.00206176 0.00724572 
149 0.000138905 -0.000127308 -0.000316592 0.91 0 0 0 -0.00205126 0.00205209 0.00727272 
336 -0.00183845 -0.0038482 -0.00557001 0.91 0 0 0 0.0783421 0.157198 0.229046 
307 -0.00645434 -0.00452896 -0.00227632 0.91 0 0 0 0.248643 0.170674 0.0849126 
10 -0.000242977 -0.000328148 -0.000337581 0.91 0 0 0 0.00112784 0.00035966 0.000749958 
334 -0.00431889 -0.00219598 -0.00636012 0.91 0 0 0 0.169256 0.0830235 0.244843 
310 -0.00383219 -0.00565175 -0.00197015 0.91 0 0 0 0.159456 0.230499 0.0788484 
326 -0.00188409 -0.00567135 -0.00392885 0.91 0 0 0 0.079445 0.231009 0.159004 
320 -0.00565464 -0.0019873 -0.00398304 0.91 0 0 0 0.233148 0.0789244 0.160298 
156 0.000339037 -0.000328695 -0.000338769 0.91 0 0 0 -0.000124866 0.000150777 0.000538358 
65 -3.97026e-05 5.02056e-05 -0.000306055 0.91 0 0 0 0.00282686 -0.00280102 0.00722408 
250 0.000336662 0.000253104 -0.000336426 0.91 0 0 0 -0.000628439 -0.00142619 0.00104435 
75 -0.000242676 0.000253131 -0.000338088 0.91 0 0 0 0.00121966 -0.00121436 0.000852039 
234 0.000137232 5.22931e-05 -0.000312967 0.91 0 0 0 -0.00203652 -0.00280899 0.00726259 
122 0.000135512 -3.71579e-05 -0.00011232 0.91 0 0 0 -0.0473199 -0.000357992 0.0327112 
132 0.0021537 -0.00618938 -0.00429301 0.91 0 0 0 -0.08209 0.241432 0.166422 
116 0.00595462 -0.00411009 -0.00206286 0.91 0 0 0 -0.236587 0.162633 0.0805773 
125 0.00602543 -0.00207537 -0.00416774 0.91 0 0 0 -0.238011 0.0806884 0.163898 
136 0.0039643 -0.00198741 -0.00572853 0.91 0 0 0 -0.159282 0.0791376 0.232354 
119 0.00395454 -0.00570004 -0.0019951 0.91 0 0 0 -0.159142 0.231562 0.0794861 
139 0.00197336 -0.00389206 -0.00564064 0.91 0 0 0 -0.0786485 0.158047 0.230498 
101 0.000158511 -0.000117746 -4.7946e-05 0.91 0 0 0 -0.0486597 0.0333174 3.4653e-05 
27 0.000125213 6.67052e-05 -4.72158e-05 0.91 0 0 0 -0.0331069 -0.0490221 4.97481e-05 
55 0.00201842 0.00395263 -0.0058096 0.91 0 0 0 -0.0792349 -0.161942 0.233942 
205 4.81225e-05 -8.88224e-06 -7.12888e-05 0.91 0 0 0 0.000360601 -0.0444936 0.0303156 
39 0.00553809 0.00375503 -0.00191889 0.91 0 0 0 -0.227843 -0.157642 0.0775401 
51 0.00584043 0.00193407 -0.00404562 0.91 0 0 0 -0.23423 -0.0799829 0.161529 
180 -5.31552e-05 0.000100895 -4.62189e-05 0.91 0 0 0 0.035275 -0.0510133 -6.79392e-05 
56 0.00447543 0.00215244 -0.00645691 0.91 0 0 0 -0.169445 -0.0843841 0.246654 
222 -0.00427756 0.00210826 -0.00630743 0.91 0 0 0 0.168423 -0.0837361 0.243883 
215 -0.00561016 0.00189127 -0.00394182 0.91 0 0 0 0.23236 -0.0792433 0.159325 
218 -0.00197911 0.00406752 -0.00598881 0.91 0 0 0 0.0812616 -0.164176 0.237708 
199 -0.00621776 0.00428808 -0.00218731 0.91 0 0 0 0.244367 -0.168425 0.0831743 
145 4.72507e-05 5.53033e-05 7.8375e-05 0.91 0 0 0 0.000395027 -0.0347357 -0.0499226 
62 0.000124797 -3.66326e-05 5.6536e-05 0.91 0 0 0 -0.0330844 -0.000378938 -0.0486571 
170 -0.00633975 0.0043689 0.00213855 0.91 0 0 0 0.246651 -0.169853 -0.083927 
68 8.8209e-05 -3.67671e-05 -1.48939e-05 0.91 0 0 0 -0.0444681 -0.000344293 -0.0307726 
18 0.00582581 0.00395123 0.00193275 0.91 0 0 0 -0.233895 -0.161681 -0.0800519 
236 4.7431e-05 -8.90471e-05 2.12247e-05 0.91 0 0 0 0.000340776 0.0316345 -0.046554 
252 4.74179e-05 -8.31024e-05 -9.94012e-06 0.91 0 0 0 0.000435009 0.0448028 -0.0311577 
231 7.54898e-06 -3.64875e-05 2.35151e-06 0.91 0 0 0 0.0315995 -0.000354439 -0.0454302 
243 5.60531e-06 -3.63933e-05 -1.33049e-05 0.91 0 0 0 0.0453055 -0.000484143 -0.0309002 
151 4.74809e-05 3.5935e-05 8.31262e-06 0.91 0 0 0 0.00035202 -0.0471804 -0.0322021 
90 0.00414367 -0.00596852 0.00198638 0.91 0 0 0 -0.163104 0.237037 -0.081147 
268 -0.00587349 -0.00411666 0.00197097 0.91 0 0 0 0.237675 0.162691 -0.0806112 
271 -0.00410557 -0.00603583 0.00201622 0.91 0 0 0 0.165102 0.238246 -0.0818087 
87 0.00609345 -0.00421528 0.00201151 0.91 0 0 0 -0.239297 0.164852 -0.0813922 
161 -0.0061328 0.00208127 0.00422183 0.91 0 0 0 0.242654 -0.0831709 -0.16688 
140 -0.286955 0.00140711 0.924128 0.91 0 0 0 4.40562 -0.0206319 -13.9348 
339 4.11825e-05 -4.03414e-05 0.00925353 0.91 0 0 0 0.000569271 0.00272771 -2.65833 
4 0.0021311 0.0041774 0.00605471 0.91 0 0 0 -0.0815786 -0.166249 -0.240814 
58 -0.586939 -0.589099 1.94407 0.91 0 0 0 0.981103 0.991903 -2.46835 
150 -0.00394098 0.00194581 0.00573305 0.91 0 0 0 0.161626 -0.0805014 -0.234364 
12 0.00616759 0.00204896 0.00418666 0.91 0 0 0 -0.240699 -0.0822871 -0.166382 
146 -0.00212929 0.00434335 0.00628735 0.91 0 0 0 0.0843353 -0.16946 -0.245137 
54 -0.938071 -0.940011 1.3853 0.91 0 0 0 2.53973 2.54822 -3.63248 
191 -0.000981335 -0.952779 0.297639 0.91 0 0 0 0.0155091 13.7595 -4.38226 
216 0.00179695 -1.8289 1.8291 0.91 0 0 0 0.0103321 -0.508436 0.486993 
36 -0.57911 -1.9214 0.579665 0.91 0 0 0 1.05645 2.705 -1.04933 
5 0.00440368 0.00211496 0.00625187 0.91 0 0 0 -0.168259 -0.083636 -0.244548 
108 -0.88932 -2.77541e-05 0.278292 0.91 0 0 0 14.0914 -0.000401305 -4.48478 
67 0.00199506 -0.00398553 0.00565637 0.91 0 0 0 -0.0788203 0.160285 -0.232723 
133 -1.83338 -0.000192776 1.82988 0.91 0 0 0 -0.523129 -0.00239274 0.498784 
46 -0.955751 -1.40758 0.951315 0.91 0 0 0 2.38718 3.38721 -2.3743 
42 -1.91401 -0.577188 0.579076 0.91 0 0 0 2.7668 1.07056 -1.06945 
223 0.000602789 -0.284984 0.91618 0.91 0 0 0 -0.0101409 4.42473 -13.9758 
48 -1.39938 -0.944114 0.948545 0.91 0 0 0 3.48825 2.44386 -2.45193 
235 -0.00371574 -0.00189898 0.00540965 0.91 0 0 0 0.156861 0.0770364 -0.227622 
237 -0.00183676 -0.00383662 0.00545497 0.91 0 0 0 0.0783314 0.156989 -0.228529 
253 -0.0018744 -0.00565691 0.00382817 0.91 0 0 0 0.0791016 0.230695 -0.158913 
71 0.00609207 -0.00210569 0.0041193 0.91 0 0 0 -0.239323 0.0814157 -0.16483 
78 0.00213373 -0.00612686 0.00416544 0.91 0 0 0 -0.0817418 0.240104 -0.165923 
247 -0.0059906 -0.00210693 0.00411028 0.91 0 0 0 0.239977 0.0815036 -0.164546 
64 0.00400885 -0.00200573 0.00569328 0.91 0 0 0 -0.160323 0.0794665 -0.233566 
83 -1.90954 0.576365 -0.57833 0.91 0 0 0 2.80947 -1.07949 1.0896 
60 -0.579953 0.585388 -1.93274 0.91 0 0 0 1.02053 -1.02869 2.59529 
227 0.000794657 0.281746 -0.902447 0.91 0 0 0 -0.00811879 -4.46067 14.036 
92 -0.578031 1.9165 -0.576863 0.91 0 0 0 1.06232 -2.76507 1.07117 
239 0.000270055 1.83706 -1.83586 0.91 0 0 0 0.00150494 0.503695 -0.511006 
37 0.00446945 0.00636687 -0.00224429 0.91 0 0 0 -0.169279 -0.246936 0.084311 
47 0.00208037 0.00587236 -0.00412037 0.91 0 0 0 -0.0807595 -0.237451 0.162952 
66 -0.950972 0.950173 -1.40535 0.91 0 0 0 2.40712 -2.4057 3.43165 
77 -0.950293 1.40305 -0.948543 0.91 0 0 0 2.42111 -3.44765 2.42335 
74 -1.39481 0.942567 -0.942724 0.91 0 0 0 3.54507 -2.48329 2.48899 
97 -0.911128 0.282575 0.000596132 0.91 0 0 0 14.001 -4.42156 -0.00766071 
292 5.1672e-05 0.00910875 -5.73184e-05 0.91 0 0 0 0.00146896 -2.64993 0.00315263 
195 -0.00393696 0.00573911 -0.00201187 0.91 0 0 0 0.161643 -0.234822 0.079553 
272 -0.00115694 0.889105 -0.276996 0.91 0 0 0 0.0197925 -14.1041 4.46932 
104 -1.83367 1.83223 -0.000602103 0.91 0 0 0 -0.540905 0.52906 0.00520048 
107 -0.292201 0.935337 0.000731977 0.91 0 0 0 4.41233 -13.8627 -0.00938047 
206 -0.00183915 0.00546355 -0.00383898 0.91 0 0 0 0.078575 -0.228975 0.157165 
16 0.00395131 0.00561511 0.0018908 0.91 0 0 0 -0.159138 -0.232089 -0.0791764 
166 -0.00408587 0.00594374 0.00200335 0.91 0 0 0 0.164689 -0.238811 -0.0813816 
311 0.000268421 0.891253 0.278632 0.91 0 0 0 -0.00318516 -14.0866 -4.47711 
141 -0.576504 0.574627 1.91228 0.91 0 0 0 1.08395 -1.07859 -2.81941 
121 -0.578849 1.91838 0.581148 0.91 0 0 0 1.05394 -2.72825 -1.06164 
8 0.00190992 0.00541826 0.00371753 0.91 0 0 0 -0.0770162 -0.227954 -0.156584 
138 -0.964078 0.963961 1.42306 0.91 0 0 0 2.2688 -2.26941 -3.21947 
112 -1.91617 0.580866 0.577478 0.91 0 0 0 2.7395 -1.06674 -1.06034 
341 -0.000598053 0.286451 0.919084 0.91 0 0 0 0.00924626 -4.42589 -13.9556 
128 -1.38498 0.936834 0.937025 0.91 0 0 0 3.64446 -2.55412 -2.55667 
131 -0.946604 1.39601 0.945736 0.91 0 0 0 2.46489 -3.5093 -2.46623 
338 0.00120418 1.82454 1.8242 0.91 0 0 0 0.00975771 0.470921 0.465616 
152 -0.00191818 0.00568369 0.00391263 0.91 0 0 0 0.0801823 -0.233437 -0.160813 
175 1.91641 -0.579032 -0.578454 0.91 0 0 0 -2.7635 1.06694 1.06314 
143 0.587722 -0.586764 -1.94477 0.91 0 0 0 -0.996103 1.00158 2.48408 
278 0.0147009 -3.56659e-05 -6.13573e-05 0.91 0 0 0 -2.94126 0.00327482 0.00147503 
163 0.579644 -1.92545 -0.581412 0.91 0 0 0 -1.04358 2.67151 1.05167 
177 0.284109 -0.914855 0.000577148 0.91 0 0 0 -4.42158 13.9808 -0.00747453 
147 0.959045 -0.956668 -1.41564 0.91 0 0 0 -2.34012 2.34093 3.32992 
259 0.891755 -0.00054503 -0.279222 0.91 0 0 0 -14.0858 0.00917272 4.48113 
232 1.82127 0.00227103 -1.82113 0.91 0 0 0 0.446085 0.0160577 -0.437603 
190 0.934829 -0.291475 -0.000287646 0.91 0 0 0 -13.8734 4.4044 0.00213534 
226 0.274568 0.00149984 -0.877397 0.91 0 0 0 -4.4996 -0.0223181 14.1482 
157 1.39189 -0.942037 -0.94028 0.91 0 0 0 -3.58317 2.51869 2.51259 
153 0.951991 -1.40795 -0.951921 0.91 0 0 0 -2.39525 3.41158 2.40017 
224 0.591515 -0.584811 1.94963 0.91 0 0 0 -0.979542 0.964307 -2.42997 
298 0.886131 0.000938504 0.277171 0.91 0 0 0 -14.1145 -0.0150815 -4.49024 
192 0.578215 -1.91263 0.579702 0.91 0 0 0 -1.06827 2.77438 -1.06823 
331 1.84029 0.000219707 1.84083 0.91 0 0 0 0.517053 -0.00730608 0.513727 
219 0.943641 -0.941954 1.39061 0.91 0 0 0 -2.5042 2.49368 -3.57531 
181 1.83113 -1.83321 0.00388148 0.91 0 0 0 0.517385 -0.522916 0.0175477 
211 1.37763 -0.93258 0.934296 0.91 0 0 0 -3.72205 2.59138 -2.6032 
204 1.94673 -0.585985 0.589015 0.91 0 0 0 -2.44714 0.966603 -0.980351 
340 0.271516 -0.000456942 0.873299 0.91 0 0 0 -4.4822 0.00911324 -14.1778 
207 0.943053 -1.39157 0.944945 0.91 0 0 0 -2.48541 3.54139 -2.49057 
254 0.943186 1.39264 -0.945067 0.91 0 0 0 -2.48322 -3.55607 2.4879 
238 0.95348 0.95145 -1.40822 0.91 0 0 0 -2.3822 -2.38648 3.39261 
291 1.83249 1.83276 -0.00102897 0.91 0 0 0 0.511809 0.510907 0.00602389 
228 0.578294 0.579107 -1.91454 0.91 0 0 0 -1.06855 -1.07415 2.78465 
283 0.948736 0.296017 -0.000610152 0.91 0 0 0 -13.7928 -4.38376 0.00637144 
293 0.297396 0.953364 5.45829e-05 0.91 0 0 0 -4.37494 -13.7628 0.000928223 
251 1.37235 0.9308 -0.931585 0.91 0 0 0 -3.76824 -2.63904 2.63087 
273 0.585332 1.94815 -0.592042 0.91 0 0 0 -0.968904 -2.42917 0.981262 
264 1.94891 0.590123 -0.59014 0.91 0 0 0 -2.41129 -0.971284 0.961029 
342 0.584515 0.586352 1.93754 0.91 0 0 0 -1.01166 -1.00233 -2.54785 
337 0.949592 0.950645 1.40077 0.91 0 0 0 -2.42983 -2.42227 -3.45693 
324 1.39362 0.945978 0.943221 0.91 0 0 0 -3.54479 -2.47964 -2.47719 
327 0.928232 1.37339 0.932112 0.91 0 0 0 -2.62945 -3.76861 -2.63547 
312 0.588006 1.94417 0.585705 0.91 0 0 0 -0.984259 -2.46473 -0.971492 
303 1.93766 0.58633 0.585859 0.91 0 0 0 -2.54039 -1.00058 -1.00275 
ITEM: TIMESTEP
960114
ITEM: NUMBER OF ATOMS
341
ITEM: BOX BOUNDS ss ss ss
-1.9360300446137211e+00 1.9495118901764781e+00
-1.9388440561347573e+00 1.9487524452880283e+00
-1.9453750558316978e+00 1.9502296762444777e+00
ITEM: ATOMS id x y z width_SPH x_COM y_COM z_COM vx vy vz 
2 -0.585103 -0.586071 -1.9354 0.91 0 0 0 1.00609 1.00857 2.55687 
3 -0.946575 -0.947511 -1.3961 0.91 0 0 0 2.45486 2.45379 3.50139 
13 8.20878e-06 -5.6601e-05 -8.6867e-05 0.91 0 0 0 0.0026953 0.000772118 0.00231445 
72 1.00011e-05 -1.80659e-05 -8.5007e-05 0.91 0 0 0 0.0026318 -0.00149083 0.00224855 
103 5.00782e-05 -4.13084e-05 -4.72109e-05 0.91 0 0 0 0.000466965 -0.000525797 8.99228e-06 
7 -0.94033 -1.38947 -0.939632 0.91 0 0 0 2.51795 3.59871 2.51355 
263 0.000317205 5.35888e-05 -0.000138383 0.91 0 0 0 -0.00686476 -0.00281424 0.00246029 
9 -1.37995 -0.939328 -0.934133 0.91 0 0 0 3.67043 2.57619 2.56354 
265 4.78273e-05 -4.1297e-05 -4.4972e-05 0.91 0 0 0 0.000393112 -0.000531864 8.53608e-05 
313 4.78364e-05 -3.68153e-05 -5.21076e-05 0.91 0 0 0 0.000393427 -0.000378836 -3.03955e-05 
270 0.000135091 0.000222811 -0.000134861 0.91 0 0 0 -0.00202587 -0.00760002 0.00244264 
296 4.33357e-05 -3.68203e-05 -4.94713e-05 0.91 0 0 0 0.000246752 -0.000378923 -6.33766e-05 
299 4.78241e-05 -3.88967e-05 -4.93002e-05 0.91 0 0 0 0.000393377 -0.000353127 3.49065e-05 
15 -0.584502 -1.93824 -0.585916 0.91 0 0 0 1.00083 2.53056 1.00152 
229 4.78679e-05 -3.68073e-05 -0.000102267 0.91 0 0 0 0.000392338 -0.000380962 0.00330598 
328 4.78186e-05 -3.68548e-05 5.95273e-06 0.91 0 0 0 0.000392758 -0.00037425 -0.00321825 
249 6.72435e-05 2.03046e-06 -8.59683e-05 0.91 0 0 0 -0.000743778 -0.00265666 0.00228074 
279 4.78271e-05 -3.86257e-05 -4.7213e-05 0.91 0 0 0 0.000393339 -0.000345808 9.29866e-06 
295 4.57318e-05 -3.68106e-05 -4.93139e-05 0.91 0 0 0 0.000418726 -0.00037867 3.48984e-05 
21 -1.93542 -0.586854 -0.584128 0.91 0 0 0 2.52973 1.00381 1.00103 
274 4.78318e-05 -3.681e-05 -4.72089e-05 0.91 0 0 0 0.000393242 -0.000378682 9.205e-06 
245 4.65341e-05 -3.81353e-05 -4.45936e-05 0.91 0 0 0 0.000218821 -0.000553162 0.000359515 
200 4.78219e-05 -3.47192e-05 -4.93163e-05 0.91 0 0 0 0.000393369 -0.000404176 3.49896e-05 
93 -0.0133769 -4.27029e-05 -3.3016e-05 0.91 0 0 0 2.87752 -0.000658175 0.000205949 
89 4.91409e-05 -3.94488e-05 -4.58788e-05 0.91 0 0 0 0.000566651 -0.000727018 0.00018324 
32 -0.952953 -0.298404 -0.000546353 0.91 0 0 0 13.7546 4.38969 0.0085621 
79 -0.929873 0.000284148 -0.288612 0.91 0 0 0 13.9015 -0.00626427 4.39597 
262 4.52402e-05 -3.81341e-05 -4.59058e-05 0.91 0 0 0 4.22985e-05 -0.000554129 0.000184419 
315 6.20385e-05 -3.68342e-05 -3.30527e-05 0.91 0 0 0 -0.000915302 -0.000376021 -0.00129768 
96 4.96476e-05 -3.68129e-05 -4.7207e-05 0.91 0 0 0 0.000360416 -0.000378644 9.18462e-06 
294 4.78274e-05 -3.6801e-05 -4.90146e-05 0.91 0 0 0 0.000393333 -0.000378853 4.20855e-05 
142 -0.000137079 -0.283028 -0.90671 0.91 0 0 0 0.00228184 4.45301 14.0169 
193 4.79776e-05 -0.000160348 -5.74526e-06 0.91 0 0 0 0.000387467 0.00489586 -0.00176262 
183 4.5585e-05 -3.23116e-05 -4.72303e-05 0.91 0 0 0 0.000319655 -0.000231645 9.25818e-06 
98 -7.88088e-05 6.1323e-06 -4.70422e-05 0.91 0 0 0 0.0057376 -0.002191 4.2643e-06 
111 4.99239e-05 -3.68067e-05 -4.9304e-05 0.91 0 0 0 0.000367785 -0.000378759 3.48573e-05 
196 4.78269e-05 -3.23212e-05 -4.94743e-05 0.91 0 0 0 0.0003931 -0.00022865 -6.56145e-05 
176 2.21959e-05 -0.012854 -6.40687e-05 0.91 0 0 0 9.34357e-05 2.84496 0.00328478 
162 -0.000484362 -0.906531 -0.281542 0.91 0 0 0 0.00648741 14.024 4.43306 
34 5.2313e-05 -3.45581e-05 -4.7215e-05 0.91 0 0 0 0.00054334 -0.000303893 9.21553e-06 
61 -1.8352 -0.000402805 -1.83177 0.91 0 0 0 -0.536738 -0.0093189 -0.517674 
59 -0.297861 0.000548114 -0.952666 0.91 0 0 0 4.38883 -0.0100274 13.7619 
144 -0.00197044 -1.82699 -1.82387 0.91 0 0 0 -0.0240899 -0.45711 -0.442284 
202 4.52218e-05 -3.5486e-05 -4.85406e-05 0.91 0 0 0 4.39357e-05 -0.000203353 -0.000164255 
304 4.7829e-05 -4.12984e-05 -4.94691e-05 0.91 0 0 0 0.00039346 -0.000527332 -6.53126e-05 
317 4.78207e-05 -3.90531e-05 -5.16952e-05 0.91 0 0 0 0.000393257 -0.000454909 -0.000142959 
305 4.65153e-05 -3.94453e-05 -4.8528e-05 0.91 0 0 0 0.000219764 -0.000727686 -0.00016418 
300 4.5491e-05 -3.91547e-05 -4.95474e-05 0.91 0 0 0 0.000402978 -0.000368907 1.90978e-05 
285 4.55916e-05 -4.13044e-05 -4.72166e-05 0.91 0 0 0 0.00031833 -0.000528982 9.08787e-06 
301 4.51778e-05 -3.81475e-05 -4.85495e-05 0.91 0 0 0 4.71983e-05 -0.000550993 -0.000162421 
318 4.65379e-05 -3.81029e-05 -4.97926e-05 0.91 0 0 0 0.000216756 -0.000555786 -0.000344454 
201 4.5493e-05 -3.4471e-05 -4.95454e-05 0.91 0 0 0 0.000403076 -0.000388591 1.93098e-05 
188 4.33531e-05 -3.45542e-05 -4.72287e-05 0.91 0 0 0 0.000243724 -0.000303745 9.27719e-06 
186 4.7834e-05 -3.50087e-05 -4.72188e-05 0.91 0 0 0 0.000393193 -0.000411432 9.41253e-06 
213 4.6483e-05 -3.54574e-05 -4.99168e-05 0.91 0 0 0 0.000222332 -0.000208318 -0.000332829 
314 4.55856e-05 -3.68085e-05 -5.16927e-05 0.91 0 0 0 0.000316095 -0.000378792 -0.00014463 
114 5.04131e-05 -3.81051e-05 -4.85109e-05 0.91 0 0 0 0.000745892 -0.000553909 -0.000166618 
280 4.57353e-05 -3.88927e-05 -4.72195e-05 0.91 0 0 0 0.000418851 -0.000353188 9.39362e-06 
212 4.78182e-05 -3.45654e-05 -5.17094e-05 0.91 0 0 0 0.000393016 -0.00030373 -0.000141455 
35 4.99142e-05 -3.47281e-05 -4.7218e-05 0.91 0 0 0 0.000367691 -0.000404301 9.36808e-06 
182 4.78315e-05 -3.19067e-05 -4.72198e-05 0.91 0 0 0 0.000393184 -0.000337313 9.41562e-06 
45 5.01534e-05 -3.44831e-05 -4.95347e-05 0.91 0 0 0 0.000383058 -0.000389059 1.96557e-05 
197 4.64814e-05 -3.41014e-05 -4.8581e-05 0.91 0 0 0 0.000222951 -3.75509e-05 -0.000160075 
124 5.00686e-05 -3.68001e-05 -5.16944e-05 0.91 0 0 0 0.000469928 -0.000378691 -0.000143464 
115 5.01645e-05 -3.91356e-05 -4.95561e-05 0.91 0 0 0 0.000383529 -0.000368888 1.92064e-05 
26 -1.83625 -1.8397 -0.000739426 0.91 0 0 0 -0.545402 -0.541412 -0.00819111 
288 4.77738e-05 1.55546e-05 -4.71866e-05 0.91 0 0 0 0.00039595 -0.00357688 9.48369e-06 
306 8.51051e-05 3.64311e-07 -2.87139e-05 0.91 0 0 0 -0.00182618 -0.00259398 -0.00109367 
286 6.17037e-05 -2.29487e-05 -4.72052e-05 0.91 0 0 0 -0.000898191 -0.00167212 8.72626e-06 
321 4.77795e-05 -2.31291e-05 -3.35391e-05 0.91 0 0 0 0.00039655 -0.00166209 -0.00127315 
187 4.57471e-05 -3.47283e-05 -4.72069e-05 0.91 0 0 0 0.00041879 -0.000404249 9.26014e-06 
322 6.7496e-05 2.52739e-06 -7.89898e-06 0.91 0 0 0 -0.00075466 -0.00267162 -0.00228199 
319 8.63012e-05 -1.75542e-05 -8.76657e-06 0.91 0 0 0 -0.0018679 -0.00151185 -0.00225197 
275 4.60211e-05 -3.68063e-05 -4.72126e-05 0.91 0 0 0 0.000426038 -0.000378737 9.30301e-06 
100 4.99221e-05 -3.89006e-05 -4.72065e-05 0.91 0 0 0 0.000367789 -0.000353159 9.19208e-06 
277 0.000100709 -3.689e-05 -4.72071e-05 0.91 0 0 0 -0.00282169 -0.000374945 7.48985e-06 
281 4.33478e-05 -3.90722e-05 -4.72157e-05 0.91 0 0 0 0.000244746 -0.000452842 9.40187e-06 
214 8.59947e-05 -5.58598e-05 -9.23817e-06 0.91 0 0 0 -0.00185808 0.000747598 -0.00223431 
284 4.78338e-05 -4.17088e-05 -4.7201e-05 0.91 0 0 0 0.00039334 -0.000419338 9.3031e-06 
276 4.29435e-05 -3.68193e-05 -4.72068e-05 0.91 0 0 0 0.000353069 -0.000378644 9.50779e-06 
99 5.231e-05 -3.9056e-05 -4.71987e-05 0.91 0 0 0 0.000544158 -0.000453849 9.41024e-06 
118 4.91432e-05 -3.94436e-05 -4.85221e-05 0.91 0 0 0 0.000567725 -0.000727072 -0.000163963 
127 4.91172e-05 -3.80949e-05 -4.97905e-05 0.91 0 0 0 0.000570828 -0.000554887 -0.000344278 
44 5.04935e-05 -3.5464e-05 -4.85524e-05 0.91 0 0 0 0.000738195 -0.000207387 -0.000161912 
53 4.91504e-05 -3.54687e-05 -4.98565e-05 0.91 0 0 0 0.000567361 -0.000204747 -0.000337164 
95 5.27146e-05 -3.68014e-05 -4.72168e-05 0.91 0 0 0 0.000432887 -0.000378676 9.17503e-06 
282 0.000175757 6.13686e-06 -4.71499e-05 0.91 0 0 0 -0.00498517 -0.00218663 5.66657e-06 
110 5.22994e-05 -3.68137e-05 -4.94605e-05 0.91 0 0 0 0.000546338 -0.000379082 -6.71902e-05 
289 8.99181e-05 8.78617e-05 -4.71975e-05 0.91 0 0 0 -0.00139509 -0.0056802 1.0278e-05 
31 5.00827e-05 -3.2317e-05 -4.72065e-05 0.91 0 0 0 0.000467648 -0.000230148 9.79117e-06 
41 4.91243e-05 -3.42243e-05 -4.85227e-05 0.91 0 0 0 0.000570158 -2.5956e-05 -0.000167396 
332 4.79994e-05 6.44585e-06 8.17313e-05 0.91 0 0 0 0.000384315 -0.00218958 -0.00539662 
167 4.78367e-05 -3.23363e-05 -4.4972e-05 0.91 0 0 0 0.000393168 -0.000224888 8.62958e-05 
308 4.76417e-05 9.20345e-05 -3.59824e-06 0.91 0 0 0 0.00039953 -0.00578049 -0.00181612 
241 4.55929e-05 -3.68231e-05 -4.27438e-05 0.91 0 0 0 0.000315249 -0.000378661 0.000164317 
302 0.000313765 5.3125e-05 4.2718e-05 0.91 0 0 0 -0.00684777 -0.00282481 -0.00243677 
333 0.000135967 5.14604e-05 0.000214885 0.91 0 0 0 -0.00203403 -0.00280648 -0.00722418 
309 0.000138053 0.000229561 4.27205e-05 0.91 0 0 0 -0.002056 -0.00762737 -0.00242909 
82 4.99185e-05 -3.6817e-05 -4.51131e-05 0.91 0 0 0 0.000367837 -0.000378601 -1.63773e-05 
256 4.5738e-05 -3.68117e-05 -4.51318e-05 0.91 0 0 0 0.000418805 -0.000378635 -1.62105e-05 
255 4.78389e-05 -3.68071e-05 -4.54031e-05 0.91 0 0 0 0.000393109 -0.000378736 -2.35652e-05 
172 4.55e-05 -3.44662e-05 -4.48772e-05 0.91 0 0 0 0.000402854 -0.000388425 -4.54958e-07 
81 5.23063e-05 -3.68012e-05 -4.49544e-05 0.91 0 0 0 0.0005445 -0.00037832 8.48719e-05 
171 4.78412e-05 -3.47185e-05 -4.51371e-05 0.91 0 0 0 0.000393104 -0.000404352 -1.62251e-05 
260 4.78379e-05 -3.89019e-05 -4.51234e-05 0.91 0 0 0 0.000393167 -0.000353102 -1.62975e-05 
257 4.33512e-05 -3.68083e-05 -4.49797e-05 0.91 0 0 0 0.000241412 -0.000378223 8.45862e-05 
86 5.01764e-05 -3.91585e-05 -4.48613e-05 0.91 0 0 0 0.000383894 -0.000369218 -2.66799e-07 
240 4.78285e-05 -3.68249e-05 -4.23247e-05 0.91 0 0 0 0.000393113 -0.00037866 4.84237e-05 
261 4.54892e-05 -3.91605e-05 -4.48743e-05 0.91 0 0 0 0.000402736 -0.000369006 -3.07369e-07 
329 9.01043e-05 -3.6648e-05 7.76669e-05 0.91 0 0 0 -0.00140202 -0.000383919 -0.00529638 
24 5.01633e-05 -3.4478e-05 -4.4888e-05 0.91 0 0 0 0.000383215 -0.000388751 -7.91913e-07 
297 0.00017343 -3.68534e-05 -4.98692e-06 0.91 0 0 0 -0.00492823 -0.000377539 -0.00178211 
225 8.97491e-05 -8.95062e-06 -0.0167172 0.91 0 0 0 -0.00483882 -0.00410671 3.04444 
135 4.16551e-06 -3.69149e-05 8.22791e-05 0.91 0 0 0 0.00221682 -0.000371731 -0.005409 
123 3.44167e-05 -3.68068e-05 -3.3831e-05 0.91 0 0 0 0.00166251 -0.000377212 -0.00125956 
94 -5.82456e-06 -3.68291e-05 -4.71353e-05 0.91 0 0 0 0.00363678 -0.000376875 5.64222e-06 
102 3.42643e-05 -2.33294e-05 -4.71878e-05 0.91 0 0 0 0.00167122 -0.00165136 9.07459e-06 
52 9.96517e-06 -5.56243e-05 -9.24453e-06 0.91 0 0 0 0.0026306 0.000737239 -0.002237 
106 5.31289e-06 8.8851e-05 -4.7001e-05 0.91 0 0 0 0.00219168 -0.0057035 3.11631e-06 
117 9.10708e-06 1.8495e-06 -2.79112e-05 0.91 0 0 0 0.00266298 -0.00264703 -0.0011226 
126 9.56188e-06 -1.77494e-05 -9.0077e-06 0.91 0 0 0 0.0026467 -0.00150212 -0.00224236 
130 2.89434e-05 1.08714e-06 -9.28831e-06 0.91 0 0 0 0.00150922 -0.00261961 -0.00223276 
209 6.6634e-05 -7.4381e-05 -9.67152e-06 0.91 0 0 0 -0.000722725 0.00185174 -0.00222021 
184 6.1234e-05 -5.01442e-05 -4.72395e-05 0.91 0 0 0 -0.000876534 0.000887093 9.28595e-06 
30 3.40573e-05 -5.06019e-05 -4.72433e-05 0.91 0 0 0 0.00167944 0.000911665 1.13531e-05 
50 2.83794e-05 -7.58856e-05 -8.11871e-06 0.91 0 0 0 0.00152968 0.00190656 -0.00227653 
40 1.01616e-05 -7.44352e-05 -2.84878e-05 0.91 0 0 0 0.00262535 0.0018543 -0.00110317 
198 8.59957e-05 -7.49313e-05 -2.8259e-05 0.91 0 0 0 -0.00185673 0.00187134 -0.00111265 
203 0.000310151 -0.000125593 4.16484e-05 0.91 0 0 0 -0.006828 0.00206088 -0.00243692 
221 0.000137978 -0.000127199 0.000220446 0.91 0 0 0 -0.00204434 0.00206835 -0.00725105 
208 4.78331e-05 -5.04927e-05 -3.35051e-05 0.91 0 0 0 0.000392678 0.000904922 -0.00127702 
220 4.7977e-05 -7.88122e-05 7.7696e-05 0.91 0 0 0 0.00038597 0.00140736 -0.00529875 
178 4.78563e-05 -9.09079e-05 -4.72645e-05 0.91 0 0 0 0.00039245 0.00288338 1.03281e-05 
189 0.000175438 -7.97651e-05 -4.71564e-05 0.91 0 0 0 -0.00497658 0.0014287 4.54676e-06 
20 4.91996e-05 -3.40805e-05 -4.58497e-05 0.91 0 0 0 0.00056194 -4.02823e-05 0.00017799 
154 4.78182e-05 -5.05619e-05 -6.0934e-05 0.91 0 0 0 0.000395881 0.000908534 0.00129347 
168 4.64961e-05 -3.41267e-05 -4.58777e-05 0.91 0 0 0 0.000221912 -3.55204e-05 0.000180316 
85 5.0426e-05 -3.81208e-05 -4.58985e-05 0.91 0 0 0 0.000744874 -0.000553823 0.000183922 
14 4.91573e-05 -3.5501e-05 -4.45808e-05 0.91 0 0 0 0.000567711 -0.00020529 0.000357606 
169 8.53702e-05 -7.43266e-05 -6.59618e-05 0.91 0 0 0 -0.00183337 0.00184881 0.00112183 
19 9.70098e-06 -7.48606e-05 -6.61429e-05 0.91 0 0 0 0.00264344 0.00186833 0.0011276 
73 4.91836e-05 -3.81749e-05 -4.45129e-05 0.91 0 0 0 0.000564155 -0.000549479 0.000350476 
323 0.000339414 0.000255245 0.000244787 0.91 0 0 0 -9.90669e-05 -0.000876218 -0.000490654 
23 5.04961e-05 -3.54705e-05 -4.58715e-05 0.91 0 0 0 0.000737777 -0.000206931 0.00018085 
69 3.46669e-05 -3.67984e-05 -6.03682e-05 0.91 0 0 0 0.0016507 -0.000380905 0.00126799 
248 4.78562e-05 -2.34019e-05 -6.06675e-05 0.91 0 0 0 0.000391304 -0.00164904 0.00128317 
70 5.0093e-05 -3.68143e-05 -4.27239e-05 0.91 0 0 0 0.000468034 -0.000378527 0.000157818 
88 1.01167e-05 7.69931e-07 -6.59451e-05 0.91 0 0 0 0.00262784 -0.00260823 0.00112335 
266 4.65229e-05 -3.94475e-05 -4.58922e-05 0.91 0 0 0 0.000219319 -0.000727736 0.000183084 
158 4.78421e-05 -3.45593e-05 -4.27197e-05 0.91 0 0 0 0.000393292 -0.000304668 0.000156809 
244 4.78289e-05 -3.9068e-05 -4.27324e-05 0.91 0 0 0 0.000392974 -0.000454943 0.000161604 
267 8.64124e-05 1.74892e-06 -6.64074e-05 0.91 0 0 0 -0.00187134 -0.00264596 0.00113831 
242 6.09061e-05 -3.68208e-05 -6.02563e-05 0.91 0 0 0 -0.000859507 -0.000379941 0.00126138 
173 4.5208e-05 -3.54946e-05 -4.58964e-05 0.91 0 0 0 4.50464e-05 -0.000205209 0.000183084 
159 4.65046e-05 -3.54784e-05 -4.45469e-05 0.91 0 0 0 0.000221023 -0.000206383 0.000353654 
109 -8.00634e-05 -3.67537e-05 -3.96773e-06 0.91 0 0 0 0.00576866 -0.000379338 -0.00180793 
120 -4.18088e-05 0.000227952 4.23466e-05 0.91 0 0 0 0.00283359 -0.00761769 -0.00242913 
33 -8.06722e-05 -8.03131e-05 -4.72449e-05 0.91 0 0 0 0.00578353 0.00144785 1.11666e-05 
43 -0.000218909 -0.000127179 4.23587e-05 0.91 0 0 0 0.00763839 0.00207496 -0.00241933 
57 -4.00769e-05 -0.00012482 0.000213847 0.91 0 0 0 0.00281703 0.00205541 -0.00721835 
113 -0.000212855 5.11448e-05 4.07039e-05 0.91 0 0 0 0.00760796 -0.00280727 -0.00241746 
137 -4.15761e-05 5.30605e-05 0.000218644 0.91 0 0 0 0.00282009 -0.00281922 -0.00723862 
179 9.06822e-05 -0.000163656 -4.74286e-05 0.91 0 0 0 -0.00141242 0.00497541 1.56035e-05 
28 4.83221e-06 -0.00016355 -4.71877e-05 0.91 0 0 0 0.00220713 0.00497222 6.33264e-06 
287 -1.41006e-05 -8.38994e-05 -4.69546e-05 0.91 0 0 0 0.0465438 0.0312908 2.165e-06 
38 -4.05111e-05 -0.000299406 4.09771e-05 0.91 0 0 0 0.00282031 0.00686 -0.00241814 
290 9.31185e-06 -8.39722e-05 -4.7181e-05 0.91 0 0 0 0.0315257 0.0449052 2.56725e-05 
194 0.000138385 -0.000304833 4.33063e-05 0.91 0 0 0 -0.0020492 0.00687879 -0.00243955 
25 -0.272608 -0.875362 0.000524661 0.91 0 0 0 4.48548 14.1619 -0.0094661 
335 4.81563e-05 -8.01405e-05 -0.000101987 0.91 0 0 0 0.000437821 0.0311222 0.0457158 
325 4.81566e-05 -9.88058e-05 -9.53774e-05 0.91 0 0 0 0.000332122 0.0457908 0.0317616 
165 0.000137342 -0.000301617 -0.000136867 0.91 0 0 0 -0.00204375 0.0068607 0.00245081 
17 -4.03405e-05 -0.000298832 -0.000136168 0.91 0 0 0 0.00281944 0.00684901 0.00245497 
164 4.78747e-05 -0.000165827 -9.07137e-05 0.91 0 0 0 0.000392851 0.00502824 0.00182943 
330 2.65964e-05 -3.70933e-05 -6.92197e-05 0.91 0 0 0 0.0304638 -0.000450082 0.0437842 
316 -8.61678e-05 -3.71837e-05 -0.000143375 0.91 0 0 0 0.0508135 -0.000318444 0.0346113 
22 -0.000213331 -0.000124636 -0.000135129 0.91 0 0 0 0.00761584 0.0020469 0.00243824 
148 4.76598e-05 -8.04872e-05 -0.000176329 0.91 0 0 0 0.000402376 0.0014482 0.00541744 
84 -0.000214956 5.21596e-05 -0.000136006 0.91 0 0 0 0.00761774 -0.00282074 0.00245006 
91 -4.21092e-05 0.000231195 -0.00013735 0.91 0 0 0 0.00282125 -0.00764301 0.00244952 
174 0.000304621 -0.000123204 -0.000133638 0.91 0 0 0 -0.00680259 0.00203667 0.0024249 
160 8.65485e-05 -5.61072e-05 -8.58478e-05 0.91 0 0 0 -0.00187648 0.000753513 0.002276 
11 2.86893e-05 -7.52371e-05 -8.56028e-05 0.91 0 0 0 0.00152106 0.00188205 0.00226772 
80 -7.88599e-05 -3.7016e-05 -8.97157e-05 0.91 0 0 0 0.00574183 -0.000369872 0.00180563 
155 6.69988e-05 -7.52689e-05 -8.57488e-05 0.91 0 0 0 -0.00073269 0.00188195 0.00227403 
246 8.6458e-05 -1.75349e-05 -8.57667e-05 0.91 0 0 0 -0.00187282 -0.00151427 0.00227357 
258 0.000173892 -3.69886e-05 -8.96075e-05 0.91 0 0 0 -0.00493902 -0.000373219 0.00180185 
233 4.79964e-05 6.22089e-06 -0.00017464 0.91 0 0 0 0.00038756 -0.00219334 0.00537748 
230 9.07735e-05 -3.67839e-05 -0.000174744 0.91 0 0 0 -0.00141181 -0.000382573 0.0053803 
63 5.67089e-06 -3.70517e-05 -0.000171693 0.91 0 0 0 0.00218627 -0.000370397 0.00530479 
76 2.89207e-05 1.22372e-06 -8.52163e-05 0.91 0 0 0 0.00151062 -0.00262696 0.00225558 
269 4.77034e-05 8.83397e-05 -8.9491e-05 0.91 0 0 0 0.000398177 -0.00569195 0.00180509 
129 -0.00024251 0.000254405 0.000244054 0.91 0 0 0 0.00105386 -0.00105289 -0.000662591 
105 7.98466e-05 -7.47448e-05 -4.7772e-05 0.91 0 0 0 -0.0303895 0.0443165 -6.64589e-06 
134 0.000131048 -3.73337e-05 -0.000158869 0.91 0 0 0 -0.0334092 -0.000328715 0.0491346 
217 4.83765e-05 5.96526e-06 -0.000101582 0.91 0 0 0 0.000312167 -0.0318608 0.0457193 
210 0.000337157 -0.0003269 0.000242929 0.91 0 0 0 -0.000550127 0.000578607 -0.000959988 
49 -0.000243724 -0.000328933 0.000244737 0.91 0 0 0 0.000873955 0.000126114 -0.000492486 
185 -1.50639e-06 1.76052e-06 -4.64797e-05 0.91 0 0 0 0.045808 -0.0315042 -5.36365e-06 
29 8.89409e-05 -3.97815e-06 -4.74314e-05 0.91 0 0 0 -0.044505 -0.0311806 -2.53221e-06 
6 -4.08588e-05 -0.000125933 -0.000310581 0.91 0 0 0 0.0028251 0.00206177 0.00724574 
149 0.000138904 -0.000127307 -0.000316588 0.91 0 0 0 -0.00205128 0.0020521 0.00727275 
336 -0.00183841 -0.00384812 -0.00556989 0.91 0 0 0 0.0783414 0.157196 0.229044 
307 -0.00645421 -0.00452887 -0.00227628 0.91 0 0 0 0.248641 0.170673 0.0849119 
10 -0.000242976 -0.000328148 -0.000337581 0.91 0 0 0 0.00112804 0.000359885 0.000750191 
334 -0.00431881 -0.00219594 -0.00636 0.91 0 0 0 0.169254 0.0830228 0.244841 
310 -0.00383211 -0.00565163 -0.00197011 0.91 0 0 0 0.159455 0.230497 0.0788477 
326 -0.00188405 -0.00567124 -0.00392877 0.91 0 0 0 0.0794443 0.231007 0.159003 
320 -0.00565452 -0.00198726 -0.00398296 0.91 0 0 0 0.233146 0.0789236 0.160296 
156 0.000339037 -0.000328695 -0.000338769 0.91 0 0 0 -0.000125103 0.000151009 0.000538598 
65 -3.97012e-05 5.02042e-05 -0.000306052 0.91 0 0 0 0.00282685 -0.00280101 0.0072241 
250 0.000336662 0.000253104 -0.000336426 0.91 0 0 0 -0.00062866 -0.00142639 0.00104457 
75 -0.000242676 0.000253131 -0.000338087 0.91 0 0 0 0.00121985 -0.00121456 0.00085227 
234 0.000137231 5.22916e-05 -0.000312964 0.91 0 0 0 -0.00203654 -0.00280898 0.00726262 
122 0.000135489 -3.71581e-05 -0.000112303 0.91 0 0 0 -0.0473186 -0.000357982 0.0327103 
132 0.00215366 -0.00618926 -0.00429293 0.91 0 0 0 -0.0820893 0.24143 0.166421 
116 0.0059545 -0.00411001 -0.00206282 0.91 0 0 0 -0.236585 0.162631 0.0805767 
125 0.00602531 -0.00207533 -0.00416766 0.91 0 0 0 -0.238009 0.0806877 0.163897 
136 0.00396422 -0.00198737 -0.00572841 0.91 0 0 0 -0.15928 0.0791369 0.232352 
119 0.00395446 -0.00569993 -0.00199506 0.91 0 0 0 -0.15914 0.23156 0.0794854 
139 0.00197332 -0.00389198 -0.00564053 0.91 0 0 0 -0.0786477 0.158045 0.230496 
101 0.000158487 -0.000117729 -4.7946e-05 0.91 0 0 0 -0.0486584 0.0333165 3.4672e-05 
27 0.000125197 6.66807e-05 -4.72158e-05 0.91 0 0 0 -0.033106 -0.0490208 4.97661e-05 
55 0.00201838 0.00395255 -0.00580949 0.91 0 0 0 -0.0792342 -0.16194 0.23394 
205 4.81227e-05 -8.90448e-06 -7.12737e-05 0.91 0 0 0 0.000360585 -0.0444923 0.0303148 
39 0.00553798 0.00375495 -0.00191885 0.91 0 0 0 -0.227841 -0.15764 0.0775394 
51 0.00584032 0.00193403 -0.00404554 0.91 0 0 0 -0.234227 -0.0799822 0.161528 
180 -5.31376e-05 0.000100869 -4.62189e-05 0.91 0 0 0 0.0352741 -0.051012 -6.79186e-05 
56 0.00447534 0.0021524 -0.00645678 0.91 0 0 0 -0.169443 -0.0843834 0.246652 
222 -0.00427747 0.00210822 -0.00630731 0.91 0 0 0 0.168422 -0.0837354 0.243881 
215 -0.00561004 0.00189123 -0.00394174 0.91 0 0 0 0.232358 -0.0792426 0.159323 
218 -0.00197907 0.00406744 -0.00598869 0.91 0 0 0 0.0812609 -0.164174 0.237706 
199 -0.00621764 0.004288 -0.00218727 0.91 0 0 0 0.244365 -0.168424 0.0831736 
145 4.72509e-05 5.52859e-05 7.83501e-05 0.91 0 0 0 0.000395011 -0.0347348 -0.0499213 
62 0.000124781 -3.66328e-05 5.65117e-05 0.91 0 0 0 -0.0330835 -0.000378927 -0.0486557 
170 -0.00633963 0.00436882 0.00213851 0.91 0 0 0 0.246649 -0.169852 -0.0839263 
68 8.81867e-05 -3.67673e-05 -1.49093e-05 0.91 0 0 0 -0.0444669 -0.000344284 -0.0307717 
18 0.00582569 0.00395115 0.00193271 0.91 0 0 0 -0.233893 -0.161679 -0.0800512 
236 4.74311e-05 -8.90313e-05 2.12014e-05 0.91 0 0 0 0.000340762 0.0316336 -0.0465526 
252 4.74182e-05 -8.308e-05 -9.9557e-06 0.91 0 0 0 0.000434991 0.0448015 -0.0311568 
231 7.56478e-06 -3.64877e-05 2.3288e-06 0.91 0 0 0 0.0315986 -0.00035443 -0.0454289 
243 5.62796e-06 -3.63935e-05 -1.33204e-05 0.91 0 0 0 0.0453043 -0.00048413 -0.0308994 
151 4.74811e-05 3.59114e-05 8.29652e-06 0.91 0 0 0 0.000352005 -0.0471791 -0.0322012 
90 0.00414359 -0.0059684 0.00198634 0.91 0 0 0 -0.163102 0.237035 -0.0811463 
268 -0.00587337 -0.00411658 0.00197093 0.91 0 0 0 0.237673 0.162689 -0.0806105 
271 -0.00410549 -0.00603571 0.00201618 0.91 0 0 0 0.165101 0.238244 -0.081808 
87 0.00609333 -0.0042152 0.00201147 0.91 0 0 0 -0.239295 0.16485 -0.0813914 
161 -0.00613267 0.00208123 0.00422174 0.91 0 0 0 0.242652 -0.0831702 -0.166879 
140 -0.286953 0.0014071 0.924121 0.91 0 0 0 4.40563 -0.020632 -13.9349 
339 4.11827e-05 -4.034e-05 0.0092522 0.91 0 0 0 0.000569254 0.00272763 -2.65826 
4 0.00213106 0.00417731 0.00605459 0.91 0 0 0 -0.0815779 -0.166248 -0.240812 
58 -0.586939 -0.589098 1.94406 0.91 0 0 0 0.981106 0.991907 -2.46837 
150 -0.0039409 0.00194577 0.00573293 0.91 0 0 0 0.161625 -0.0805007 -0.234362 
12 0.00616747 0.00204892 0.00418657 0.91 0 0 0 -0.240697 -0.0822864 -0.166381 
146 -0.00212925 0.00434327 0.00628722 0.91 0 0 0 0.0843346 -0.169459 -0.245135 
54 -0.93807 -0.94001 1.3853 0.91 0 0 0 2.53974 2.54824 -3.63251 
191 -0.000981327 -0.952772 0.297637 0.91 0 0 0 0.0155092 13.7596 -4.38228 
216 0.00179696 -1.8289 1.8291 0.91 0 0 0 0.0103321 -0.50844 0.486997 
36 -0.579109 -1.9214 0.579664 0.91 0 0 0 1.05646 2.70502 -1.04934 
5 0.0044036 0.00211492 0.00625174 0.91 0 0 0 -0.168258 -0.0836353 -0.244546 
108 -0.889313 -2.77543e-05 0.27829 0.91 0 0 0 14.0914 -0.000401316 -4.48479 
67 0.00199502 -0.00398545 0.00565625 0.91 0 0 0 -0.0788196 0.160283 -0.232721 
133 -1.83338 -0.000192777 1.82988 0.91 0 0 0 -0.523133 -0.00239277 0.498788 
46 -0.95575 -1.40758 0.951313 0.91 0 0 0 2.38719 3.38723 -2.37431 
42 -1.91401 -0.577188 0.579076 0.91 0 0 0 2.76682 1.07056 -1.06946 
223 0.000602784 -0.284982 0.916173 0.91 0 0 0 -0.010141 4.42474 -13.9758 
48 -1.39938 -0.944113 0.948544 0.91 0 0 0 3.48827 2.44387 -2.45194 
235 -0.00371566 -0.00189894 0.00540953 0.91 0 0 0 0.15686 0.0770356 -0.22762 
237 -0.00183672 -0.00383654 0.00545486 0.91 0 0 0 0.0783306 0.156987 -0.228527 
253 -0.00187436 -0.0056568 0.00382809 0.91 0 0 0 0.0791009 0.230693 -0.158911 
71 0.00609195 -0.00210565 0.00411922 0.91 0 0 0 -0.239321 0.081415 -0.164829 
78 0.00213369 -0.00612674 0.00416536 0.91 0 0 0 -0.0817411 0.240102 -0.165922 
247 -0.00599048 -0.00210689 0.0041102 0.91 0 0 0 0.239975 0.0815029 -0.164544 
64 0.00400877 -0.00200569 0.00569316 0.91 0 0 0 -0.160322 0.0794658 -0.233563 
83 -1.90954 0.576364 -0.57833 0.91 0 0 0 2.80949 -1.07949 1.08961 
60 -0.579953 0.585387 -1.93274 0.91 0 0 0 1.02053 -1.02869 2.59531 
227 0.000794653 0.281744 -0.90244 0.91 0 0 0 -0.00811889 -4.46068 14.036 
92 -0.578031 1.9165 -0.576862 0.91 0 0 0 1.06232 -2.76509 1.07117 
239 0.000270056 1.83706 -1.83586 0.91 0 0 0 0.00150494 0.503699 -0.511011 
37 0.00446936 0.00636675 -0.00224425 0.91 0 0 0 -0.169277 -0.246934 0.0843104 
47 0.00208033 0.00587224 -0.00412028 0.91 0 0 0 -0.0807588 -0.237449 0.16295 
66 -0.95097 0.950171 -1.40535 0.91 0 0 0 2.40714 -2.40571 3.43167 
77 -0.950292 1.40305 -0.948542 0.91 0 0 0 2.42113 -3.44767 2.42336 
74 -1.39481 0.942566 -0.942723 0.91 0 0 0 3.54509 -2.4833 2.489 
97 -0.911121 0.282573 0.000596129 0.91 0 0 0 14.001 -4.42157 -0.00766076 
292 5.16727e-05 0.00910742 -5.73168e-05 0.91 0 0 0 0.00146891 -2.64986 0.00315256 
195 -0.00393688 0.00573899 -0.00201183 0.91 0 0 0 0.161642 -0.23482 0.0795523 
272 -0.00115693 0.889098 -0.276994 0.91 0 0 0 0.0197925 -14.1041 4.46933 
104 -1.83368 1.83223 -0.0006021 0.91 0 0 0 -0.54091 0.529064 0.00520048 
107 -0.292199 0.93533 0.000731972 0.91 0 0 0 4.41235 -13.8627 -0.00938049 
206 -0.00183911 0.00546344 -0.0038389 0.91 0 0 0 0.0785743 -0.228973 0.157163 
16 0.00395123 0.005615 0.00189076 0.91 0 0 0 -0.159136 -0.232087 -0.0791757 
166 -0.00408579 0.00594362 0.00200331 0.91 0 0 0 0.164688 -0.238809 -0.0813808 
311 0.00026842 0.891246 0.27863 0.91 0 0 0 -0.00318515 -14.0867 -4.47712 
141 -0.576503 0.574626 1.91228 0.91 0 0 0 1.08395 -1.0786 -2.81943 
121 -0.578849 1.91838 0.581147 0.91 0 0 0 1.05394 -2.72827 -1.06164 
8 0.00190988 0.00541815 0.00371745 0.91 0 0 0 -0.0770155 -0.227952 -0.156583 
138 -0.964077 0.96396 1.42306 0.91 0 0 0 2.26881 -2.26942 -3.21949 
112 -1.91617 0.580865 0.577478 0.91 0 0 0 2.73952 -1.06674 -1.06034 
341 -0.000598049 0.286448 0.919077 0.91 0 0 0 0.00924625 -4.4259 -13.9557 
128 -1.38497 0.936833 0.937024 0.91 0 0 0 3.64448 -2.55414 -2.55668 
131 -0.946603 1.396 0.945734 0.91 0 0 0 2.46491 -3.50932 -2.46624 
338 0.00120419 1.82454 1.8242 0.91 0 0 0 0.00975773 0.470925 0.46562 
152 -0.00191814 0.00568357 0.00391255 0.91 0 0 0 0.0801815 -0.233435 -0.160812 
175 1.91641 -0.579031 -0.578454 0.91 0 0 0 -2.76352 1.06694 1.06315 
143 0.587722 -0.586764 -1.94477 0.91 0 0 0 -0.996107 1.00159 2.4841 
278 0.0146994 -3.56643e-05 -6.13566e-05 0.91 0 0 0 -2.94118 0.00327473 0.00147502 
163 0.579644 -1.92545 -0.581411 0.91 0 0 0 -1.04359 2.67153 1.05167 
177 0.284107 -0.914848 0.000577144 0.91 0 0 0 -4.42159 13.9808 -0.00747456 
147 0.959044 -0.956667 -1.41564 0.91 0 0 0 -2.34013 2.34094 3.32994 
259 0.891748 -0.000545026 -0.27922 0.91 0 0 0 -14.0858 0.00917274 4.48114 
232 1.82127 0.00227104 -1.82113 0.91 0 0 0 0.446089 0.0160578 -0.437606 
190 0.934822 -0.291473 -0.000287645 0.91 0 0 0 -13.8735 4.40441 0.00213536 
226 0.274566 0.00149983 -0.877389 0.91 0 0 0 -4.49961 -0.0223182 14.1482 
157 1.39189 -0.942035 -0.940279 0.91 0 0 0 -3.58319 2.5187 2.51261 
153 0.95199 -1.40795 -0.95192 0.91 0 0 0 -2.39526 3.4116 2.40018 
224 0.591514 -0.58481 1.94962 0.91 0 0 0 -0.979545 0.96431 -2.42999 
298 0.886124 0.000938496 0.277169 0.91 0 0 0 -14.1145 -0.0150815 -4.49025 
192 0.578214 -1.91263 0.579701 0.91 0 0 0 -1.06827 2.7744 -1.06823 
331 1.84029 0.000219703 1.84083 0.91 0 0 0 0.517057 -0.0073061 0.513731 
219 0.943639 -0.941953 1.39061 0.91 0 0 0 -2.50422 2.49369 -3.57533 
181 1.83113 -1.83321 0.00388149 0.91 0 0 0 0.517389 -0.522921 0.0175479 
211 1.37763 -0.932578 0.934294 0.91 0 0 0 -3.72207 2.5914 -2.60322 
204 1.94673 -0.585984 0.589014 0.91 0 0 0 -2.44715 0.966606 -0.980355 
340 0.271513 -0.000456937 0.873292 0.91 0 0 0 -4.48221 0.00911324 -14.1779 
207 0.943052 -1.39157 0.944944 0.91 0 0 0 -2.48543 3.54141 -2.49058 
254 0.943184 1.39264 -0.945066 0.91 0 0 0 -2.48324 -3.55609 2.48791 
238 0.953479 0.951449 -1.40822 0.91 0 0 0 -2.38221 -2.3865 3.39263 
291 1.83249 1.83276 -0.00102897 0.91 0 0 0 0.511813 0.510912 0.00602392 
228 0.578294 0.579107 -1.91453 0.91 0 0 0 -1.06856 -1.07416 2.78467 
283 0.948729 0.296015 -0.000610149 0.91 0 0 0 -13.7928 -4.38377 0.00637146 
293 0.297393 0.953357 5.45834e-05 0.91 0 0 0 -4.37495 -13.7629 0.000928217 
251 1.37235 0.930798 -0.931583 0.91 0 0 0 -3.76826 -2.63906 2.63089 
273 0.585331 1.94815 -0.592042 0.91 0 0 0 -0.968907 -2.42919 0.981266 
264 1.94891 0.590122 -0.59014 0.91 0 0 0 -2.4113 -0.971287 0.961033 
342 0.584515 0.586351 1.93754 0.91 0 0 0 -1.01166 -1.00234 -2.54786 
337 0.949591 0.950644 1.40076 0.91 0 0 0 -2.42985 -2.42229 -3.45695 
324 1.39362 0.945977 0.943219 0.91 0 0 0 -3.54481 -2.47965 -2.4772 
327 0.928231 1.37339 0.93211 0.91 0 0 0 -2.62947 -3.76864 -2.63549 
312 0.588006 1.94417 0.585704 0.91 0 0 0 -0.984263 -2.46475 -0.971496 
303 1.93766 0.58633 0.585859 0.91 0 0 0 -2.54041 -1.00058 -1.00276 
ITEM: TIMESTEP
960115
ITEM: NUMBER OF ATOMS
341
ITEM: BOX BOUNDS ss ss ss
-1.9360300446137211e+00 1.9495118901764781e+00
-1.9388440561347573e+00 1.9487524452880283e+00
-1.9453750558316978e+00 1.9502296762444777e+00
ITEM: ATOMS id x y z width_SPH x_COM y_COM z_COM vx vy vz 
2 -0.585102 -0.58607 -1.9354 0.91 0 0 0 1.00609 1.00857 2.55689 
3 -0.946574 -0.94751 -1.3961 0.91 0 0 0 2.45487 2.4538 3.50141 
13 8.21013e-06 -5.66006e-05 -8.68659e-05 0.91 0 0 0 0.00269525 0.000772111 0.00231444 
72 1.00024e-05 -1.80667e-05 -8.50059e-05 0.91 0 0 0 0.00263175 -0.00149081 0.00224853 
103 5.00785e-05 -4.13087e-05 -4.72109e-05 0.91 0 0 0 0.000466944 -0.000525779 9.01148e-06 
7 -0.940329 -1.38947 -0.939631 0.91 0 0 0 2.51796 3.59873 2.51356 
263 0.000317202 5.35874e-05 -0.000138382 0.91 0 0 0 -0.00686478 -0.00281423 0.00246031 
9 -1.37995 -0.939327 -0.934132 0.91 0 0 0 3.67045 2.5762 2.56355 
265 4.78274e-05 -4.12972e-05 -4.49719e-05 0.91 0 0 0 0.000393095 -0.000531846 8.5376e-05 
313 4.78366e-05 -3.68155e-05 -5.21076e-05 0.91 0 0 0 0.00039341 -0.000378826 -3.03712e-05 
270 0.00013509 0.000222807 -0.00013486 0.91 0 0 0 -0.00202589 -0.00760001 0.00244266 
296 4.33359e-05 -3.68205e-05 -4.94714e-05 0.91 0 0 0 0.000246743 -0.000378913 -6.33535e-05 
299 4.78243e-05 -3.88969e-05 -4.93002e-05 0.91 0 0 0 0.00039336 -0.000353116 3.49267e-05 
15 -0.584502 -1.93824 -0.585916 0.91 0 0 0 1.00083 2.53058 1.00153 
229 4.78681e-05 -3.68075e-05 -0.000102266 0.91 0 0 0 0.000392321 -0.000380951 0.00330594 
328 4.78188e-05 -3.6855e-05 5.95112e-06 0.91 0 0 0 0.000392741 -0.00037424 -0.00321818 
249 6.72432e-05 2.02914e-06 -8.59672e-05 0.91 0 0 0 -0.000743778 -0.00265662 0.00228073 
279 4.78273e-05 -3.86259e-05 -4.7213e-05 0.91 0 0 0 0.000393322 -0.000345797 9.31786e-06 
295 4.5732e-05 -3.68108e-05 -4.93139e-05 0.91 0 0 0 0.000418711 -0.000378659 3.49186e-05 
21 -1.93542 -0.586853 -0.584127 0.91 0 0 0 2.52974 1.00381 1.00104 
274 4.7832e-05 -3.68102e-05 -4.72089e-05 0.91 0 0 0 0.000393225 -0.000378672 9.2242e-06 
245 4.65342e-05 -3.81356e-05 -4.45934e-05 0.91 0 0 0 0.000218811 -0.000553145 0.000359522 
200 4.78221e-05 -3.47194e-05 -4.93163e-05 0.91 0 0 0 0.000393352 -0.000404166 3.50097e-05 
93 -0.0133754 -4.27032e-05 -3.30159e-05 0.91 0 0 0 2.87744 -0.000658153 0.000205952 
89 4.91412e-05 -3.94492e-05 -4.58787e-05 0.91 0 0 0 0.000566628 -0.000726995 0.000183254 
32 -0.952946 -0.298402 -0.000546349 0.91 0 0 0 13.7546 4.3897 0.0085621 
79 -0.929866 0.000284145 -0.288609 0.91 0 0 0 13.9015 -0.0062643 4.39598 
262 4.52402e-05 -3.81344e-05 -4.59057e-05 0.91 0 0 0 4.22941e-05 -0.000554112 0.000184432 
315 6.2038e-05 -3.68344e-05 -3.30533e-05 0.91 0 0 0 -0.000915292 -0.000376011 -0.00129763 
96 4.96478e-05 -3.68131e-05 -4.7207e-05 0.91 0 0 0 0.000360398 -0.000378633 9.20382e-06 
294 4.78276e-05 -3.68012e-05 -4.90146e-05 0.91 0 0 0 0.000393316 -0.000378843 4.21052e-05 
142 -0.000137078 -0.283026 -0.906703 0.91 0 0 0 0.00228183 4.45302 14.017 
193 4.79778e-05 -0.000160345 -5.74614e-06 0.91 0 0 0 0.00038745 0.00489581 -0.00176258 
183 4.55852e-05 -3.23117e-05 -4.72303e-05 0.91 0 0 0 0.000319642 -0.000231643 9.2774e-06 
98 -7.88059e-05 6.13121e-06 -4.70422e-05 0.91 0 0 0 0.00573753 -0.00219097 4.28351e-06 
111 4.99241e-05 -3.68069e-05 -4.9304e-05 0.91 0 0 0 0.000367767 -0.000378749 3.48774e-05 
196 4.78271e-05 -3.23213e-05 -4.94743e-05 0.91 0 0 0 0.000393083 -0.000228648 -6.55913e-05 
176 2.21959e-05 -0.0128526 -6.40671e-05 0.91 0 0 0 9.34478e-05 2.84489 0.00328472 
162 -0.000484359 -0.906524 -0.28154 0.91 0 0 0 0.00648747 14.0241 4.43307 
34 5.23133e-05 -3.45582e-05 -4.7215e-05 0.91 0 0 0 0.000543315 -0.000303887 9.23473e-06 
61 -1.83521 -0.00040281 -1.83177 0.91 0 0 0 -0.536743 -0.00931895 -0.517678 
59 -0.297859 0.000548109 -0.952659 0.91 0 0 0 4.38884 -0.0100274 13.7619 
144 -0.00197046 -1.82699 -1.82387 0.91 0 0 0 -0.02409 -0.457114 -0.442288 
202 4.52218e-05 -3.54861e-05 -4.85407e-05 0.91 0 0 0 4.39313e-05 -0.000203349 -0.00016423 
304 4.78292e-05 -4.12987e-05 -4.94692e-05 0.91 0 0 0 0.000393443 -0.000527313 -6.52894e-05 
317 4.78209e-05 -3.90534e-05 -5.16953e-05 0.91 0 0 0 0.000393241 -0.000454895 -0.000142932 
305 4.65154e-05 -3.94456e-05 -4.85281e-05 0.91 0 0 0 0.000219753 -0.000727663 -0.000164155 
300 4.54912e-05 -3.91549e-05 -4.95474e-05 0.91 0 0 0 0.000402962 -0.000368895 1.91186e-05 
285 4.55917e-05 -4.13047e-05 -4.72166e-05 0.91 0 0 0 0.000318317 -0.000528963 9.10708e-06 
301 4.51779e-05 -3.81478e-05 -4.85496e-05 0.91 0 0 0 4.71938e-05 -0.000550977 -0.000162396 
318 4.6538e-05 -3.81032e-05 -4.97928e-05 0.91 0 0 0 0.000216746 -0.000555769 -0.000344422 
201 4.54932e-05 -3.44711e-05 -4.95454e-05 0.91 0 0 0 0.000403061 -0.000388582 1.93306e-05 
188 4.33532e-05 -3.45543e-05 -4.72287e-05 0.91 0 0 0 0.000243715 -0.000303739 9.2964e-06 
186 4.78342e-05 -3.50089e-05 -4.72188e-05 0.91 0 0 0 0.000393176 -0.000411422 9.43173e-06 
213 4.64831e-05 -3.54575e-05 -4.9917e-05 0.91 0 0 0 0.000222321 -0.000208314 -0.000332798 
314 4.55858e-05 -3.68087e-05 -5.16928e-05 0.91 0 0 0 0.000316083 -0.000378782 -0.000144602 
114 5.04135e-05 -3.81053e-05 -4.8511e-05 0.91 0 0 0 0.000745863 -0.000553892 -0.000166593 
280 4.57355e-05 -3.88928e-05 -4.72195e-05 0.91 0 0 0 0.000418835 -0.000353177 9.41282e-06 
212 4.78184e-05 -3.45655e-05 -5.17095e-05 0.91 0 0 0 0.000392999 -0.000303724 -0.000141428 
35 4.99144e-05 -3.47283e-05 -4.7218e-05 0.91 0 0 0 0.000367674 -0.000404292 9.38728e-06 
182 4.78316e-05 -3.19068e-05 -4.72198e-05 0.91 0 0 0 0.000393167 -0.000337307 9.43482e-06 
45 5.01536e-05 -3.44833e-05 -4.95347e-05 0.91 0 0 0 0.00038304 -0.000389051 1.96764e-05 
197 4.64815e-05 -3.41015e-05 -4.85811e-05 0.91 0 0 0 0.00022294 -3.75528e-05 -0.00016005 
124 5.00688e-05 -3.68003e-05 -5.16945e-05 0.91 0 0 0 0.000469907 -0.000378681 -0.000143437 
115 5.01647e-05 -3.91358e-05 -4.9556e-05 0.91 0 0 0 0.000383511 -0.000368876 1.92272e-05 
26 -1.83625 -1.8397 -0.000739431 0.91 0 0 0 -0.545406 -0.541417 -0.00819116 
288 4.7774e-05 1.55528e-05 -4.71866e-05 0.91 0 0 0 0.000395933 -0.00357682 9.50287e-06 
306 8.51042e-05 3.63014e-07 -2.87145e-05 0.91 0 0 0 -0.00182616 -0.00259393 -0.00109364 
286 6.17032e-05 -2.29495e-05 -4.72052e-05 0.91 0 0 0 -0.000898181 -0.00167209 8.74547e-06 
321 4.77797e-05 -2.313e-05 -3.35398e-05 0.91 0 0 0 0.000396533 -0.00166206 -0.0012731 
187 4.57473e-05 -3.47285e-05 -4.72069e-05 0.91 0 0 0 0.000418774 -0.00040424 9.27934e-06 
322 6.74956e-05 2.52605e-06 -7.90012e-06 0.91 0 0 0 -0.000754659 -0.00267157 -0.00228193 
319 8.63003e-05 -1.75549e-05 -8.76769e-06 0.91 0 0 0 -0.00186788 -0.00151183 -0.00225191 
275 4.60214e-05 -3.68065e-05 -4.72126e-05 0.91 0 0 0 0.000426021 -0.000378727 9.3222e-06 
100 4.99223e-05 -3.89007e-05 -4.72065e-05 0.91 0 0 0 0.000367771 -0.000353148 9.21127e-06 
277 0.000100708 -3.68902e-05 -4.72071e-05 0.91 0 0 0 -0.00282166 -0.000374935 7.50909e-06 
281 4.33479e-05 -3.90724e-05 -4.72157e-05 0.91 0 0 0 0.000244738 -0.000452828 9.42107e-06 
214 8.59938e-05 -5.58594e-05 -9.23929e-06 0.91 0 0 0 -0.00185806 0.000747591 -0.00223426 
284 4.7834e-05 -4.1709e-05 -4.72009e-05 0.91 0 0 0 0.000393324 -0.000419322 9.32229e-06 
276 4.29437e-05 -3.68195e-05 -4.72068e-05 0.91 0 0 0 0.000353058 -0.000378634 9.52698e-06 
99 5.23103e-05 -3.90562e-05 -4.71987e-05 0.91 0 0 0 0.000544133 -0.000453835 9.42942e-06 
118 4.91435e-05 -3.9444e-05 -4.85222e-05 0.91 0 0 0 0.000567702 -0.000727049 -0.000163938 
127 4.91175e-05 -3.80952e-05 -4.97906e-05 0.91 0 0 0 0.000570805 -0.00055487 -0.000344247 
44 5.04939e-05 -3.54641e-05 -4.85524e-05 0.91 0 0 0 0.000738166 -0.000207383 -0.000161887 
53 4.91507e-05 -3.54688e-05 -4.98567e-05 0.91 0 0 0 0.000567338 -0.000204743 -0.000337133 
95 5.27148e-05 -3.68016e-05 -4.72167e-05 0.91 0 0 0 0.000432865 -0.000378666 9.19423e-06 
282 0.000175754 6.13576e-06 -4.71499e-05 0.91 0 0 0 -0.00498513 -0.0021866 5.68582e-06 
110 5.22997e-05 -3.68139e-05 -4.94605e-05 0.91 0 0 0 0.000546314 -0.000379071 -6.7167e-05 
289 8.99174e-05 8.78589e-05 -4.71975e-05 0.91 0 0 0 -0.00139509 -0.00568014 1.02972e-05 
31 5.0083e-05 -3.23171e-05 -4.72065e-05 0.91 0 0 0 0.000467627 -0.000230146 9.81035e-06 
41 4.91245e-05 -3.42243e-05 -4.85228e-05 0.91 0 0 0 0.000570135 -2.59581e-05 -0.000167371 
332 4.79996e-05 6.44475e-06 8.17286e-05 0.91 0 0 0 0.000384298 -0.00218955 -0.00539655 
167 4.78368e-05 -3.23364e-05 -4.4972e-05 0.91 0 0 0 0.000393152 -0.000224886 8.6311e-05 
308 4.76419e-05 9.20316e-05 -3.59915e-06 0.91 0 0 0 0.000399513 -0.00578043 -0.00181608 
241 4.55931e-05 -3.68233e-05 -4.27437e-05 0.91 0 0 0 0.000315236 -0.000378651 0.000164328 
302 0.000313762 5.31235e-05 4.27167e-05 0.91 0 0 0 -0.00684779 -0.00282481 -0.00243676 
333 0.000135966 5.1459e-05 0.000214881 0.91 0 0 0 -0.00203405 -0.00280647 -0.00722416 
309 0.000138052 0.000229557 4.27193e-05 0.91 0 0 0 -0.00205602 -0.00762737 -0.00242907 
82 4.99186e-05 -3.68172e-05 -4.51131e-05 0.91 0 0 0 0.00036782 -0.00037859 -1.6359e-05 
256 4.57382e-05 -3.68119e-05 -4.51318e-05 0.91 0 0 0 0.000418789 -0.000378625 -1.61923e-05 
255 4.78391e-05 -3.68073e-05 -4.54032e-05 0.91 0 0 0 0.000393093 -0.000378725 -2.35465e-05 
172 4.55002e-05 -3.44664e-05 -4.48772e-05 0.91 0 0 0 0.000402839 -0.000388416 -4.37369e-07 
81 5.23065e-05 -3.68014e-05 -4.49544e-05 0.91 0 0 0 0.000544476 -0.000378309 8.48871e-05 
171 4.78414e-05 -3.47187e-05 -4.51371e-05 0.91 0 0 0 0.000393087 -0.000404343 -1.62069e-05 
260 4.78381e-05 -3.89021e-05 -4.51234e-05 0.91 0 0 0 0.00039315 -0.000353091 -1.62793e-05 
257 4.33513e-05 -3.68084e-05 -4.49796e-05 0.91 0 0 0 0.000241403 -0.000378212 8.46014e-05 
86 5.01766e-05 -3.91587e-05 -4.48613e-05 0.91 0 0 0 0.000383876 -0.000369206 -2.49228e-07 
240 4.78287e-05 -3.68251e-05 -4.23247e-05 0.91 0 0 0 0.000393096 -0.000378649 4.84378e-05 
261 4.54894e-05 -3.91607e-05 -4.48743e-05 0.91 0 0 0 0.000402721 -0.000368995 -2.89787e-07 
329 9.01036e-05 -3.66482e-05 7.76643e-05 0.91 0 0 0 -0.00140202 -0.000383909 -0.00529631 
24 5.01635e-05 -3.44782e-05 -4.4888e-05 0.91 0 0 0 0.000383197 -0.000388743 -7.74306e-07 
297 0.000173427 -3.68536e-05 -4.98781e-06 0.91 0 0 0 -0.00492819 -0.000377529 -0.00178207 
225 8.97467e-05 -8.95267e-06 -0.0167157 0.91 0 0 0 -0.00483872 -0.00410661 3.04436 
135 4.16662e-06 -3.69151e-05 8.22764e-05 0.91 0 0 0 0.00221679 -0.000371721 -0.00540893 
123 3.44175e-05 -3.6807e-05 -3.38317e-05 0.91 0 0 0 0.00166247 -0.000377201 -0.00125951 
94 -5.82274e-06 -3.68293e-05 -4.71353e-05 0.91 0 0 0 0.00363671 -0.000376865 5.66146e-06 
102 3.42652e-05 -2.33303e-05 -4.71877e-05 0.91 0 0 0 0.00167118 -0.00165133 9.09377e-06 
52 9.96649e-06 -5.56239e-05 -9.24565e-06 0.91 0 0 0 0.00263055 0.000737232 -0.00223695 
106 5.31398e-06 8.88481e-05 -4.7001e-05 0.91 0 0 0 0.00219164 -0.00570343 3.13552e-06 
117 9.10841e-06 1.84817e-06 -2.79117e-05 0.91 0 0 0 0.00266293 -0.00264699 -0.00112257 
126 9.56321e-06 -1.77502e-05 -9.00882e-06 0.91 0 0 0 0.00264664 -0.00150209 -0.00224231 
130 2.89441e-05 1.08583e-06 -9.28943e-06 0.91 0 0 0 0.00150919 -0.00261956 -0.0022327 
209 6.66336e-05 -7.438e-05 -9.67263e-06 0.91 0 0 0 -0.000722725 0.00185171 -0.00222016 
184 6.12336e-05 -5.01438e-05 -4.72395e-05 0.91 0 0 0 -0.000876525 0.000887078 9.30517e-06 
30 3.40582e-05 -5.06015e-05 -4.72433e-05 0.91 0 0 0 0.0016794 0.000911649 1.13723e-05 
50 2.83802e-05 -7.58846e-05 -8.11985e-06 0.91 0 0 0 0.00152964 0.00190653 -0.00227648 
40 1.01629e-05 -7.44343e-05 -2.84883e-05 0.91 0 0 0 0.0026253 0.00185428 -0.00110313 
198 8.59948e-05 -7.49304e-05 -2.82596e-05 0.91 0 0 0 -0.00185671 0.00187131 -0.00111261 
203 0.000310148 -0.000125592 4.16471e-05 0.91 0 0 0 -0.00682802 0.00206089 -0.0024369 
221 0.000137976 -0.000127198 0.000220442 0.91 0 0 0 -0.00204436 0.00206837 -0.00725104 
208 4.78333e-05 -5.04922e-05 -3.35057e-05 0.91 0 0 0 0.000392661 0.000904906 -0.00127698 
220 4.79772e-05 -7.88115e-05 7.76934e-05 0.91 0 0 0 0.000385953 0.00140735 -0.00529868 
178 4.78565e-05 -9.09064e-05 -4.72645e-05 0.91 0 0 0 0.000392433 0.00288334 1.03473e-05 
189 0.000175436 -7.97643e-05 -4.71563e-05 0.91 0 0 0 -0.00497655 0.00142869 4.56605e-06 
20 4.91998e-05 -3.40806e-05 -4.58496e-05 0.91 0 0 0 0.000561917 -4.02841e-05 0.000178003 
154 4.78184e-05 -5.05614e-05 -6.09334e-05 0.91 0 0 0 0.000395864 0.000908518 0.00129346 
168 4.64962e-05 -3.41267e-05 -4.58776e-05 0.91 0 0 0 0.000221901 -3.55223e-05 0.000180329 
85 5.04264e-05 -3.81211e-05 -4.58984e-05 0.91 0 0 0 0.000744845 -0.000553807 0.000183935 
14 4.91575e-05 -3.55011e-05 -4.45806e-05 0.91 0 0 0 0.000567688 -0.000205286 0.000357613 
169 8.53693e-05 -7.43257e-05 -6.59612e-05 0.91 0 0 0 -0.00183335 0.00184879 0.00112183 
19 9.70231e-06 -7.48597e-05 -6.61423e-05 0.91 0 0 0 0.00264338 0.0018683 0.0011276 
73 4.91839e-05 -3.81751e-05 -4.45127e-05 0.91 0 0 0 0.000564132 -0.000549463 0.000350483 
323 0.000339414 0.000255245 0.000244787 0.91 0 0 0 -9.93056e-05 -0.00087643 -0.000490857 
23 5.04965e-05 -3.54706e-05 -4.58714e-05 0.91 0 0 0 0.000737748 -0.000206927 0.000180863 
69 3.46678e-05 -3.67986e-05 -6.03675e-05 0.91 0 0 0 0.00165066 -0.000380894 0.00126798 
248 4.78564e-05 -2.34028e-05 -6.06669e-05 0.91 0 0 0 0.000391288 -0.00164901 0.00128317 
70 5.00933e-05 -3.68145e-05 -4.27238e-05 0.91 0 0 0 0.000468013 -0.000378517 0.000157829 
88 1.0118e-05 7.68627e-07 -6.59446e-05 0.91 0 0 0 0.00262778 -0.00260818 0.00112335 
266 4.6523e-05 -3.94478e-05 -4.58921e-05 0.91 0 0 0 0.000219308 -0.000727714 0.000183097 
158 4.78423e-05 -3.45594e-05 -4.27197e-05 0.91 0 0 0 0.000393275 -0.000304661 0.00015682 
244 4.78291e-05 -3.90683e-05 -4.27323e-05 0.91 0 0 0 0.000392957 -0.000454929 0.000161615 
267 8.64115e-05 1.7476e-06 -6.64068e-05 0.91 0 0 0 -0.00187133 -0.00264591 0.00113832 
242 6.09057e-05 -3.6821e-05 -6.02557e-05 0.91 0 0 0 -0.000859498 -0.000379931 0.00126138 
173 4.5208e-05 -3.54947e-05 -4.58963e-05 0.91 0 0 0 4.50419e-05 -0.000205205 0.000183097 
159 4.65047e-05 -3.54785e-05 -4.45467e-05 0.91 0 0 0 0.000221012 -0.000206379 0.000353661 
109 -8.00606e-05 -3.67539e-05 -3.96863e-06 0.91 0 0 0 0.00576859 -0.000379328 -0.0018079 
120 -4.18074e-05 0.000227949 4.23454e-05 0.91 0 0 0 0.00283358 -0.00761768 -0.00242911 
33 -8.06693e-05 -8.03124e-05 -4.72449e-05 0.91 0 0 0 0.00578346 0.00144784 1.11858e-05 
43 -0.000218905 -0.000127178 4.23575e-05 0.91 0 0 0 0.00763838 0.00207497 -0.00241931 
57 -4.00755e-05 -0.000124819 0.000213844 0.91 0 0 0 0.00281701 0.00205542 -0.00721833 
113 -0.000212852 5.11434e-05 4.07027e-05 0.91 0 0 0 0.00760794 -0.00280727 -0.00241744 
137 -4.15746e-05 5.30591e-05 0.00021864 0.91 0 0 0 0.00282008 -0.00281922 -0.00723861 
179 9.06815e-05 -0.000163654 -4.74286e-05 0.91 0 0 0 -0.00141242 0.00497536 1.56227e-05 
28 4.83331e-06 -0.000163547 -4.71877e-05 0.91 0 0 0 0.0022071 0.00497217 6.3519e-06 
287 -1.40773e-05 -8.38838e-05 -4.69546e-05 0.91 0 0 0 0.0465425 0.0312899 2.1842e-06 
38 -4.05097e-05 -0.000299402 4.09759e-05 0.91 0 0 0 0.00282029 0.00686001 -0.00241812 
290 9.32761e-06 -8.39497e-05 -4.7181e-05 0.91 0 0 0 0.0315249 0.0449039 2.56912e-05 
194 0.000138384 -0.000304829 4.33051e-05 0.91 0 0 0 -0.00204922 0.00687881 -0.00243953 
25 -0.272606 -0.875355 0.000524657 0.91 0 0 0 4.48549 14.162 -0.0094661 
335 4.81565e-05 -8.0125e-05 -0.000101964 0.91 0 0 0 0.000437802 0.0311213 0.0457145 
325 4.81568e-05 -9.87829e-05 -9.53616e-05 0.91 0 0 0 0.000332106 0.0457895 0.0317607 
165 0.000137341 -0.000301614 -0.000136865 0.91 0 0 0 -0.00204377 0.00686071 0.00245083 
17 -4.0339e-05 -0.000298829 -0.000136167 0.91 0 0 0 0.00281943 0.00684902 0.00245499 
164 4.78748e-05 -0.000165825 -9.07128e-05 0.91 0 0 0 0.000392834 0.0050282 0.00182943 
330 2.66117e-05 -3.70935e-05 -6.91978e-05 0.91 0 0 0 0.0304629 -0.000450069 0.0437829 
316 -8.61424e-05 -3.71838e-05 -0.000143358 0.91 0 0 0 0.0508121 -0.000318435 0.0346104 
22 -0.000213327 -0.000124635 -0.000135128 0.91 0 0 0 0.00761582 0.00204691 0.00243826 
148 4.766e-05 -8.04865e-05 -0.000176326 0.91 0 0 0 0.000402359 0.00144819 0.0054174 
84 -0.000214952 5.21582e-05 -0.000136005 0.91 0 0 0 0.00761772 -0.00282073 0.00245008 
91 -4.21078e-05 0.000231191 -0.000137349 0.91 0 0 0 0.00282124 -0.00764301 0.00244954 
174 0.000304618 -0.000123203 -0.000133637 0.91 0 0 0 -0.00680261 0.00203668 0.00242491 
160 8.65476e-05 -5.61068e-05 -8.58466e-05 0.91 0 0 0 -0.00187647 0.000753506 0.00227599 
11 2.86901e-05 -7.52361e-05 -8.56017e-05 0.91 0 0 0 0.00152102 0.00188203 0.0022677 
80 -7.88571e-05 -3.70162e-05 -8.97148e-05 0.91 0 0 0 0.00574176 -0.000369862 0.00180563 
155 6.69984e-05 -7.52679e-05 -8.57477e-05 0.91 0 0 0 -0.00073269 0.00188192 0.00227401 
246 8.64571e-05 -1.75357e-05 -8.57656e-05 0.91 0 0 0 -0.0018728 -0.00151424 0.00227355 
258 0.000173889 -3.69888e-05 -8.96066e-05 0.91 0 0 0 -0.00493898 -0.000373209 0.00180185 
233 4.79966e-05 6.2198e-06 -0.000174637 0.91 0 0 0 0.000387543 -0.00219331 0.00537745 
230 9.07728e-05 -3.67841e-05 -0.000174742 0.91 0 0 0 -0.00141181 -0.000382563 0.00538027 
63 5.67198e-06 -3.70519e-05 -0.00017169 0.91 0 0 0 0.00218623 -0.000370387 0.00530475 
76 2.89214e-05 1.22241e-06 -8.52152e-05 0.91 0 0 0 0.00151058 -0.00262691 0.00225557 
269 4.77036e-05 8.83369e-05 -8.94901e-05 0.91 0 0 0 0.00039816 -0.00569188 0.00180509 
129 -0.000242509 0.000254405 0.000244054 0.91 0 0 0 0.00105406 -0.0010531 -0.000662789 
105 7.98314e-05 -7.47226e-05 -4.77721e-05 0.91 0 0 0 -0.0303886 0.0443152 -6.62578e-06 
134 0.000131032 -3.73339e-05 -0.000158844 0.91 0 0 0 -0.0334083 -0.000328706 0.0491332 
217 4.83767e-05 5.94933e-06 -0.000101559 0.91 0 0 0 0.000312152 -0.0318599 0.045718 
210 0.000337157 -0.0003269 0.000242929 0.91 0 0 0 -0.000550351 0.000578825 -0.000960176 
49 -0.000243724 -0.000328933 0.000244736 0.91 0 0 0 0.00087416 0.000126346 -0.000492689 
185 -1.48349e-06 1.74477e-06 -4.64797e-05 0.91 0 0 0 0.0458067 -0.0315033 -5.34462e-06 
29 8.89187e-05 -3.99374e-06 -4.74314e-05 0.91 0 0 0 -0.0445037 -0.0311798 -2.51249e-06 
6 -4.08574e-05 -0.000125932 -0.000310578 0.91 0 0 0 0.00282508 0.00206178 0.00724577 
149 0.000138903 -0.000127306 -0.000316585 0.91 0 0 0 -0.0020513 0.00205212 0.00727277 
336 -0.00183837 -0.00384804 -0.00556978 0.91 0 0 0 0.0783406 0.157195 0.229042 
307 -0.00645409 -0.00452879 -0.00227623 0.91 0 0 0 0.248639 0.170671 0.0849113 
10 -0.000242976 -0.000328148 -0.000337581 0.91 0 0 0 0.00112823 0.00036011 0.000750424 
334 -0.00431872 -0.00219589 -0.00635988 0.91 0 0 0 0.169253 0.0830222 0.244839 
310 -0.00383203 -0.00565152 -0.00197008 0.91 0 0 0 0.159453 0.230495 0.078847 
326 -0.00188401 -0.00567112 -0.00392869 0.91 0 0 0 0.0794435 0.231005 0.159001 
320 -0.0056544 -0.00198722 -0.00398288 0.91 0 0 0 0.233144 0.0789229 0.160295 
156 0.000339037 -0.000328695 -0.000338768 0.91 0 0 0 -0.000125341 0.00015124 0.000538838 
65 -3.96997e-05 5.02028e-05 -0.000306048 0.91 0 0 0 0.00282683 -0.002801 0.00722412 
250 0.000336661 0.000253103 -0.000336425 0.91 0 0 0 -0.000628881 -0.00142658 0.00104479 
75 -0.000242675 0.00025313 -0.000338087 0.91 0 0 0 0.00122005 -0.00121476 0.0008525 
234 0.00013723 5.22902e-05 -0.00031296 0.91 0 0 0 -0.00203656 -0.00280897 0.00726264 
122 0.000135465 -3.71582e-05 -0.000112287 0.91 0 0 0 -0.0473173 -0.000357972 0.0327094 
132 0.00215362 -0.00618914 -0.00429285 0.91 0 0 0 -0.0820886 0.241428 0.166419 
116 0.00595438 -0.00410993 -0.00206278 0.91 0 0 0 -0.236583 0.16263 0.080576 
125 0.00602519 -0.00207529 -0.00416757 0.91 0 0 0 -0.238007 0.080687 0.163896 
136 0.00396414 -0.00198733 -0.0057283 0.91 0 0 0 -0.159279 0.0791362 0.23235 
119 0.00395438 -0.00569981 -0.00199502 0.91 0 0 0 -0.159139 0.231558 0.0794847 
139 0.00197329 -0.0038919 -0.00564041 0.91 0 0 0 -0.078647 0.158044 0.230494 
101 0.000158463 -0.000117713 -4.7946e-05 0.91 0 0 0 -0.0486571 0.0333156 3.46911e-05 
27 0.00012518 6.66562e-05 -4.72158e-05 0.91 0 0 0 -0.0331051 -0.0490195 4.97841e-05 
55 0.00201834 0.00395247 -0.00580937 0.91 0 0 0 -0.0792335 -0.161939 0.233938 
205 4.81229e-05 -8.92673e-06 -7.12585e-05 0.91 0 0 0 0.000360569 -0.0444911 0.0303139 
39 0.00553786 0.00375487 -0.00191881 0.91 0 0 0 -0.227839 -0.157639 0.0775387 
51 0.0058402 0.00193399 -0.00404545 0.91 0 0 0 -0.234225 -0.0799814 0.161526 
180 -5.31199e-05 0.000100844 -4.62189e-05 0.91 0 0 0 0.0352731 -0.0510106 -6.78979e-05 
56 0.00447526 0.00215236 -0.00645666 0.91 0 0 0 -0.169442 -0.0843827 0.24665 
222 -0.00427739 0.00210818 -0.00630719 0.91 0 0 0 0.16842 -0.0837347 0.243879 
215 -0.00560993 0.00189119 -0.00394166 0.91 0 0 0 0.232356 -0.0792418 0.159322 
218 -0.00197902 0.00406735 -0.00598857 0.91 0 0 0 0.0812602 -0.164173 0.237704 
199 -0.00621752 0.00428791 -0.00218723 0.91 0 0 0 0.244363 -0.168423 0.0831729 
145 4.72511e-05 5.52686e-05 7.83251e-05 0.91 0 0 0 0.000394994 -0.0347339 -0.0499199 
62 0.000124764 -3.6633e-05 5.64873e-05 0.91 0 0 0 -0.0330826 -0.000378917 -0.0486544 
170 -0.00633951 0.00436873 0.00213847 0.91 0 0 0 0.246647 -0.169851 -0.0839256 
68 8.81645e-05 -3.67675e-05 -1.49247e-05 0.91 0 0 0 -0.0444656 -0.000344275 -0.0307709 
18 0.00582558 0.00395107 0.00193267 0.91 0 0 0 -0.233891 -0.161678 -0.0800504 
236 4.74313e-05 -8.90155e-05 2.11781e-05 0.91 0 0 0 0.000340747 0.0316328 -0.0465513 
252 4.74184e-05 -8.30576e-05 -9.97128e-06 0.91 0 0 0 0.000434974 0.0448002 -0.0311559 
231 7.58058e-06 -3.64878e-05 2.30608e-06 0.91 0 0 0 0.0315977 -0.000354421 -0.0454276 
243 5.65061e-06 -3.63938e-05 -1.33358e-05 0.91 0 0 0 0.045303 -0.000484117 -0.0308985 
151 4.74812e-05 3.58878e-05 8.28041e-06 0.91 0 0 0 0.00035199 -0.0471778 -0.0322003 
90 0.00414351 -0.00596828 0.0019863 0.91 0 0 0 -0.163101 0.237033 -0.0811456 
268 -0.00587325 -0.00411649 0.00197089 0.91 0 0 0 0.237671 0.162688 -0.0806098 
271 -0.0041054 -0.00603559 0.00201614 0.91 0 0 0 0.1651 0.238242 -0.0818072 
87 0.00609321 -0.00421512 0.00201143 0.91 0 0 0 -0.239292 0.164849 -0.0813907 
161 -0.00613255 0.00208119 0.00422166 0.91 0 0 0 0.24265 -0.0831695 -0.166878 
140 -0.28695 0.00140709 0.924114 0.91 0 0 0 4.40564 -0.0206321 -13.9349 
339 4.1183e-05 -4.03386e-05 0.00925087 0.91 0 0 0 0.000569237 0.00272755 -2.65819 
4 0.00213102 0.00417723 0.00605447 0.91 0 0 0 -0.0815772 -0.166247 -0.24081 
58 -0.586938 -0.589098 1.94406 0.91 0 0 0 0.98111 0.99191 -2.46838 
150 -0.00394081 0.00194573 0.00573281 0.91 0 0 0 0.161623 -0.0804999 -0.234359 
12 0.00616735 0.00204888 0.00418649 0.91 0 0 0 -0.240695 -0.0822857 -0.166379 
146 -0.00212921 0.00434318 0.0062871 0.91 0 0 0 0.0843339 -0.169457 -0.245133 
54 -0.938069 -0.940008 1.3853 0.91 0 0 0 2.53975 2.54825 -3.63253 
191 -0.00098132 -0.952765 0.297635 0.91 0 0 0 0.0155092 13.7596 -4.38229 
216 0.00179696 -1.8289 1.8291 0.91 0 0 0 0.0103322 -0.508445 0.487001 
36 -0.579109 -1.9214 0.579663 0.91 0 0 0 1.05646 2.70504 -1.04934 
5 0.00440351 0.00211488 0.00625162 0.91 0 0 0 -0.168257 -0.0836346 -0.244544 
108 -0.889306 -2.77545e-05 0.278288 0.91 0 0 0 14.0914 -0.000401327 -4.4848 
67 0.00199498 -0.00398537 0.00565614 0.91 0 0 0 -0.0788189 0.160282 -0.232719 
133 -1.83338 -0.000192778 1.82988 0.91 0 0 0 -0.523137 -0.00239279 0.498793 
46 -0.955749 -1.40758 0.951312 0.91 0 0 0 2.3872 3.38725 -2.37432 
42 -1.91401 -0.577187 0.579075 0.91 0 0 0 2.76684 1.07057 -1.06946 
223 0.000602779 -0.284979 0.916166 0.91 0 0 0 -0.010141 4.42475 -13.9759 
48 -1.39938 -0.944112 0.948543 0.91 0 0 0 3.48829 2.44389 -2.45196 
235 -0.00371558 -0.0018989 0.00540942 0.91 0 0 0 0.156858 0.0770349 -0.227618 
237 -0.00183668 -0.00383646 0.00545474 0.91 0 0 0 0.0783299 0.156986 -0.228524 
253 -0.00187432 -0.00565668 0.00382801 0.91 0 0 0 0.0791001 0.230691 -0.15891 
71 0.00609183 -0.00210561 0.00411913 0.91 0 0 0 -0.239319 0.0814143 -0.164827 
78 0.00213365 -0.00612662 0.00416527 0.91 0 0 0 -0.0817405 0.2401 -0.16592 
247 -0.00599036 -0.00210685 0.00411011 0.91 0 0 0 0.239973 0.0815022 -0.164543 
64 0.00400869 -0.00200566 0.00569304 0.91 0 0 0 -0.16032 0.079465 -0.233561 
83 -1.90953 0.576364 -0.578329 0.91 0 0 0 2.80951 -1.0795 1.08961 
60 -0.579952 0.585387 -1.93274 0.91 0 0 0 1.02054 -1.0287 2.59533 
227 0.000794649 0.281742 -0.902432 0.91 0 0 0 -0.00811898 -4.46069 14.0361 
92 -0.57803 1.91649 -0.576862 0.91 0 0 0 1.06233 -2.7651 1.07118 
239 0.000270056 1.83706 -1.83586 0.91 0 0 0 0.00150494 0.503703 -0.511015 
37 0.00446928 0.00636663 -0.00224421 0.91 0 0 0 -0.169276 -0.246932 0.0843097 
47 0.00208029 0.00587212 -0.0041202 0.91 0 0 0 -0.0807581 -0.237447 0.162949 
66 -0.950969 0.95017 -1.40535 0.91 0 0 0 2.40715 -2.40572 3.43169 
77 -0.950291 1.40305 -0.94854 0.91 0 0 0 2.42114 -3.44769 2.42337 
74 -1.39481 0.942565 -0.942722 0.91 0 0 0 3.54512 -2.48332 2.48902 
97 -0.911114 0.28257 0.000596125 0.91 0 0 0 14.001 -4.42158 -0.0076608 
292 5.16735e-05 0.0091061 -5.73152e-05 0.91 0 0 0 0.00146886 -2.64979 0.0031525 
195 -0.0039368 0.00573888 -0.0020118 0.91 0 0 0 0.161641 -0.234817 0.0795516 
272 -0.00115692 0.889091 -0.276991 0.91 0 0 0 0.0197926 -14.1041 4.46934 
104 -1.83368 1.83223 -0.000602098 0.91 0 0 0 -0.540915 0.529069 0.00520048 
107 -0.292197 0.935323 0.000731968 0.91 0 0 0 4.41236 -13.8628 -0.0093805 
206 -0.00183907 0.00546333 -0.00383882 0.91 0 0 0 0.0785735 -0.228971 0.157162 
16 0.00395115 0.00561488 0.00189072 0.91 0 0 0 -0.159135 -0.232085 -0.0791749 
166 -0.00408571 0.00594351 0.00200326 0.91 0 0 0 0.164686 -0.238807 -0.0813801 
311 0.000268418 0.891239 0.278628 0.91 0 0 0 -0.00318515 -14.0867 -4.47713 
141 -0.576502 0.574626 1.91228 0.91 0 0 0 1.08396 -1.0786 -2.81945 
121 -0.578848 1.91837 0.581146 0.91 0 0 0 1.05394 -2.72828 -1.06164 
8 0.00190984 0.00541804 0.00371737 0.91 0 0 0 -0.0770148 -0.22795 -0.156581 
138 -0.964076 0.963959 1.42305 0.91 0 0 0 2.26882 -2.26943 -3.2195 
112 -1.91617 0.580865 0.577477 0.91 0 0 0 2.73954 -1.06674 -1.06034 
341 -0.000598044 0.286446 0.91907 0.91 0 0 0 0.00924623 -4.42591 -13.9557 
128 -1.38497 0.936831 0.937023 0.91 0 0 0 3.64451 -2.55415 -2.55669 
131 -0.946602 1.396 0.945733 0.91 0 0 0 2.46492 -3.50934 -2.46626 
338 0.00120419 1.82454 1.8242 0.91 0 0 0 0.00975775 0.470929 0.465624 
152 -0.0019181 0.00568345 0.00391247 0.91 0 0 0 0.0801808 -0.233433 -0.16081 
175 1.91641 -0.579031 -0.578453 0.91 0 0 0 -2.76354 1.06695 1.06315 
143 0.587721 -0.586763 -1.94477 0.91 0 0 0 -0.996111 1.00159 2.48412 
278 0.014698 -3.56627e-05 -6.13558e-05 0.91 0 0 0 -2.94111 0.00327463 0.00147501 
163 0.579643 -1.92544 -0.581411 0.91 0 0 0 -1.04359 2.67155 1.05168 
177 0.284105 -0.914841 0.000577141 0.91 0 0 0 -4.4216 13.9809 -0.0074746 
147 0.959043 -0.956666 -1.41564 0.91 0 0 0 -2.34014 2.34096 3.32996 
259 0.89174 -0.000545021 -0.279217 0.91 0 0 0 -14.0859 0.00917277 4.48115 
232 1.82127 0.00227104 -1.82113 0.91 0 0 0 0.446093 0.0160579 -0.43761 
190 0.934815 -0.291471 -0.000287644 0.91 0 0 0 -13.8735 4.40442 0.00213537 
226 0.274564 0.00149982 -0.877382 0.91 0 0 0 -4.49962 -0.0223183 14.1482 
157 1.39189 -0.942034 -0.940278 0.91 0 0 0 -3.58321 2.51872 2.51262 
153 0.951989 -1.40795 -0.951919 0.91 0 0 0 -2.39527 3.41162 2.40019 
224 0.591514 -0.58481 1.94962 0.91 0 0 0 -0.979549 0.964314 -2.43 
298 0.886117 0.000938489 0.277167 0.91 0 0 0 -14.1146 -0.0150815 -4.49026 
192 0.578214 -1.91263 0.579701 0.91 0 0 0 -1.06828 2.77442 -1.06823 
331 1.8403 0.000219699 1.84083 0.91 0 0 0 0.517061 -0.00730612 0.513735 
219 0.943638 -0.941951 1.39061 0.91 0 0 0 -2.50423 2.49371 -3.57535 
181 1.83113 -1.83321 0.0038815 0.91 0 0 0 0.517393 -0.522925 0.017548 
211 1.37763 -0.932577 0.934293 0.91 0 0 0 -3.72209 2.59141 -2.60323 
204 1.94672 -0.585984 0.589014 0.91 0 0 0 -2.44717 0.96661 -0.980359 
340 0.271511 -0.000456933 0.873285 0.91 0 0 0 -4.48222 0.00911324 -14.1779 
207 0.94305 -1.39157 0.944943 0.91 0 0 0 -2.48544 3.54143 -2.4906 
254 0.943183 1.39264 -0.945065 0.91 0 0 0 -2.48325 -3.55611 2.48792 
238 0.953478 0.951448 -1.40822 0.91 0 0 0 -2.38223 -2.38651 3.39265 
291 1.83249 1.83276 -0.00102897 0.91 0 0 0 0.511818 0.510916 0.00602394 
228 0.578293 0.579106 -1.91453 0.91 0 0 0 -1.06856 -1.07416 2.78469 
283 0.948722 0.296013 -0.000610146 0.91 0 0 0 -13.7928 -4.38378 0.00637149 
293 0.297391 0.95335 5.45838e-05 0.91 0 0 0 -4.37496 -13.7629 0.000928211 
251 1.37235 0.930797 -0.931582 0.91 0 0 0 -3.76829 -2.63907 2.6309 
273 0.585331 1.94815 -0.592042 0.91 0 0 0 -0.968911 -2.4292 0.98127 
264 1.94891 0.590122 -0.590139 0.91 0 0 0 -2.41132 -0.971291 0.961037 
342 0.584514 0.586351 1.93754 0.91 0 0 0 -1.01167 -1.00234 -2.54788 
337 0.94959 0.950642 1.40076 0.91 0 0 0 -2.42986 -2.4223 -3.45697 
324 1.39362 0.945976 0.943218 0.91 0 0 0 -3.54483 -2.47966 -2.47721 
327 0.928229 1.37339 0.932109 0.91 0 0 0 -2.62948 -3.76866 -2.6355 
312 0.588005 1.94417 0.585704 0.91 0 0 0 -0.984267 -2.46477 -0.971499 
303 1.93766 0.586329 0.585858 0.91 0 0 0 -2.54042 -1.00058 -1.00276 
ITEM: TIMESTEP
960116
ITEM: NUMBER OF ATOMS
341
ITEM: BOX BOUNDS ss ss ss
-1.9360300446137211e+00 1.9495118901764781e+00
-1.9388440561347573e+00 1.9487524452880283e+00
-1.9453750558316978e+00 1.9502296762444777e+00
ITEM: ATOMS id x y z width_SPH x_COM y_COM z_COM vx vy vz 
2 -0.585102 -0.58607 -1.9354 0.91 0 0 0 1.0061 1.00858 2.55691 
3 -0.946573 -0.947509 -1.3961 0.91 0 0 0 2.45488 2.45382 3.50143 
13 8.21148e-06 -5.66003e-05 -8.68647e-05 0.91 0 0 0 0.0026952 0.000772104 0.00231442 
72 1.00037e-05 -1.80674e-05 -8.50048e-05 0.91 0 0 0 0.0026317 -0.00149078 0.00224851 
103 5.00787e-05 -4.1309e-05 -4.72109e-05 0.91 0 0 0 0.000466924 -0.00052576 9.03069e-06 
7 -0.940327 -1.38947 -0.93963 0.91 0 0 0 2.51797 3.59875 2.51357 
263 0.000317199 5.3586e-05 -0.000138381 0.91 0 0 0 -0.0068648 -0.00281422 0.00246034 
9 -1.37995 -0.939326 -0.93413 0.91 0 0 0 3.67048 2.57621 2.56356 
265 4.78276e-05 -4.12975e-05 -4.49719e-05 0.91 0 0 0 0.000393078 -0.000531828 8.53912e-05 
313 4.78368e-05 -3.68157e-05 -5.21076e-05 0.91 0 0 0 0.000393393 -0.000378816 -3.03468e-05 
270 0.000135089 0.000222804 -0.000134859 0.91 0 0 0 -0.00202591 -0.0076 0.00244268 
296 4.3336e-05 -3.68207e-05 -4.94714e-05 0.91 0 0 0 0.000246734 -0.000378903 -6.33303e-05 
299 4.78245e-05 -3.8897e-05 -4.93002e-05 0.91 0 0 0 0.000393343 -0.000353104 3.49468e-05 
15 -0.584501 -1.93824 -0.585915 0.91 0 0 0 1.00083 2.5306 1.00153 
229 4.78683e-05 -3.68077e-05 -0.000102264 0.91 0 0 0 0.000392304 -0.000380941 0.00330591 
328 4.7819e-05 -3.68552e-05 5.94951e-06 0.91 0 0 0 0.000392724 -0.00037423 -0.00321811 
249 6.72428e-05 2.02781e-06 -8.5966e-05 0.91 0 0 0 -0.000743777 -0.00265657 0.00228071 
279 4.78275e-05 -3.86261e-05 -4.7213e-05 0.91 0 0 0 0.000393306 -0.000345786 9.33706e-06 
295 4.57322e-05 -3.6811e-05 -4.93139e-05 0.91 0 0 0 0.000418695 -0.000378649 3.49387e-05 
21 -1.93542 -0.586853 -0.584127 0.91 0 0 0 2.52976 1.00382 1.00104 
274 4.78322e-05 -3.68104e-05 -4.72089e-05 0.91 0 0 0 0.000393208 -0.000378662 9.24339e-06 
245 4.65343e-05 -3.81359e-05 -4.45932e-05 0.91 0 0 0 0.0002188 -0.000553129 0.000359528 
200 4.78223e-05 -3.47196e-05 -4.93163e-05 0.91 0 0 0 0.000393335 -0.000404157 3.50299e-05 
93 -0.013374 -4.27036e-05 -3.30158e-05 0.91 0 0 0 2.87737 -0.00065813 0.000205954 
89 4.91414e-05 -3.94495e-05 -4.58786e-05 0.91 0 0 0 0.000566605 -0.000726973 0.000183267 
32 -0.952939 -0.2984 -0.000546344 0.91 0 0 0 13.7547 4.38972 0.0085621 
79 -0.929859 0.000284142 -0.288607 0.91 0 0 0 13.9016 -0.00626432 4.39599 
262 4.52402e-05 -3.81347e-05 -4.59056e-05 0.91 0 0 0 4.22897e-05 -0.000554096 0.000184445 
315 6.20376e-05 -3.68346e-05 -3.3054e-05 0.91 0 0 0 -0.000915282 -0.000376001 -0.00129758 
96 4.9648e-05 -3.68133e-05 -4.7207e-05 0.91 0 0 0 0.000360381 -0.000378623 9.22301e-06 
294 4.78278e-05 -3.68014e-05 -4.90146e-05 0.91 0 0 0 0.0003933 -0.000378833 4.2125e-05 
142 -0.000137077 -0.283023 -0.906696 0.91 0 0 0 0.00228183 4.45303 14.017 
193 4.7978e-05 -0.000160343 -5.74702e-06 0.91 0 0 0 0.000387433 0.00489577 -0.00176254 
183 4.55853e-05 -3.23118e-05 -4.72303e-05 0.91 0 0 0 0.00031963 -0.000231641 9.29661e-06 
98 -7.88031e-05 6.13011e-06 -4.70421e-05 0.91 0 0 0 0.00573746 -0.00219094 4.30272e-06 
111 4.99243e-05 -3.68071e-05 -4.9304e-05 0.91 0 0 0 0.000367749 -0.000378738 3.48976e-05 
196 4.78273e-05 -3.23214e-05 -4.94744e-05 0.91 0 0 0 0.000393066 -0.000228645 -6.55681e-05 
176 2.2196e-05 -0.0128512 -6.40654e-05 0.91 0 0 0 9.34599e-05 2.84482 0.00328466 
162 -0.000484356 -0.906517 -0.281538 0.91 0 0 0 0.00648753 14.0241 4.43308 
34 5.23135e-05 -3.45584e-05 -4.7215e-05 0.91 0 0 0 0.00054329 -0.000303881 9.25393e-06 
61 -1.83521 -0.000402814 -1.83177 0.91 0 0 0 -0.536748 -0.00931901 -0.517682 
59 -0.297856 0.000548104 -0.952652 0.91 0 0 0 4.38885 -0.0100275 13.762 
144 -0.00197047 -1.82699 -1.82387 0.91 0 0 0 -0.0240902 -0.457118 -0.442292 
202 4.52218e-05 -3.54862e-05 -4.85408e-05 0.91 0 0 0 4.39268e-05 -0.000203345 -0.000164205 
304 4.78294e-05 -4.1299e-05 -4.94692e-05 0.91 0 0 0 0.000393426 -0.000527295 -6.52662e-05 
317 4.78211e-05 -3.90536e-05 -5.16954e-05 0.91 0 0 0 0.000393224 -0.00045488 -0.000142905 
305 4.65155e-05 -3.9446e-05 -4.85282e-05 0.91 0 0 0 0.000219742 -0.000727641 -0.000164129 
300 4.54914e-05 -3.91551e-05 -4.95474e-05 0.91 0 0 0 0.000402947 -0.000368883 1.91394e-05 
285 4.55919e-05 -4.13049e-05 -4.72166e-05 0.91 0 0 0 0.000318304 -0.000528945 9.12629e-06 
301 4.51779e-05 -3.8148e-05 -4.85497e-05 0.91 0 0 0 4.71893e-05 -0.00055096 -0.000162371 
318 4.65381e-05 -3.81035e-05 -4.97929e-05 0.91 0 0 0 0.000216735 -0.000555753 -0.00034439 
201 4.54934e-05 -3.44713e-05 -4.95454e-05 0.91 0 0 0 0.000403046 -0.000388573 1.93514e-05 
188 4.33533e-05 -3.45545e-05 -4.72287e-05 0.91 0 0 0 0.000243706 -0.000303733 9.31561e-06 
186 4.78344e-05 -3.50091e-05 -4.72188e-05 0.91 0 0 0 0.00039316 -0.000411412 9.45093e-06 
213 4.64832e-05 -3.54576e-05 -4.99171e-05 0.91 0 0 0 0.000222311 -0.00020831 -0.000332766 
314 4.55859e-05 -3.68089e-05 -5.16929e-05 0.91 0 0 0 0.00031607 -0.000378772 -0.000144575 
114 5.04139e-05 -3.81056e-05 -4.85111e-05 0.91 0 0 0 0.000745834 -0.000553876 -0.000166567 
280 4.57357e-05 -3.8893e-05 -4.72195e-05 0.91 0 0 0 0.000418819 -0.000353166 9.43202e-06 
212 4.78186e-05 -3.45657e-05 -5.17095e-05 0.91 0 0 0 0.000392983 -0.000303718 -0.000141401 
35 4.99145e-05 -3.47285e-05 -4.7218e-05 0.91 0 0 0 0.000367656 -0.000404282 9.40648e-06 
182 4.78318e-05 -3.1907e-05 -4.72198e-05 0.91 0 0 0 0.000393151 -0.000337302 9.45402e-06 
45 5.01537e-05 -3.44835e-05 -4.95347e-05 0.91 0 0 0 0.000383021 -0.000389042 1.96972e-05 
197 4.64816e-05 -3.41015e-05 -4.85812e-05 0.91 0 0 0 0.00022293 -3.75547e-05 -0.000160024 
124 5.0069e-05 -3.68005e-05 -5.16946e-05 0.91 0 0 0 0.000469886 -0.000378671 -0.00014341 
115 5.01649e-05 -3.91359e-05 -4.9556e-05 0.91 0 0 0 0.000383492 -0.000368864 1.9248e-05 
26 -1.83625 -1.8397 -0.000739435 0.91 0 0 0 -0.545411 -0.541421 -0.0081912 
288 4.77742e-05 1.55511e-05 -4.71866e-05 0.91 0 0 0 0.000395917 -0.00357676 9.52204e-06 
306 8.51033e-05 3.61717e-07 -2.8715e-05 0.91 0 0 0 -0.00182615 -0.00259389 -0.0010936 
286 6.17028e-05 -2.29503e-05 -4.72051e-05 0.91 0 0 0 -0.000898172 -0.00167205 8.76468e-06 
321 4.77799e-05 -2.31308e-05 -3.35404e-05 0.91 0 0 0 0.000396516 -0.00166202 -0.00127306 
187 4.57475e-05 -3.47287e-05 -4.72068e-05 0.91 0 0 0 0.000418759 -0.000404231 9.29853e-06 
322 6.74952e-05 2.52472e-06 -7.90127e-06 0.91 0 0 0 -0.000754659 -0.00267153 -0.00228188 
319 8.62993e-05 -1.75557e-05 -8.76882e-06 0.91 0 0 0 -0.00186786 -0.0015118 -0.00225186 
275 4.60216e-05 -3.68067e-05 -4.72126e-05 0.91 0 0 0 0.000426005 -0.000378716 9.3414e-06 
100 4.99224e-05 -3.89009e-05 -4.72065e-05 0.91 0 0 0 0.000367753 -0.000353137 9.23047e-06 
277 0.000100706 -3.68904e-05 -4.72071e-05 0.91 0 0 0 -0.00282162 -0.000374925 7.52834e-06 
281 4.33481e-05 -3.90726e-05 -4.72157e-05 0.91 0 0 0 0.000244729 -0.000452814 9.44027e-06 
214 8.59928e-05 -5.5859e-05 -9.24041e-06 0.91 0 0 0 -0.00185804 0.000747584 -0.0022342 
284 4.78342e-05 -4.17092e-05 -4.72009e-05 0.91 0 0 0 0.000393307 -0.000419307 9.34148e-06 
276 4.29439e-05 -3.68196e-05 -4.72068e-05 0.91 0 0 0 0.000353046 -0.000378623 9.54617e-06 
99 5.23106e-05 -3.90565e-05 -4.71987e-05 0.91 0 0 0 0.000544108 -0.000453821 9.44861e-06 
118 4.91437e-05 -3.94444e-05 -4.85222e-05 0.91 0 0 0 0.000567679 -0.000727027 -0.000163913 
127 4.91178e-05 -3.80955e-05 -4.97908e-05 0.91 0 0 0 0.000570782 -0.000554854 -0.000344215 
44 5.04943e-05 -3.54642e-05 -4.85525e-05 0.91 0 0 0 0.000738137 -0.000207379 -0.000161862 
53 4.9151e-05 -3.54689e-05 -4.98569e-05 0.91 0 0 0 0.000567315 -0.000204738 -0.000337101 
95 5.2715e-05 -3.68017e-05 -4.72167e-05 0.91 0 0 0 0.000432843 -0.000378656 9.21343e-06 
282 0.000175752 6.13467e-06 -4.71499e-05 0.91 0 0 0 -0.0049851 -0.00218657 5.70507e-06 
110 5.22999e-05 -3.68141e-05 -4.94605e-05 0.91 0 0 0 0.000546289 -0.000379061 -6.71437e-05 
289 8.99167e-05 8.78561e-05 -4.71975e-05 0.91 0 0 0 -0.00139509 -0.00568008 1.03164e-05 
31 5.00832e-05 -3.23172e-05 -4.72065e-05 0.91 0 0 0 0.000467606 -0.000230144 9.82953e-06 
41 4.91248e-05 -3.42244e-05 -4.85228e-05 0.91 0 0 0 0.000570112 -2.59602e-05 -0.000167345 
332 4.79997e-05 6.44366e-06 8.17259e-05 0.91 0 0 0 0.000384281 -0.00218952 -0.00539648 
167 4.7837e-05 -3.23366e-05 -4.4972e-05 0.91 0 0 0 0.000393135 -0.000224884 8.63261e-05 
308 4.76421e-05 9.20287e-05 -3.60006e-06 0.91 0 0 0 0.000399496 -0.00578036 -0.00181604 
241 4.55933e-05 -3.68235e-05 -4.27436e-05 0.91 0 0 0 0.000315224 -0.000378641 0.000164339 
302 0.000313758 5.31221e-05 4.27155e-05 0.91 0 0 0 -0.00684781 -0.0028248 -0.00243674 
333 0.000135965 5.14576e-05 0.000214878 0.91 0 0 0 -0.00203407 -0.00280646 -0.00722415 
309 0.000138051 0.000229553 4.27181e-05 0.91 0 0 0 -0.00205604 -0.00762736 -0.00242905 
82 4.99188e-05 -3.68174e-05 -4.51132e-05 0.91 0 0 0 0.000367802 -0.00037858 -1.63408e-05 
256 4.57384e-05 -3.68121e-05 -4.51319e-05 0.91 0 0 0 0.000418773 -0.000378615 -1.6174e-05 
255 4.78393e-05 -3.68075e-05 -4.54032e-05 0.91 0 0 0 0.000393076 -0.000378715 -2.35278e-05 
172 4.55004e-05 -3.44666e-05 -4.48772e-05 0.91 0 0 0 0.000402824 -0.000388408 -4.1978e-07 
81 5.23068e-05 -3.68016e-05 -4.49543e-05 0.91 0 0 0 0.000544451 -0.000378299 8.49023e-05 
171 4.78416e-05 -3.47189e-05 -4.51371e-05 0.91 0 0 0 0.00039307 -0.000404334 -1.61886e-05 
260 4.78383e-05 -3.89022e-05 -4.51234e-05 0.91 0 0 0 0.000393133 -0.00035308 -1.6261e-05 
257 4.33514e-05 -3.68086e-05 -4.49796e-05 0.91 0 0 0 0.000241395 -0.000378202 8.46166e-05 
86 5.01768e-05 -3.91589e-05 -4.48613e-05 0.91 0 0 0 0.000383857 -0.000369194 -2.31658e-07 
240 4.78289e-05 -3.68253e-05 -4.23247e-05 0.91 0 0 0 0.000393079 -0.000378639 4.84519e-05 
261 4.54896e-05 -3.91609e-05 -4.48743e-05 0.91 0 0 0 0.000402706 -0.000368983 -2.72205e-07 
329 9.01029e-05 -3.66484e-05 7.76616e-05 0.91 0 0 0 -0.00140202 -0.000383899 -0.00529623 
24 5.01637e-05 -3.44784e-05 -4.4888e-05 0.91 0 0 0 0.000383178 -0.000388734 -7.56698e-07 
297 0.000173425 -3.68538e-05 -4.9887e-06 0.91 0 0 0 -0.00492815 -0.000377519 -0.00178203 
225 8.97443e-05 -8.95473e-06 -0.0167142 0.91 0 0 0 -0.00483861 -0.00410652 3.04429 
135 4.16773e-06 -3.69153e-05 8.22737e-05 0.91 0 0 0 0.00221675 -0.000371711 -0.00540886 
123 3.44184e-05 -3.68072e-05 -3.38323e-05 0.91 0 0 0 0.00166242 -0.000377191 -0.00125946 
94 -5.82092e-06 -3.68295e-05 -4.71353e-05 0.91 0 0 0 0.00363665 -0.000376855 5.68071e-06 
102 3.4266e-05 -2.33311e-05 -4.71877e-05 0.91 0 0 0 0.00167113 -0.00165129 9.11296e-06 
52 9.9678e-06 -5.56236e-05 -9.24676e-06 0.91 0 0 0 0.0026305 0.000737225 -0.00223689 
106 5.31508e-06 8.88453e-05 -4.7001e-05 0.91 0 0 0 0.00219161 -0.00570337 3.15473e-06 
117 9.10974e-06 1.84685e-06 -2.79123e-05 0.91 0 0 0 0.00266288 -0.00264694 -0.00112253 
126 9.56453e-06 -1.77509e-05 -9.00994e-06 0.91 0 0 0 0.00264659 -0.00150206 -0.00224225 
130 2.89449e-05 1.08452e-06 -9.29054e-06 0.91 0 0 0 0.00150916 -0.00261952 -0.00223265 
209 6.66333e-05 -7.43791e-05 -9.67374e-06 0.91 0 0 0 -0.000722724 0.00185169 -0.00222011 
184 6.12331e-05 -5.01433e-05 -4.72395e-05 0.91 0 0 0 -0.000876516 0.000887062 9.32439e-06 
30 3.4059e-05 -5.0601e-05 -4.72433e-05 0.91 0 0 0 0.00167935 0.000911633 1.13914e-05 
50 2.83809e-05 -7.58837e-05 -8.12099e-06 0.91 0 0 0 0.00152961 0.00190651 -0.00227642 
40 1.01642e-05 -7.44334e-05 -2.84889e-05 0.91 0 0 0 0.00262525 0.00185425 -0.00110309 
198 8.59939e-05 -7.49295e-05 -2.82601e-05 0.91 0 0 0 -0.00185669 0.00187129 -0.00111257 
203 0.000310144 -0.000125591 4.16459e-05 0.91 0 0 0 -0.00682804 0.0020609 -0.00243688 
221 0.000137975 -0.000127197 0.000220438 0.91 0 0 0 -0.00204438 0.00206838 -0.00725102 
208 4.78334e-05 -5.04918e-05 -3.35064e-05 0.91 0 0 0 0.000392644 0.00090489 -0.00127693 
220 4.79774e-05 -7.88107e-05 7.76908e-05 0.91 0 0 0 0.000385936 0.00140734 -0.00529861 
178 4.78567e-05 -9.0905e-05 -4.72645e-05 0.91 0 0 0 0.000392417 0.0028833 1.03665e-05 
189 0.000175433 -7.97636e-05 -4.71563e-05 0.91 0 0 0 -0.00497651 0.00142868 4.58533e-06 
20 4.92001e-05 -3.40806e-05 -4.58495e-05 0.91 0 0 0 0.000561895 -4.02859e-05 0.000178016 
154 4.78186e-05 -5.05609e-05 -6.09328e-05 0.91 0 0 0 0.000395847 0.000908502 0.00129345 
168 4.64963e-05 -3.41267e-05 -4.58775e-05 0.91 0 0 0 0.00022189 -3.55242e-05 0.000180342 
85 5.04268e-05 -3.81213e-05 -4.58983e-05 0.91 0 0 0 0.000744816 -0.00055379 0.000183948 
14 4.91578e-05 -3.55012e-05 -4.45804e-05 0.91 0 0 0 0.000567665 -0.000205282 0.000357619 
169 8.53684e-05 -7.43247e-05 -6.59607e-05 0.91 0 0 0 -0.00183333 0.00184877 0.00112183 
19 9.70363e-06 -7.48588e-05 -6.61418e-05 0.91 0 0 0 0.00264333 0.00186828 0.0011276 
73 4.91842e-05 -3.81754e-05 -4.45125e-05 0.91 0 0 0 0.00056411 -0.000549446 0.00035049 
323 0.000339414 0.000255244 0.000244787 0.91 0 0 0 -9.95444e-05 -0.000876642 -0.00049106 
23 5.04968e-05 -3.54707e-05 -4.58713e-05 0.91 0 0 0 0.000737719 -0.000206923 0.000180876 
69 3.46686e-05 -3.67988e-05 -6.03669e-05 0.91 0 0 0 0.00165062 -0.000380884 0.00126798 
248 4.78566e-05 -2.34036e-05 -6.06663e-05 0.91 0 0 0 0.000391271 -0.00164897 0.00128316 
70 5.00935e-05 -3.68147e-05 -4.27237e-05 0.91 0 0 0 0.000467993 -0.000378506 0.00015784 
88 1.01193e-05 7.67323e-07 -6.5944e-05 0.91 0 0 0 0.00262773 -0.00260814 0.00112335 
266 4.65231e-05 -3.94482e-05 -4.5892e-05 0.91 0 0 0 0.000219297 -0.000727691 0.00018311 
158 4.78425e-05 -3.45596e-05 -4.27196e-05 0.91 0 0 0 0.000393258 -0.000304655 0.000156831 
244 4.78293e-05 -3.90685e-05 -4.27322e-05 0.91 0 0 0 0.00039294 -0.000454914 0.000161626 
267 8.64105e-05 1.74628e-06 -6.64062e-05 0.91 0 0 0 -0.00187131 -0.00264587 0.00113832 
242 6.09052e-05 -3.68212e-05 -6.0255e-05 0.91 0 0 0 -0.000859489 -0.000379921 0.00126137 
173 4.52081e-05 -3.54948e-05 -4.58962e-05 0.91 0 0 0 4.50374e-05 -0.000205201 0.00018311 
159 4.65049e-05 -3.54786e-05 -4.45465e-05 0.91 0 0 0 0.000221002 -0.000206375 0.000353668 
109 -8.00577e-05 -3.67541e-05 -3.96954e-06 0.91 0 0 0 0.00576852 -0.000379317 -0.00180786 
120 -4.1806e-05 0.000227945 4.23441e-05 0.91 0 0 0 0.00283356 -0.00761767 -0.0024291 
33 -8.06665e-05 -8.03117e-05 -4.72449e-05 0.91 0 0 0 0.00578339 0.00144783 1.12049e-05 
43 -0.000218902 -0.000127177 4.23563e-05 0.91 0 0 0 0.00763836 0.00207498 -0.00241929 
57 -4.00741e-05 -0.000124818 0.00021384 0.91 0 0 0 0.00281699 0.00205543 -0.00721832 
113 -0.000212848 5.1142e-05 4.07015e-05 0.91 0 0 0 0.00760793 -0.00280726 -0.00241742 
137 -4.15732e-05 5.30577e-05 0.000218637 0.91 0 0 0 0.00282006 -0.00281921 -0.00723859 
179 9.06808e-05 -0.000163651 -4.74286e-05 0.91 0 0 0 -0.00141242 0.00497532 1.56419e-05 
28 4.83442e-06 -0.000163545 -4.71877e-05 0.91 0 0 0 0.00220706 0.00497213 6.37116e-06 
287 -1.4054e-05 -8.38681e-05 -4.69546e-05 0.91 0 0 0 0.0465412 0.031289 2.2034e-06 
38 -4.05083e-05 -0.000299399 4.09747e-05 0.91 0 0 0 0.00282028 0.00686002 -0.0024181 
290 9.34337e-06 -8.39273e-05 -4.7181e-05 0.91 0 0 0 0.031524 0.0449026 2.57099e-05 
194 0.000138383 -0.000304826 4.33039e-05 0.91 0 0 0 -0.00204924 0.00687883 -0.00243952 
25 -0.272604 -0.875348 0.000524652 0.91 0 0 0 4.4855 14.162 -0.0094661 
335 4.81567e-05 -8.01094e-05 -0.000101941 0.91 0 0 0 0.000437784 0.0311204 0.0457132 
325 4.8157e-05 -9.876e-05 -9.53457e-05 0.91 0 0 0 0.000332091 0.0457882 0.0317598 
165 0.00013734 -0.00030161 -0.000136864 0.91 0 0 0 -0.00204379 0.00686072 0.00245085 
17 -4.03376e-05 -0.000298825 -0.000136166 0.91 0 0 0 0.00281941 0.00684903 0.00245501 
164 4.7875e-05 -0.000165822 -9.07119e-05 0.91 0 0 0 0.000392817 0.00502815 0.00182943 
330 2.66269e-05 -3.70937e-05 -6.9176e-05 0.91 0 0 0 0.030462 -0.000450057 0.0437817 
316 -8.6117e-05 -3.7184e-05 -0.000143341 0.91 0 0 0 0.0508107 -0.000318427 0.0346094 
22 -0.000213324 -0.000124634 -0.000135126 0.91 0 0 0 0.00761581 0.00204692 0.00243828 
148 4.76602e-05 -8.04858e-05 -0.000176323 0.91 0 0 0 0.000402342 0.00144818 0.00541737 
84 -0.000214948 5.21568e-05 -0.000136004 0.91 0 0 0 0.00761771 -0.00282072 0.0024501 
91 -4.21064e-05 0.000231187 -0.000137348 0.91 0 0 0 0.00282122 -0.007643 0.00244956 
174 0.000304614 -0.000123202 -0.000133636 0.91 0 0 0 -0.00680262 0.00203669 0.00242493 
160 8.65467e-05 -5.61064e-05 -8.58455e-05 0.91 0 0 0 -0.00187645 0.000753499 0.00227597 
11 2.86908e-05 -7.52352e-05 -8.56006e-05 0.91 0 0 0 0.00152099 0.001882 0.00226768 
80 -7.88542e-05 -3.70164e-05 -8.97139e-05 0.91 0 0 0 0.00574169 -0.000369851 0.00180563 
155 6.6998e-05 -7.5267e-05 -8.57465e-05 0.91 0 0 0 -0.000732689 0.0018819 0.002274 
246 8.64562e-05 -1.75364e-05 -8.57644e-05 0.91 0 0 0 -0.00187278 -0.00151421 0.00227354 
258 0.000173887 -3.6989e-05 -8.96057e-05 0.91 0 0 0 -0.00493894 -0.000373199 0.00180185 
233 4.79968e-05 6.2187e-06 -0.000174634 0.91 0 0 0 0.000387527 -0.00219328 0.00537741 
230 9.07721e-05 -3.67843e-05 -0.000174739 0.91 0 0 0 -0.00141181 -0.000382553 0.00538023 
63 5.67308e-06 -3.70521e-05 -0.000171688 0.91 0 0 0 0.0021862 -0.000370377 0.00530472 
76 2.89222e-05 1.22109e-06 -8.5214e-05 0.91 0 0 0 0.00151055 -0.00262687 0.00225555 
269 4.77038e-05 8.83341e-05 -8.94892e-05 0.91 0 0 0 0.000398144 -0.00569182 0.00180509 
129 -0.000242509 0.000254404 0.000244054 0.91 0 0 0 0.00105425 -0.0010533 -0.000662986 
105 7.98162e-05 -7.47005e-05 -4.77721e-05 0.91 0 0 0 -0.0303878 0.044314 -6.60567e-06 
134 0.000131015 -3.73341e-05 -0.00015882 0.91 0 0 0 -0.0334074 -0.000328697 0.0491319 
217 4.83768e-05 5.9334e-06 -0.000101536 0.91 0 0 0 0.000312138 -0.031859 0.0457168 
210 0.000337157 -0.000326899 0.000242928 0.91 0 0 0 -0.000550574 0.000579042 -0.000960363 
49 -0.000243723 -0.000328933 0.000244736 0.91 0 0 0 0.000874366 0.000126579 -0.000492892 
185 -1.46058e-06 1.72902e-06 -4.64797e-05 0.91 0 0 0 0.0458054 -0.0315024 -5.32559e-06 
29 8.88964e-05 -4.00933e-06 -4.74314e-05 0.91 0 0 0 -0.0445025 -0.0311789 -2.49277e-06 
6 -4.0856e-05 -0.000125931 -0.000310574 0.91 0 0 0 0.00282507 0.00206179 0.00724579 
149 0.000138902 -0.000127305 -0.000316581 0.91 0 0 0 -0.00205132 0.00205213 0.0072728 
336 -0.00183833 -0.00384796 -0.00556966 0.91 0 0 0 0.0783399 0.157193 0.22904 
307 -0.00645397 -0.0045287 -0.00227619 0.91 0 0 0 0.248637 0.17067 0.0849106 
10 -0.000242975 -0.000328148 -0.00033758 0.91 0 0 0 0.00112843 0.000360334 0.000750657 
334 -0.00431864 -0.00219585 -0.00635975 0.91 0 0 0 0.169251 0.0830215 0.244837 
310 -0.00383195 -0.0056514 -0.00197004 0.91 0 0 0 0.159452 0.230493 0.0788463 
326 -0.00188397 -0.005671 -0.00392861 0.91 0 0 0 0.0794428 0.231003 0.159 
320 -0.00565429 -0.00198718 -0.0039828 0.91 0 0 0 0.233141 0.0789222 0.160293 
156 0.000339037 -0.000328695 -0.000338768 0.91 0 0 0 -0.000125579 0.000151471 0.000539078 
65 -3.96983e-05 5.02014e-05 -0.000306044 0.91 0 0 0 0.00282681 -0.00280099 0.00722414 
250 0.000336661 0.000253102 -0.000336425 0.91 0 0 0 -0.000629102 -0.00142678 0.00104502 
75 -0.000242675 0.000253129 -0.000338087 0.91 0 0 0 0.00122024 -0.00121496 0.000852731 
234 0.000137229 5.22888e-05 -0.000312957 0.91 0 0 0 -0.00203658 -0.00280896 0.00726266 
122 0.000135441 -3.71584e-05 -0.00011227 0.91 0 0 0 -0.047316 -0.000357962 0.0327085 
132 0.00215357 -0.00618902 -0.00429276 0.91 0 0 0 -0.0820879 0.241426 0.166418 
116 0.00595426 -0.00410985 -0.00206274 0.91 0 0 0 -0.236581 0.162628 0.0805753 
125 0.00602507 -0.00207525 -0.00416749 0.91 0 0 0 -0.238005 0.0806863 0.163894 
136 0.00396406 -0.00198729 -0.00572818 0.91 0 0 0 -0.159277 0.0791354 0.232348 
119 0.0039543 -0.0056997 -0.00199498 0.91 0 0 0 -0.159137 0.231556 0.079484 
139 0.00197325 -0.00389182 -0.0056403 0.91 0 0 0 -0.0786463 0.158042 0.230492 
101 0.000158438 -0.000117696 -4.79459e-05 0.91 0 0 0 -0.0486557 0.0333147 3.47101e-05 
27 0.000125163 6.66316e-05 -4.72157e-05 0.91 0 0 0 -0.0331042 -0.0490181 4.98021e-05 
55 0.0020183 0.00395239 -0.00580925 0.91 0 0 0 -0.0792328 -0.161937 0.233936 
205 4.8123e-05 -8.94897e-06 -7.12433e-05 0.91 0 0 0 0.000360553 -0.0444898 0.0303131 
39 0.00553775 0.0037548 -0.00191878 0.91 0 0 0 -0.227837 -0.157637 0.077538 
51 0.00584008 0.00193395 -0.00404537 0.91 0 0 0 -0.234223 -0.0799807 0.161525 
180 -5.31023e-05 0.000100818 -4.6219e-05 0.91 0 0 0 0.0352722 -0.0510092 -6.78773e-05 
56 0.00447517 0.00215231 -0.00645654 0.91 0 0 0 -0.169441 -0.084382 0.246648 
222 -0.0042773 0.00210814 -0.00630707 0.91 0 0 0 0.168419 -0.083734 0.243877 
215 -0.00560981 0.00189115 -0.00394158 0.91 0 0 0 0.232354 -0.0792411 0.159321 
218 -0.00197898 0.00406727 -0.00598845 0.91 0 0 0 0.0812594 -0.164171 0.237702 
199 -0.00621739 0.00428783 -0.00218718 0.91 0 0 0 0.244361 -0.168421 0.0831723 
145 4.72513e-05 5.52512e-05 7.83002e-05 0.91 0 0 0 0.000394978 -0.0347329 -0.0499185 
62 0.000124748 -3.66332e-05 5.6463e-05 0.91 0 0 0 -0.0330817 -0.000378907 -0.048653 
170 -0.00633938 0.00436865 0.00213842 0.91 0 0 0 0.246645 -0.169849 -0.0839249 
68 8.81423e-05 -3.67676e-05 -1.494e-05 0.91 0 0 0 -0.0444643 -0.000344266 -0.03077 
18 0.00582546 0.00395099 0.00193263 0.91 0 0 0 -0.233888 -0.161676 -0.0800497 
236 4.74315e-05 -8.89997e-05 2.11548e-05 0.91 0 0 0 0.000340732 0.0316319 -0.04655 
252 4.74186e-05 -8.30352e-05 -9.98686e-06 0.91 0 0 0 0.000434956 0.044799 -0.031155 
231 7.59638e-06 -3.6488e-05 2.28337e-06 0.91 0 0 0 0.0315969 -0.000354411 -0.0454263 
243 5.67326e-06 -3.6394e-05 -1.33513e-05 0.91 0 0 0 0.0453017 -0.000484104 -0.0308976 
151 4.74814e-05 3.58642e-05 8.26431e-06 0.91 0 0 0 0.000351975 -0.0471765 -0.0321994 
90 0.00414343 -0.00596816 0.00198626 0.91 0 0 0 -0.163099 0.237031 -0.0811448 
268 -0.00587313 -0.00411641 0.00197085 0.91 0 0 0 0.237669 0.162687 -0.080609 
271 -0.00410532 -0.00603547 0.0020161 0.91 0 0 0 0.165098 0.23824 -0.0818065 
87 0.00609309 -0.00421503 0.00201139 0.91 0 0 0 -0.23929 0.164848 -0.08139 
161 -0.00613243 0.00208115 0.00422158 0.91 0 0 0 0.242648 -0.0831688 -0.166876 
140 -0.286948 0.00140708 0.924107 0.91 0 0 0 4.40565 -0.0206321 -13.9349 
339 4.11833e-05 -4.03373e-05 0.00924955 0.91 0 0 0 0.00056922 0.00272748 -2.65812 
4 0.00213098 0.00417715 0.00605435 0.91 0 0 0 -0.0815765 -0.166245 -0.240808 
58 -0.586938 -0.589097 1.94406 0.91 0 0 0 0.981114 0.991914 -2.4684 
150 -0.00394073 0.00194569 0.00573269 0.91 0 0 0 0.161622 -0.0804992 -0.234357 
12 0.00616723 0.00204884 0.00418641 0.91 0 0 0 -0.240693 -0.082285 -0.166378 
146 -0.00212916 0.0043431 0.00628698 0.91 0 0 0 0.0843332 -0.169456 -0.245131 
54 -0.938067 -0.940007 1.3853 0.91 0 0 0 2.53977 2.54826 -3.63255 
191 -0.000981312 -0.952758 0.297633 0.91 0 0 0 0.0155093 13.7597 -4.3823 
216 0.00179697 -1.8289 1.82911 0.91 0 0 0 0.0103323 -0.508449 0.487005 
36 -0.579108 -1.9214 0.579663 0.91 0 0 0 1.05646 2.70506 -1.04935 
5 0.00440343 0.00211484 0.0062515 0.91 0 0 0 -0.168255 -0.0836339 -0.244542 
108 -0.889299 -2.77547e-05 0.278285 0.91 0 0 0 14.0915 -0.000401338 -4.48481 
67 0.00199494 -0.00398529 0.00565602 0.91 0 0 0 -0.0788182 0.16028 -0.232717 
133 -1.83338 -0.00019278 1.82988 0.91 0 0 0 -0.523142 -0.00239282 0.498797 
46 -0.955748 -1.40758 0.951311 0.91 0 0 0 2.38722 3.38727 -2.37433 
42 -1.91401 -0.577187 0.579075 0.91 0 0 0 2.76686 1.07057 -1.06946 
223 0.000602774 -0.284977 0.916159 0.91 0 0 0 -0.0101411 4.42476 -13.9759 
48 -1.39938 -0.944111 0.948541 0.91 0 0 0 3.48831 2.4439 -2.45197 
235 -0.0037155 -0.00189887 0.0054093 0.91 0 0 0 0.156857 0.0770342 -0.227615 
237 -0.00183664 -0.00383638 0.00545463 0.91 0 0 0 0.0783291 0.156984 -0.228522 
253 -0.00187428 -0.00565657 0.00382793 0.91 0 0 0 0.0790994 0.230688 -0.158908 
71 0.00609171 -0.00210557 0.00411905 0.91 0 0 0 -0.239317 0.0814136 -0.164826 
78 0.00213361 -0.0061265 0.00416519 0.91 0 0 0 -0.0817398 0.240098 -0.165919 
247 -0.00599024 -0.00210681 0.00411003 0.91 0 0 0 0.239971 0.0815015 -0.164542 
64 0.00400861 -0.00200562 0.00569293 0.91 0 0 0 -0.160319 0.0794643 -0.233559 
83 -1.90953 0.576363 -0.578329 0.91 0 0 0 2.80953 -1.0795 1.08962 
60 -0.579952 0.585386 -1.93273 0.91 0 0 0 1.02054 -1.0287 2.59534 
227 0.000794644 0.281739 -0.902425 0.91 0 0 0 -0.00811907 -4.4607 14.0361 
92 -0.57803 1.91649 -0.576861 0.91 0 0 0 1.06233 -2.76512 1.07118 
239 0.000270057 1.83706 -1.83586 0.91 0 0 0 0.00150494 0.503708 -0.511019 
37 0.00446919 0.0063665 -0.00224417 0.91 0 0 0 -0.169275 -0.24693 0.084309 
47 0.00208025 0.005872 -0.00412012 0.91 0 0 0 -0.0807574 -0.237445 0.162947 
66 -0.950968 0.950169 -1.40534 0.91 0 0 0 2.40716 -2.40574 3.43171 
77 -0.950289 1.40305 -0.948539 0.91 0 0 0 2.42115 -3.44771 2.42339 
74 -1.3948 0.942563 -0.942721 0.91 0 0 0 3.54514 -2.48333 2.48903 
97 -0.911107 0.282568 0.000596121 0.91 0 0 0 14.0011 -4.42159 -0.00766085 
292 5.16742e-05 0.00910477 -5.73137e-05 0.91 0 0 0 0.00146881 -2.64972 0.00315244 
195 -0.00393672 0.00573876 -0.00201176 0.91 0 0 0 0.161639 -0.234815 0.0795509 
272 -0.00115691 0.889084 -0.276989 0.91 0 0 0 0.0197927 -14.1042 4.46935 
104 -1.83368 1.83223 -0.000602095 0.91 0 0 0 -0.540919 0.529073 0.00520048 
107 -0.292194 0.935316 0.000731963 0.91 0 0 0 4.41237 -13.8628 -0.00938052 
206 -0.00183903 0.00546321 -0.00383874 0.91 0 0 0 0.0785727 -0.228968 0.15716 
16 0.00395107 0.00561476 0.00189068 0.91 0 0 0 -0.159134 -0.232082 -0.0791742 
166 -0.00408562 0.00594339 0.00200322 0.91 0 0 0 0.164685 -0.238805 -0.0813794 
311 0.000268416 0.891232 0.278625 0.91 0 0 0 -0.00318514 -14.0868 -4.47714 
141 -0.576502 0.574625 1.91228 0.91 0 0 0 1.08396 -1.07861 -2.81947 
121 -0.578847 1.91837 0.581146 0.91 0 0 0 1.05395 -2.7283 -1.06165 
8 0.0019098 0.00541792 0.00371729 0.91 0 0 0 -0.0770141 -0.227948 -0.15658 
138 -0.964075 0.963958 1.42305 0.91 0 0 0 2.26883 -2.26944 -3.21952 
112 -1.91617 0.580864 0.577477 0.91 0 0 0 2.73956 -1.06675 -1.06035 
341 -0.000598039 0.286444 0.919063 0.91 0 0 0 0.00924622 -4.42592 -13.9557 
128 -1.38497 0.93683 0.937021 0.91 0 0 0 3.64453 -2.55416 -2.55671 
131 -0.946601 1.396 0.945732 0.91 0 0 0 2.46493 -3.50936 -2.46627 
338 0.0012042 1.82454 1.8242 0.91 0 0 0 0.00975777 0.470934 0.465628 
152 -0.00191806 0.00568334 0.00391239 0.91 0 0 0 0.08018 -0.23343 -0.160809 
175 1.91641 -0.57903 -0.578453 0.91 0 0 0 -2.76356 1.06695 1.06316 
143 0.587721 -0.586763 -1.94477 0.91 0 0 0 -0.996115 1.00159 2.48413 
278 0.0146965 -3.5661e-05 -6.13551e-05 0.91 0 0 0 -2.94104 0.00327453 0.001475 
163 0.579643 -1.92544 -0.58141 0.91 0 0 0 -1.04359 2.67157 1.05168 
177 0.284103 -0.914834 0.000577137 0.91 0 0 0 -4.42161 13.9809 -0.00747463 
147 0.959042 -0.956665 -1.41564 0.91 0 0 0 -2.34015 2.34097 3.32998 
259 0.891733 -0.000545017 -0.279215 0.91 0 0 0 -14.0859 0.00917279 4.48116 
232 1.82127 0.00227105 -1.82113 0.91 0 0 0 0.446097 0.016058 -0.437614 
190 0.934808 -0.291469 -0.000287643 0.91 0 0 0 -13.8736 4.40444 0.00213538 
226 0.274561 0.00149981 -0.877375 0.91 0 0 0 -4.49963 -0.0223184 14.1483 
157 1.39189 -0.942033 -0.940276 0.91 0 0 0 -3.58323 2.51873 2.51263 
153 0.951988 -1.40795 -0.951918 0.91 0 0 0 -2.39528 3.41164 2.4002 
224 0.591513 -0.584809 1.94962 0.91 0 0 0 -0.979553 0.964317 -2.43002 
298 0.88611 0.000938481 0.277164 0.91 0 0 0 -14.1146 -0.0150816 -4.49027 
192 0.578213 -1.91263 0.5797 0.91 0 0 0 -1.06828 2.77444 -1.06824 
331 1.8403 0.000219696 1.84083 0.91 0 0 0 0.517066 -0.00730614 0.513739 
219 0.943637 -0.94195 1.39061 0.91 0 0 0 -2.50424 2.49372 -3.57538 
181 1.83113 -1.83321 0.00388151 0.91 0 0 0 0.517397 -0.52293 0.0175482 
211 1.37763 -0.932576 0.934292 0.91 0 0 0 -3.72212 2.59143 -2.60325 
204 1.94672 -0.585983 0.589013 0.91 0 0 0 -2.44719 0.966613 -0.980362 
340 0.271509 -0.000456928 0.873278 0.91 0 0 0 -4.48223 0.00911324 -14.1779 
207 0.943049 -1.39157 0.944942 0.91 0 0 0 -2.48545 3.54145 -2.49061 
254 0.943182 1.39264 -0.945064 0.91 0 0 0 -2.48326 -3.55613 2.48794 
238 0.953477 0.951447 -1.40822 0.91 0 0 0 -2.38224 -2.38652 3.39267 
291 1.83249 1.83276 -0.00102896 0.91 0 0 0 0.511822 0.51092 0.00602396 
228 0.578293 0.579106 -1.91453 0.91 0 0 0 -1.06857 -1.07417 2.78471 
283 0.948715 0.296011 -0.000610143 0.91 0 0 0 -13.7929 -4.38379 0.00637152 
293 0.297389 0.953343 5.45843e-05 0.91 0 0 0 -4.37498 -13.763 0.000928205 
251 1.37234 0.930796 -0.931581 0.91 0 0 0 -3.76831 -2.63909 2.63092 
273 0.58533 1.94815 -0.592041 0.91 0 0 0 -0.968915 -2.42922 0.981273 
264 1.9489 0.590121 -0.590139 0.91 0 0 0 -2.41133 -0.971294 0.96104 
342 0.584514 0.58635 1.93754 0.91 0 0 0 -1.01167 -1.00234 -2.5479 
337 0.949589 0.950641 1.40076 0.91 0 0 0 -2.42987 -2.42231 -3.45699 
324 1.39361 0.945975 0.943217 0.91 0 0 0 -3.54485 -2.47968 -2.47723 
327 0.928228 1.37339 0.932108 0.91 0 0 0 -2.6295 -3.76868 -2.63551 
312 0.588005 1.94417 0.585703 0.91 0 0 0 -0.98427 -2.46478 -0.971503 
303 1.93766 0.586329 0.585858 0.91 0 0 0 -2.54044 -1.00059 -1.00277 
ITEM: TIMESTEP
960117
ITEM: NUMBER OF ATOMS
341
ITEM: BOX BOUNDS ss ss ss
-1.9360300446137211e+00 1.9495118901764781e+00
-1.9388440561347573e+00 1.9487524452880283e+00
-1.9453750558316978e+00 1.9502296762444777e+00
ITEM: ATOMS id x y z width_SPH x_COM y_COM z_COM vx vy vz 
2 -0.585101 -0.586069 -1.9354 0.91 0 0 0 1.0061 1.00858 2.55692 
3 -0.946572 -0.947508 -1.3961 0.91 0 0 0 2.4549 2.45383 3.50145 
13 8.21283e-06 -5.65999e-05 -8.68636e-05 0.91 0 0 0 0.00269515 0.000772097 0.00231441 
72 1.0005e-05 -1.80681e-05 -8.50037e-05 0.91 0 0 0 0.00263165 -0.00149075 0.0022485 
103 5.00789e-05 -4.13092e-05 -4.72109e-05 0.91 0 0 0 0.000466903 -0.000525742 9.04989e-06 
7 -0.940326 -1.38947 -0.939628 0.91 0 0 0 2.51799 3.59878 2.51359 
263 0.000317195 5.35846e-05 -0.00013838 0.91 0 0 0 -0.00686483 -0.00281421 0.00246036 
9 -1.37995 -0.939324 -0.934129 0.91 0 0 0 3.6705 2.57623 2.56358 
265 4.78278e-05 -4.12978e-05 -4.49719e-05 0.91 0 0 0 0.000393061 -0.000531809 8.54063e-05 
313 4.7837e-05 -3.68159e-05 -5.21076e-05 0.91 0 0 0 0.000393377 -0.000378805 -3.03225e-05 
270 0.000135088 0.0002228 -0.000134857 0.91 0 0 0 -0.00202592 -0.00759999 0.0024427 
296 4.33361e-05 -3.68209e-05 -4.94714e-05 0.91 0 0 0 0.000246726 -0.000378892 -6.33072e-05 
299 4.78247e-05 -3.88972e-05 -4.93001e-05 0.91 0 0 0 0.000393327 -0.000353093 3.4967e-05 
15 -0.584501 -1.93824 -0.585915 0.91 0 0 0 1.00084 2.53061 1.00153 
229 4.78685e-05 -3.68079e-05 -0.000102263 0.91 0 0 0 0.000392288 -0.000380931 0.00330588 
328 4.78192e-05 -3.68553e-05 5.9479e-06 0.91 0 0 0 0.000392708 -0.00037422 -0.00321804 
249 6.72424e-05 2.02648e-06 -8.59649e-05 0.91 0 0 0 -0.000743776 -0.00265652 0.0022807 
279 4.78277e-05 -3.86263e-05 -4.7213e-05 0.91 0 0 0 0.000393289 -0.000345775 9.35626e-06 
295 4.57324e-05 -3.68112e-05 -4.93139e-05 0.91 0 0 0 0.000418679 -0.000378639 3.49589e-05 
21 -1.93542 -0.586852 -0.584126 0.91 0 0 0 2.52977 1.00382 1.00104 
274 4.78324e-05 -3.68106e-05 -4.72089e-05 0.91 0 0 0 0.000393191 -0.000378651 9.26259e-06 
245 4.65344e-05 -3.81362e-05 -4.45931e-05 0.91 0 0 0 0.000218789 -0.000553112 0.000359535 
200 4.78225e-05 -3.47198e-05 -4.93163e-05 0.91 0 0 0 0.000393319 -0.000404148 3.505e-05 
93 -0.0133726 -4.27039e-05 -3.30157e-05 0.91 0 0 0 2.8773 -0.000658108 0.000205957 
89 4.91417e-05 -3.94499e-05 -4.58785e-05 0.91 0 0 0 0.000566582 -0.00072695 0.00018328 
32 -0.952933 -0.298398 -0.00054634 0.91 0 0 0 13.7547 4.38973 0.0085621 
79 -0.929852 0.000284139 -0.288605 0.91 0 0 0 13.9016 -0.00626435 4.396 
262 4.52402e-05 -3.8135e-05 -4.59055e-05 0.91 0 0 0 4.22853e-05 -0.00055408 0.000184458 
315 6.20371e-05 -3.68348e-05 -3.30546e-05 0.91 0 0 0 -0.000915273 -0.00037599 -0.00129754 
96 4.96481e-05 -3.68135e-05 -4.7207e-05 0.91 0 0 0 0.000360364 -0.000378613 9.24221e-06 
294 4.7828e-05 -3.68016e-05 -4.90145e-05 0.91 0 0 0 0.000393283 -0.000378822 4.21447e-05 
142 -0.000137076 -0.283021 -0.906689 0.91 0 0 0 0.00228182 4.45304 14.017 
193 4.79782e-05 -0.00016034 -5.7479e-06 0.91 0 0 0 0.000387417 0.00489573 -0.00176251 
183 4.55855e-05 -3.2312e-05 -4.72303e-05 0.91 0 0 0 0.000319617 -0.000231638 9.31582e-06 
98 -7.88002e-05 6.12902e-06 -4.70421e-05 0.91 0 0 0 0.00573739 -0.00219092 4.32193e-06 
111 4.99245e-05 -3.68073e-05 -4.9304e-05 0.91 0 0 0 0.000367732 -0.000378728 3.49177e-05 
196 4.78275e-05 -3.23215e-05 -4.94744e-05 0.91 0 0 0 0.000393049 -0.000228643 -6.55449e-05 
176 2.2196e-05 -0.0128497 -6.40638e-05 0.91 0 0 0 9.3472e-05 2.84474 0.00328459 
162 -0.000484353 -0.90651 -0.281536 0.91 0 0 0 0.00648759 14.0241 4.43309 
34 5.23138e-05 -3.45585e-05 -4.72149e-05 0.91 0 0 0 0.000543266 -0.000303875 9.27314e-06 
61 -1.83521 -0.000402819 -1.83177 0.91 0 0 0 -0.536752 -0.00931907 -0.517687 
59 -0.297854 0.000548099 -0.952645 0.91 0 0 0 4.38886 -0.0100275 13.762 
144 -0.00197048 -1.82699 -1.82387 0.91 0 0 0 -0.0240904 -0.457122 -0.442296 
202 4.52218e-05 -3.54863e-05 -4.85409e-05 0.91 0 0 0 4.39224e-05 -0.000203341 -0.000164179 
304 4.78296e-05 -4.12992e-05 -4.94692e-05 0.91 0 0 0 0.00039341 -0.000527277 -6.5243e-05 
317 4.78213e-05 -3.90538e-05 -5.16954e-05 0.91 0 0 0 0.000393207 -0.000454866 -0.000142878 
305 4.65156e-05 -3.94464e-05 -4.85282e-05 0.91 0 0 0 0.000219732 -0.000727618 -0.000164104 
300 4.54916e-05 -3.91553e-05 -4.95473e-05 0.91 0 0 0 0.000402932 -0.000368872 1.91602e-05 
285 4.55921e-05 -4.13052e-05 -4.72166e-05 0.91 0 0 0 0.000318291 -0.000528927 9.14549e-06 
301 4.51779e-05 -3.81483e-05 -4.85497e-05 0.91 0 0 0 4.71848e-05 -0.000550944 -0.000162345 
318 4.65382e-05 -3.81038e-05 -4.97931e-05 0.91 0 0 0 0.000216725 -0.000555736 -0.000344359 
201 4.54936e-05 -3.44715e-05 -4.95454e-05 0.91 0 0 0 0.000403031 -0.000388565 1.93722e-05 
188 4.33534e-05 -3.45546e-05 -4.72287e-05 0.91 0 0 0 0.000243698 -0.000303726 9.33483e-06 
186 4.78346e-05 -3.50094e-05 -4.72188e-05 0.91 0 0 0 0.000393143 -0.000411403 9.47013e-06 
213 4.64833e-05 -3.54577e-05 -4.99173e-05 0.91 0 0 0 0.0002223 -0.000208306 -0.000332735 
314 4.55861e-05 -3.68091e-05 -5.16929e-05 0.91 0 0 0 0.000316057 -0.000378761 -0.000144548 
114 5.04142e-05 -3.81059e-05 -4.85112e-05 0.91 0 0 0 0.000745805 -0.000553859 -0.000166542 
280 4.5736e-05 -3.88932e-05 -4.72195e-05 0.91 0 0 0 0.000418804 -0.000353155 9.45122e-06 
212 4.78188e-05 -3.45658e-05 -5.17096e-05 0.91 0 0 0 0.000392966 -0.000303712 -0.000141374 
35 4.99147e-05 -3.47287e-05 -4.7218e-05 0.91 0 0 0 0.000367638 -0.000404273 9.42568e-06 
182 4.7832e-05 -3.19072e-05 -4.72198e-05 0.91 0 0 0 0.000393134 -0.000337297 9.47322e-06 
45 5.01539e-05 -3.44837e-05 -4.95346e-05 0.91 0 0 0 0.000383003 -0.000389033 1.9718e-05 
197 4.64817e-05 -3.41015e-05 -4.85812e-05 0.91 0 0 0 0.000222919 -3.75565e-05 -0.000159999 
124 5.00693e-05 -3.68007e-05 -5.16947e-05 0.91 0 0 0 0.000469866 -0.00037866 -0.000143382 
115 5.01651e-05 -3.91361e-05 -4.9556e-05 0.91 0 0 0 0.000383474 -0.000368852 1.92688e-05 
26 -1.83625 -1.8397 -0.000739439 0.91 0 0 0 -0.545415 -0.541425 -0.00819125 
288 4.77744e-05 1.55493e-05 -4.71866e-05 0.91 0 0 0 0.0003959 -0.0035767 9.54121e-06 
306 8.51023e-05 3.6042e-07 -2.87156e-05 0.91 0 0 0 -0.00182613 -0.00259384 -0.00109357 
286 6.17023e-05 -2.29512e-05 -4.72051e-05 0.91 0 0 0 -0.000898162 -0.00167201 8.78389e-06 
321 4.77801e-05 -2.31316e-05 -3.3541e-05 0.91 0 0 0 0.0003965 -0.00166199 -0.00127301 
187 4.57477e-05 -3.47289e-05 -4.72068e-05 0.91 0 0 0 0.000418743 -0.000404221 9.31772e-06 
322 6.74949e-05 2.52338e-06 -7.90241e-06 0.91 0 0 0 -0.000754658 -0.00267148 -0.00228183 
319 8.62984e-05 -1.75564e-05 -8.76995e-06 0.91 0 0 0 -0.00186784 -0.00151177 -0.0022518 
275 4.60218e-05 -3.68069e-05 -4.72126e-05 0.91 0 0 0 0.000425989 -0.000378706 9.3606e-06 
100 4.99226e-05 -3.89011e-05 -4.72065e-05 0.91 0 0 0 0.000367736 -0.000353126 9.24967e-06 
277 0.000100705 -3.68906e-05 -4.72071e-05 0.91 0 0 0 -0.00282159 -0.000374915 7.54758e-06 
281 4.33482e-05 -3.90729e-05 -4.72157e-05 0.91 0 0 0 0.00024472 -0.000452799 9.45947e-06 
214 8.59919e-05 -5.58586e-05 -9.24152e-06 0.91 0 0 0 -0.00185803 0.000747577 -0.00223415 
284 4.78344e-05 -4.17094e-05 -4.72009e-05 0.91 0 0 0 0.00039329 -0.000419291 9.36067e-06 
276 4.29441e-05 -3.68198e-05 -4.72067e-05 0.91 0 0 0 0.000353034 -0.000378613 9.56535e-06 
99 5.23108e-05 -3.90567e-05 -4.71987e-05 0.91 0 0 0 0.000544083 -0.000453806 9.46779e-06 
118 4.9144e-05 -3.94447e-05 -4.85223e-05 0.91 0 0 0 0.000567656 -0.000727004 -0.000163887 
127 4.9118e-05 -3.80958e-05 -4.9791e-05 0.91 0 0 0 0.000570759 -0.000554837 -0.000344184 
44 5.04946e-05 -3.54643e-05 -4.85526e-05 0.91 0 0 0 0.000738108 -0.000207375 -0.000161837 
53 4.91513e-05 -3.5469e-05 -4.9857e-05 0.91 0 0 0 0.000567292 -0.000204734 -0.00033707 
95 5.27152e-05 -3.68019e-05 -4.72167e-05 0.91 0 0 0 0.000432822 -0.000378645 9.23264e-06 
282 0.000175749 6.13358e-06 -4.71499e-05 0.91 0 0 0 -0.00498506 -0.00218655 5.72432e-06 
110 5.23002e-05 -3.68143e-05 -4.94606e-05 0.91 0 0 0 0.000546264 -0.000379051 -6.71205e-05 
289 8.9916e-05 8.78532e-05 -4.71975e-05 0.91 0 0 0 -0.00139508 -0.00568001 1.03355e-05 
31 5.00834e-05 -3.23173e-05 -4.72065e-05 0.91 0 0 0 0.000467585 -0.000230141 9.84871e-06 
41 4.91251e-05 -3.42244e-05 -4.85229e-05 0.91 0 0 0 0.000570089 -2.59623e-05 -0.00016732 
332 4.79999e-05 6.44256e-06 8.17232e-05 0.91 0 0 0 0.000384265 -0.00218949 -0.0053964 
167 4.78372e-05 -3.23367e-05 -4.49719e-05 0.91 0 0 0 0.000393118 -0.000224881 8.63412e-05 
308 4.76423e-05 9.20258e-05 -3.60096e-06 0.91 0 0 0 0.00039948 -0.0057803 -0.00181601 
241 4.55934e-05 -3.68237e-05 -4.27435e-05 0.91 0 0 0 0.000315211 -0.00037863 0.00016435 
302 0.000313755 5.31207e-05 4.27143e-05 0.91 0 0 0 -0.00684783 -0.00282479 -0.00243672 
333 0.000135964 5.14562e-05 0.000214874 0.91 0 0 0 -0.00203409 -0.00280645 -0.00722413 
309 0.00013805 0.000229549 4.27169e-05 0.91 0 0 0 -0.00205606 -0.00762736 -0.00242904 
82 4.9919e-05 -3.68176e-05 -4.51132e-05 0.91 0 0 0 0.000367784 -0.00037857 -1.63226e-05 
256 4.57386e-05 -3.68122e-05 -4.51319e-05 0.91 0 0 0 0.000418757 -0.000378604 -1.61558e-05 
255 4.78395e-05 -3.68077e-05 -4.54032e-05 0.91 0 0 0 0.000393059 -0.000378705 -2.35091e-05 
172 4.55006e-05 -3.44668e-05 -4.48772e-05 0.91 0 0 0 0.000402809 -0.000388399 -4.02191e-07 
81 5.23071e-05 -3.68018e-05 -4.49543e-05 0.91 0 0 0 0.000544426 -0.000378289 8.49174e-05 
171 4.78418e-05 -3.47191e-05 -4.51371e-05 0.91 0 0 0 0.000393053 -0.000404324 -1.61703e-05 
260 4.78385e-05 -3.89024e-05 -4.51234e-05 0.91 0 0 0 0.000393117 -0.000353068 -1.62428e-05 
257 4.33516e-05 -3.68088e-05 -4.49796e-05 0.91 0 0 0 0.000241386 -0.000378192 8.46318e-05 
86 5.01769e-05 -3.91591e-05 -4.48613e-05 0.91 0 0 0 0.000383839 -0.000369182 -2.14088e-07 
240 4.78291e-05 -3.68255e-05 -4.23247e-05 0.91 0 0 0 0.000393063 -0.000378629 4.8466e-05 
261 4.54898e-05 -3.9161e-05 -4.48743e-05 0.91 0 0 0 0.000402691 -0.000368971 -2.54622e-07 
329 9.01022e-05 -3.66486e-05 7.7659e-05 0.91 0 0 0 -0.00140202 -0.000383888 -0.00529616 
24 5.01638e-05 -3.44786e-05 -4.4888e-05 0.91 0 0 0 0.00038316 -0.000388725 -7.39091e-07 
297 0.000173422 -3.6854e-05 -4.98959e-06 0.91 0 0 0 -0.00492812 -0.000377508 -0.001782 
225 8.97419e-05 -8.95678e-06 -0.0167126 0.91 0 0 0 -0.00483851 -0.00410642 3.04421 
135 4.16883e-06 -3.69155e-05 8.2271e-05 0.91 0 0 0 0.00221672 -0.000371701 -0.00540879 
123 3.44192e-05 -3.68074e-05 -3.38329e-05 0.91 0 0 0 0.00166238 -0.000377181 -0.00125942 
94 -5.8191e-06 -3.68297e-05 -4.71353e-05 0.91 0 0 0 0.00363658 -0.000376845 5.69995e-06 
102 3.42668e-05 -2.33319e-05 -4.71877e-05 0.91 0 0 0 0.00167109 -0.00165126 9.13214e-06 
52 9.96912e-06 -5.56232e-05 -9.24788e-06 0.91 0 0 0 0.00263045 0.000737218 -0.00223684 
106 5.31618e-06 8.88424e-05 -4.7001e-05 0.91 0 0 0 0.00219158 -0.0057033 3.17394e-06 
117 9.11108e-06 1.84553e-06 -2.79128e-05 0.91 0 0 0 0.00266282 -0.0026469 -0.00112249 
126 9.56585e-06 -1.77517e-05 -9.01107e-06 0.91 0 0 0 0.00264654 -0.00150204 -0.0022422 
130 2.89456e-05 1.08321e-06 -9.29166e-06 0.91 0 0 0 0.00150912 -0.00261947 -0.00223259 
209 6.66329e-05 -7.43782e-05 -9.67485e-06 0.91 0 0 0 -0.000722724 0.00185166 -0.00222005 
184 6.12327e-05 -5.01429e-05 -4.72395e-05 0.91 0 0 0 -0.000876506 0.000887046 9.3436e-06 
30 3.40598e-05 -5.06005e-05 -4.72433e-05 0.91 0 0 0 0.00167931 0.000911616 1.14106e-05 
50 2.83817e-05 -7.58827e-05 -8.12213e-06 0.91 0 0 0 0.00152957 0.00190648 -0.00227637 
40 1.01655e-05 -7.44324e-05 -2.84894e-05 0.91 0 0 0 0.0026252 0.00185423 -0.00110306 
198 8.59929e-05 -7.49285e-05 -2.82607e-05 0.91 0 0 0 -0.00185667 0.00187126 -0.00111254 
203 0.000310141 -0.00012559 4.16447e-05 0.91 0 0 0 -0.00682806 0.00206091 -0.00243686 
221 0.000137974 -0.000127196 0.000220435 0.91 0 0 0 -0.00204439 0.00206839 -0.00725101 
208 4.78336e-05 -5.04913e-05 -3.3507e-05 0.91 0 0 0 0.000392628 0.000904874 -0.00127689 
220 4.79776e-05 -7.881e-05 7.76881e-05 0.91 0 0 0 0.00038592 0.00140734 -0.00529853 
178 4.78569e-05 -9.09036e-05 -4.72645e-05 0.91 0 0 0 0.0003924 0.00288326 1.03857e-05 
189 0.000175431 -7.97629e-05 -4.71563e-05 0.91 0 0 0 -0.00497647 0.00142868 4.60462e-06 
20 4.92004e-05 -3.40806e-05 -4.58494e-05 0.91 0 0 0 0.000561872 -4.02877e-05 0.000178029 
154 4.78188e-05 -5.05605e-05 -6.09321e-05 0.91 0 0 0 0.00039583 0.000908486 0.00129345 
168 4.64964e-05 -3.41267e-05 -4.58774e-05 0.91 0 0 0 0.00022188 -3.55261e-05 0.000180356 
85 5.04272e-05 -3.81216e-05 -4.58982e-05 0.91 0 0 0 0.000744787 -0.000553774 0.000183961 
14 4.91581e-05 -3.55013e-05 -4.45803e-05 0.91 0 0 0 0.000567642 -0.000205278 0.000357626 
169 8.53675e-05 -7.43238e-05 -6.59601e-05 0.91 0 0 0 -0.00183332 0.00184874 0.00112183 
19 9.70495e-06 -7.48578e-05 -6.61412e-05 0.91 0 0 0 0.00264328 0.00186825 0.00112761 
73 4.91844e-05 -3.81757e-05 -4.45123e-05 0.91 0 0 0 0.000564087 -0.00054943 0.000350497 
323 0.000339414 0.000255244 0.000244787 0.91 0 0 0 -9.97832e-05 -0.000876854 -0.000491263 
23 5.04972e-05 -3.54709e-05 -4.58712e-05 0.91 0 0 0 0.00073769 -0.000206919 0.000180889 
69 3.46694e-05 -3.6799e-05 -6.03663e-05 0.91 0 0 0 0.00165057 -0.000380874 0.00126797 
248 4.78568e-05 -2.34044e-05 -6.06656e-05 0.91 0 0 0 0.000391254 -0.00164893 0.00128315 
70 5.00937e-05 -3.68149e-05 -4.27237e-05 0.91 0 0 0 0.000467972 -0.000378496 0.000157852 
88 1.01206e-05 7.66019e-07 -6.59434e-05 0.91 0 0 0 0.00262768 -0.00260809 0.00112336 
266 4.65232e-05 -3.94486e-05 -4.58919e-05 0.91 0 0 0 0.000219287 -0.000727669 0.000183124 
158 4.78427e-05 -3.45597e-05 -4.27195e-05 0.91 0 0 0 0.000393242 -0.000304649 0.000156842 
244 4.78295e-05 -3.90687e-05 -4.27322e-05 0.91 0 0 0 0.000392924 -0.0004549 0.000161637 
267 8.64096e-05 1.74495e-06 -6.64057e-05 0.91 0 0 0 -0.00187129 -0.00264582 0.00113832 
242 6.09048e-05 -3.68213e-05 -6.02544e-05 0.91 0 0 0 -0.00085948 -0.00037991 0.00126136 
173 4.52081e-05 -3.54949e-05 -4.58961e-05 0.91 0 0 0 4.5033e-05 -0.000205196 0.000183123 
159 4.6505e-05 -3.54787e-05 -4.45463e-05 0.91 0 0 0 0.000220991 -0.000206371 0.000353675 
109 -8.00548e-05 -3.67543e-05 -3.97044e-06 0.91 0 0 0 0.00576845 -0.000379307 -0.00180782 
120 -4.18046e-05 0.000227941 4.23429e-05 0.91 0 0 0 0.00283354 -0.00761767 -0.00242908 
33 -8.06636e-05 -8.0311e-05 -4.72449e-05 0.91 0 0 0 0.00578332 0.00144782 1.12241e-05 
43 -0.000218898 -0.000127176 4.23551e-05 0.91 0 0 0 0.00763835 0.00207499 -0.00241928 
57 -4.00727e-05 -0.000124817 0.000213837 0.91 0 0 0 0.00281698 0.00205544 -0.0072183 
113 -0.000212844 5.11406e-05 4.07003e-05 0.91 0 0 0 0.00760791 -0.00280725 -0.0024174 
137 -4.15718e-05 5.30563e-05 0.000218633 0.91 0 0 0 0.00282005 -0.0028192 -0.00723858 
179 9.06801e-05 -0.000163649 -4.74286e-05 0.91 0 0 0 -0.00141242 0.00497528 1.56611e-05 
28 4.83552e-06 -0.000163542 -4.71877e-05 0.91 0 0 0 0.00220703 0.00497209 6.39042e-06 
287 -1.40307e-05 -8.38525e-05 -4.69546e-05 0.91 0 0 0 0.0465399 0.0312882 2.22259e-06 
38 -4.05069e-05 -0.000299395 4.09735e-05 0.91 0 0 0 0.00282026 0.00686003 -0.00241809 
290 9.35913e-06 -8.39048e-05 -4.7181e-05 0.91 0 0 0 0.0315231 0.0449014 2.57286e-05 
194 0.000138382 -0.000304823 4.33027e-05 0.91 0 0 0 -0.00204926 0.00687884 -0.0024395 
25 -0.272602 -0.875341 0.000524647 0.91 0 0 0 4.48551 14.162 -0.00946609 
335 4.8157e-05 -8.00938e-05 -0.000101918 0.91 0 0 0 0.000437766 0.0311195 0.045712 
325 4.81571e-05 -9.87371e-05 -9.53298e-05 0.91 0 0 0 0.000332076 0.0457869 0.031759 
165 0.000137339 -0.000301607 -0.000136863 0.91 0 0 0 -0.0020438 0.00686074 0.00245087 
17 -4.03362e-05 -0.000298822 -0.000136165 0.91 0 0 0 0.00281939 0.00684904 0.00245503 
164 4.78752e-05 -0.00016582 -9.0711e-05 0.91 0 0 0 0.0003928 0.00502811 0.00182943 
330 2.66421e-05 -3.70939e-05 -6.91541e-05 0.91 0 0 0 0.0304612 -0.000450044 0.0437805 
316 -8.60916e-05 -3.71841e-05 -0.000143323 0.91 0 0 0 0.0508093 -0.000318418 0.0346085 
22 -0.00021332 -0.000124633 -0.000135125 0.91 0 0 0 0.00761579 0.00204693 0.0024383 
148 4.76604e-05 -8.04851e-05 -0.000176321 0.91 0 0 0 0.000402325 0.00144817 0.00541734 
84 -0.000214945 5.21554e-05 -0.000136003 0.91 0 0 0 0.00761769 -0.00282071 0.00245012 
91 -4.2105e-05 0.000231183 -0.000137347 0.91 0 0 0 0.00282121 -0.007643 0.00244959 
174 0.000304611 -0.000123201 -0.000133635 0.91 0 0 0 -0.00680264 0.0020367 0.00242495 
160 8.65457e-05 -5.61061e-05 -8.58443e-05 0.91 0 0 0 -0.00187643 0.000753492 0.00227596 
11 2.86916e-05 -7.52343e-05 -8.55994e-05 0.91 0 0 0 0.00152096 0.00188198 0.00226767 
80 -7.88513e-05 -3.70165e-05 -8.9713e-05 0.91 0 0 0 0.00574162 -0.000369841 0.00180564 
155 6.69977e-05 -7.5266e-05 -8.57454e-05 0.91 0 0 0 -0.000732689 0.00188187 0.00227398 
246 8.64552e-05 -1.75372e-05 -8.57633e-05 0.91 0 0 0 -0.00187276 -0.00151419 0.00227352 
258 0.000173884 -3.69892e-05 -8.96048e-05 0.91 0 0 0 -0.00493891 -0.000373189 0.00180185 
233 4.7997e-05 6.2176e-06 -0.000174632 0.91 0 0 0 0.00038751 -0.00219325 0.00537738 
230 9.07714e-05 -3.67845e-05 -0.000174736 0.91 0 0 0 -0.00141181 -0.000382542 0.0053802 
63 5.67417e-06 -3.70522e-05 -0.000171685 0.91 0 0 0 0.00218616 -0.000370366 0.00530468 
76 2.89229e-05 1.21978e-06 -8.52129e-05 0.91 0 0 0 0.00151051 -0.00262682 0.00225554 
269 4.7704e-05 8.83312e-05 -8.94883e-05 0.91 0 0 0 0.000398127 -0.00569175 0.00180509 
129 -0.000242508 0.000254404 0.000244053 0.91 0 0 0 0.00105445 -0.00105351 -0.000663183 
105 7.9801e-05 -7.46783e-05 -4.77721e-05 0.91 0 0 0 -0.0303869 0.0443127 -6.58555e-06 
134 0.000130998 -3.73342e-05 -0.000158795 0.91 0 0 0 -0.0334065 -0.000328688 0.0491306 
217 4.8377e-05 5.91747e-06 -0.000101513 0.91 0 0 0 0.000312123 -0.0318581 0.0457155 
210 0.000337156 -0.000326899 0.000242928 0.91 0 0 0 -0.000550798 0.00057926 -0.000960551 
49 -0.000243723 -0.000328933 0.000244736 0.91 0 0 0 0.000874572 0.000126811 -0.000493095 
185 -1.43768e-06 1.71327e-06 -4.64797e-05 0.91 0 0 0 0.0458041 -0.0315015 -5.30655e-06 
29 8.88742e-05 -4.02492e-06 -4.74314e-05 0.91 0 0 0 -0.0445012 -0.031178 -2.47305e-06 
6 -4.08546e-05 -0.00012593 -0.000310571 0.91 0 0 0 0.00282505 0.0020618 0.00724581 
149 0.000138901 -0.000127304 -0.000316577 0.91 0 0 0 -0.00205134 0.00205214 0.00727283 
336 -0.00183829 -0.00384788 -0.00556955 0.91 0 0 0 0.0783391 0.157192 0.229037 
307 -0.00645384 -0.00452862 -0.00227615 0.91 0 0 0 0.248635 0.170669 0.08491 
10 -0.000242975 -0.000328148 -0.00033758 0.91 0 0 0 0.00112863 0.000360559 0.00075089 
334 -0.00431855 -0.00219581 -0.00635963 0.91 0 0 0 0.16925 0.0830208 0.244835 
310 -0.00383187 -0.00565129 -0.00197 0.91 0 0 0 0.15945 0.23049 0.0788456 
326 -0.00188393 -0.00567089 -0.00392853 0.91 0 0 0 0.079442 0.231001 0.158998 
320 -0.00565417 -0.00198714 -0.00398272 0.91 0 0 0 0.233139 0.0789215 0.160292 
156 0.000339037 -0.000328695 -0.000338768 0.91 0 0 0 -0.000125817 0.000151703 0.000539318 
65 -3.96969e-05 5.02e-05 -0.000306041 0.91 0 0 0 0.0028268 -0.00280098 0.00722416 
250 0.000336661 0.000253102 -0.000336424 0.91 0 0 0 -0.000629323 -0.00142697 0.00104524 
75 -0.000242674 0.000253129 -0.000338086 0.91 0 0 0 0.00122044 -0.00121517 0.000852961 
234 0.000137227 5.22874e-05 -0.000312953 0.91 0 0 0 -0.0020366 -0.00280895 0.00726269 
122 0.000135418 -3.71586e-05 -0.000112254 0.91 0 0 0 -0.0473147 -0.000357952 0.0327076 
132 0.00215353 -0.0061889 -0.00429268 0.91 0 0 0 -0.0820872 0.241424 0.166417 
116 0.00595415 -0.00410977 -0.0020627 0.91 0 0 0 -0.236578 0.162627 0.0805746 
125 0.00602495 -0.00207521 -0.00416741 0.91 0 0 0 -0.238003 0.0806856 0.163893 
136 0.00396398 -0.00198726 -0.00572806 0.91 0 0 0 -0.159276 0.0791347 0.232346 
119 0.00395422 -0.00569958 -0.00199494 0.91 0 0 0 -0.159136 0.231554 0.0794832 
139 0.00197321 -0.00389174 -0.00564018 0.91 0 0 0 -0.0786456 0.158041 0.23049 
101 0.000158414 -0.000117679 -4.79459e-05 0.91 0 0 0 -0.0486544 0.0333138 3.47292e-05 
27 0.000125147 6.66071e-05 -4.72157e-05 0.91 0 0 0 -0.0331033 -0.0490168 4.98201e-05 
55 0.00201826 0.0039523 -0.00580914 0.91 0 0 0 -0.0792321 -0.161936 0.233934 
205 4.81232e-05 -8.97122e-06 -7.12282e-05 0.91 0 0 0 0.000360537 -0.0444885 0.0303122 
39 0.00553763 0.00375472 -0.00191874 0.91 0 0 0 -0.227834 -0.157636 0.0775372 
51 0.00583996 0.00193391 -0.00404529 0.91 0 0 0 -0.234221 -0.07998 0.161523 
180 -5.30846e-05 0.000100793 -4.6219e-05 0.91 0 0 0 0.0352712 -0.0510078 -6.78566e-05 
56 0.00447509 0.00215227 -0.00645641 0.91 0 0 0 -0.169439 -0.0843814 0.246646 
222 -0.00427722 0.00210809 -0.00630695 0.91 0 0 0 0.168418 -0.0837333 0.243875 
215 -0.0056097 0.00189111 -0.0039415 0.91 0 0 0 0.232351 -0.0792404 0.159319 
218 -0.00197894 0.00406719 -0.00598834 0.91 0 0 0 0.0812587 -0.16417 0.2377 
199 -0.00621727 0.00428775 -0.00218714 0.91 0 0 0 0.244359 -0.16842 0.0831716 
145 4.72515e-05 5.52338e-05 7.82752e-05 0.91 0 0 0 0.000394962 -0.034732 -0.0499172 
62 0.000124731 -3.66334e-05 5.64387e-05 0.91 0 0 0 -0.0330808 -0.000378897 -0.0486517 
170 -0.00633926 0.00436856 0.00213838 0.91 0 0 0 0.246643 -0.169848 -0.0839242 
68 8.812e-05 -3.67678e-05 -1.49554e-05 0.91 0 0 0 -0.0444631 -0.000344256 -0.0307691 
18 0.00582534 0.00395091 0.00193259 0.91 0 0 0 -0.233886 -0.161675 -0.0800489 
236 4.74317e-05 -8.89838e-05 2.11316e-05 0.91 0 0 0 0.000340717 0.031631 -0.0465487 
252 4.74188e-05 -8.30128e-05 -1.00024e-05 0.91 0 0 0 0.000434939 0.0447977 -0.0311541 
231 7.61218e-06 -3.64882e-05 2.26066e-06 0.91 0 0 0 0.031596 -0.000354402 -0.045425 
243 5.69591e-06 -3.63943e-05 -1.33667e-05 0.91 0 0 0 0.0453004 -0.000484091 -0.0308967 
151 4.74816e-05 3.58406e-05 8.24822e-06 0.91 0 0 0 0.000351959 -0.0471751 -0.0321985 
90 0.00414335 -0.00596804 0.00198622 0.91 0 0 0 -0.163098 0.237029 -0.0811441 
268 -0.00587301 -0.00411633 0.00197081 0.91 0 0 0 0.237667 0.162685 -0.0806083 
271 -0.00410524 -0.00603535 0.00201606 0.91 0 0 0 0.165097 0.238238 -0.0818058 
87 0.00609297 -0.00421495 0.00201135 0.91 0 0 0 -0.239288 0.164846 -0.0813893 
161 -0.00613231 0.00208111 0.00422149 0.91 0 0 0 0.242646 -0.0831681 -0.166875 
140 -0.286946 0.00140707 0.9241 0.91 0 0 0 4.40566 -0.0206322 -13.935 
339 4.11836e-05 -4.03359e-05 0.00924822 0.91 0 0 0 0.000569203 0.0027274 -2.65805 
4 0.00213094 0.00417706 0.00605423 0.91 0 0 0 -0.0815759 -0.166244 -0.240806 
58 -0.586937 -0.589097 1.94406 0.91 0 0 0 0.981117 0.991918 -2.46841 
150 -0.00394065 0.00194565 0.00573258 0.91 0 0 0 0.16162 -0.0804985 -0.234355 
12 0.00616711 0.0020488 0.00418632 0.91 0 0 0 -0.240691 -0.0822843 -0.166377 
146 -0.00212912 0.00434301 0.00628685 0.91 0 0 0 0.0843325 -0.169454 -0.245129 
54 -0.938066 -0.940006 1.38529 0.91 0 0 0 2.53978 2.54828 -3.63257 
191 -0.000981304 -0.952751 0.29763 0.91 0 0 0 0.0155093 13.7597 -4.38231 
216 0.00179697 -1.8289 1.82911 0.91 0 0 0 0.0103323 -0.508454 0.487009 
36 -0.579108 -1.9214 0.579662 0.91 0 0 0 1.05647 2.70507 -1.04935 
5 0.00440334 0.0021148 0.00625138 0.91 0 0 0 -0.168254 -0.0836332 -0.24454 
108 -0.889292 -2.77549e-05 0.278283 0.91 0 0 0 14.0915 -0.000401349 -4.48482 
67 0.0019949 -0.00398521 0.0056559 0.91 0 0 0 -0.0788174 0.160279 -0.232715 
133 -1.83338 -0.000192781 1.82988 0.91 0 0 0 -0.523146 -0.00239285 0.498801 
46 -0.955747 -1.40757 0.95131 0.91 0 0 0 2.38723 3.38729 -2.37435 
42 -1.91401 -0.577186 0.579074 0.91 0 0 0 2.76687 1.07058 -1.06947 
223 0.000602769 -0.284975 0.916152 0.91 0 0 0 -0.0101411 4.42477 -13.976 
48 -1.39937 -0.944109 0.94854 0.91 0 0 0 3.48833 2.44391 -2.45198 
235 -0.00371542 -0.00189883 0.00540919 0.91 0 0 0 0.156855 0.0770334 -0.227613 
237 -0.0018366 -0.0038363 0.00545451 0.91 0 0 0 0.0783283 0.156983 -0.22852 
253 -0.00187424 -0.00565645 0.00382785 0.91 0 0 0 0.0790986 0.230686 -0.158907 
71 0.00609159 -0.00210553 0.00411897 0.91 0 0 0 -0.239315 0.0814129 -0.164824 
78 0.00213356 -0.00612638 0.00416511 0.91 0 0 0 -0.0817391 0.240095 -0.165917 
247 -0.00599012 -0.00210677 0.00410995 0.91 0 0 0 0.239969 0.0815008 -0.16454 
64 0.00400853 -0.00200558 0.00569281 0.91 0 0 0 -0.160317 0.0794636 -0.233557 
83 -1.90953 0.576363 -0.578328 0.91 0 0 0 2.80955 -1.07951 1.08962 
60 -0.579951 0.585386 -1.93273 0.91 0 0 0 1.02054 -1.02871 2.59536 
227 0.00079464 0.281737 -0.902418 0.91 0 0 0 -0.00811917 -4.46071 14.0361 
92 -0.578029 1.91649 -0.576861 0.91 0 0 0 1.06234 -2.76514 1.07118 
239 0.000270058 1.83706 -1.83586 0.91 0 0 0 0.00150494 0.503712 -0.511023 
37 0.00446911 0.00636638 -0.00224413 0.91 0 0 0 -0.169273 -0.246928 0.0843084 
47 0.00208021 0.00587188 -0.00412004 0.91 0 0 0 -0.0807567 -0.237443 0.162946 
66 -0.950967 0.950168 -1.40534 0.91 0 0 0 2.40717 -2.40575 3.43173 
77 -0.950288 1.40305 -0.948538 0.91 0 0 0 2.42116 -3.44773 2.4234 
74 -1.3948 0.942562 -0.942719 0.91 0 0 0 3.54516 -2.48334 2.48904 
97 -0.9111 0.282566 0.000596117 0.91 0 0 0 14.0011 -4.4216 -0.00766089 
292 5.16749e-05 0.00910345 -5.73121e-05 0.91 0 0 0 0.00146876 -2.64965 0.00315237 
195 -0.00393664 0.00573864 -0.00201172 0.91 0 0 0 0.161638 -0.234813 0.0795502 
272 -0.0011569 0.889077 -0.276987 0.91 0 0 0 0.0197928 -14.1042 4.46936 
104 -1.83368 1.83223 -0.000602093 0.91 0 0 0 -0.540924 0.529078 0.00520048 
107 -0.292192 0.935309 0.000731958 0.91 0 0 0 4.41238 -13.8628 -0.00938053 
206 -0.00183899 0.0054631 -0.00383866 0.91 0 0 0 0.078572 -0.228966 0.157159 
16 0.00395099 0.00561465 0.00189064 0.91 0 0 0 -0.159132 -0.23208 -0.0791734 
166 -0.00408554 0.00594327 0.00200318 0.91 0 0 0 0.164683 -0.238803 -0.0813786 
311 0.000268415 0.891225 0.278623 0.91 0 0 0 -0.00318514 -14.0868 -4.47715 
141 -0.576501 0.574625 1.91227 0.91 0 0 0 1.08396 -1.07861 -2.81948 
121 -0.578847 1.91837 0.581145 0.91 0 0 0 1.05395 -2.72832 -1.06165 
8 0.00190976 0.00541781 0.00371722 0.91 0 0 0 -0.0770133 -0.227945 -0.156578 
138 -0.964074 0.963957 1.42305 0.91 0 0 0 2.26884 -2.26946 -3.21954 
112 -1.91617 0.580864 0.577476 0.91 0 0 0 2.73957 -1.06675 -1.06035 
341 -0.000598035 0.286442 0.919056 0.91 0 0 0 0.00924621 -4.42593 -13.9558 
128 -1.38497 0.936829 0.93702 0.91 0 0 0 3.64455 -2.55418 -2.55672 
131 -0.9466 1.396 0.945731 0.91 0 0 0 2.46495 -3.50938 -2.46628 
338 0.0012042 1.82454 1.8242 0.91 0 0 0 0.00975779 0.470938 0.465632 
152 -0.00191802 0.00568322 0.00391231 0.91 0 0 0 0.0801793 -0.233428 -0.160807 
175 1.91641 -0.57903 -0.578452 0.91 0 0 0 -2.76358 1.06696 1.06316 
143 0.58772 -0.586762 -1.94477 0.91 0 0 0 -0.996119 1.0016 2.48415 
278 0.014695 -3.56594e-05 -6.13543e-05 0.91 0 0 0 -2.94096 0.00327444 0.00147498 
163 0.579642 -1.92544 -0.58141 0.91 0 0 0 -1.0436 2.67158 1.05169 
177 0.2841 -0.914827 0.000577133 0.91 0 0 0 -4.42162 13.981 -0.00747467 
147 0.959041 -0.956663 -1.41563 0.91 0 0 0 -2.34017 2.34098 3.33 
259 0.891726 -0.000545012 -0.279213 0.91 0 0 0 -14.0859 0.00917281 4.48117 
232 1.82127 0.00227106 -1.82113 0.91 0 0 0 0.446101 0.0160582 -0.437618 
190 0.934801 -0.291466 -0.000287642 0.91 0 0 0 -13.8736 4.40445 0.00213539 
226 0.274559 0.0014998 -0.877368 0.91 0 0 0 -4.49964 -0.0223185 14.1483 
157 1.39189 -0.942032 -0.940275 0.91 0 0 0 -3.58325 2.51874 2.51265 
153 0.951987 -1.40795 -0.951916 0.91 0 0 0 -2.3953 3.41166 2.40022 
224 0.591513 -0.584809 1.94962 0.91 0 0 0 -0.979557 0.964321 -2.43003 
298 0.886103 0.000938474 0.277162 0.91 0 0 0 -14.1146 -0.0150816 -4.49028 
192 0.578213 -1.91263 0.5797 0.91 0 0 0 -1.06829 2.77446 -1.06824 
331 1.8403 0.000219692 1.84083 0.91 0 0 0 0.51707 -0.00730616 0.513743 
219 0.943636 -0.941949 1.3906 0.91 0 0 0 -2.50426 2.49373 -3.5754 
181 1.83113 -1.83321 0.00388152 0.91 0 0 0 0.517402 -0.522934 0.0175483 
211 1.37763 -0.932574 0.934291 0.91 0 0 0 -3.72214 2.59144 -2.60326 
204 1.94672 -0.585983 0.589013 0.91 0 0 0 -2.4472 0.966617 -0.980366 
340 0.271507 -0.000456924 0.873271 0.91 0 0 0 -4.48224 0.00911324 -14.178 
207 0.943048 -1.39157 0.94494 0.91 0 0 0 -2.48547 3.54147 -2.49062 
254 0.943181 1.39264 -0.945062 0.91 0 0 0 -2.48328 -3.55615 2.48795 
238 0.953476 0.951446 -1.40822 0.91 0 0 0 -2.38225 -2.38653 3.39269 
291 1.83249 1.83276 -0.00102896 0.91 0 0 0 0.511826 0.510925 0.00602399 
228 0.578292 0.579105 -1.91453 0.91 0 0 0 -1.06857 -1.07417 2.78473 
283 0.948709 0.296009 -0.00061014 0.91 0 0 0 -13.7929 -4.3838 0.00637155 
293 0.297387 0.953336 5.45848e-05 0.91 0 0 0 -4.37499 -13.763 0.000928199 
251 1.37234 0.930794 -0.931579 0.91 0 0 0 -3.76833 -2.6391 2.63093 
273 0.58533 1.94814 -0.592041 0.91 0 0 0 -0.968918 -2.42924 0.981277 
264 1.9489 0.590121 -0.590138 0.91 0 0 0 -2.41135 -0.971298 0.961044 
342 0.584513 0.58635 1.93754 0.91 0 0 0 -1.01167 -1.00235 -2.54791 
337 0.949588 0.95064 1.40076 0.91 0 0 0 -2.42989 -2.42232 -3.45701 
324 1.39361 0.945973 0.943216 0.91 0 0 0 -3.54487 -2.47969 -2.47724 
327 0.928227 1.37339 0.932106 0.91 0 0 0 -2.62951 -3.76871 -2.63553 
312 0.588004 1.94417 0.585703 0.91 0 0 0 -0.984274 -2.4648 -0.971507 
303 1.93765 0.586328 0.585857 0.91 0 0 0 -2.54046 -1.00059 -1.00277 
ITEM: TIMESTEP
960118
ITEM: NUMBER OF ATOMS
341
ITEM: BOX BOUNDS ss ss ss
-1.9360300446137211e+00 1.9495118901764781e+00
-1.9388440561347573e+00 1.9487524452880283e+00
-1.9453750558316978e+00 1.9502296762444777e+00
ITEM: ATOMS id x y z width_SPH x_COM y_COM z_COM vx vy vz 
2 -0.585101 -0.586069 -1.9354 0.91 0 0 0 1.00611 1.00859 2.55694 
3 -0.94657 -0.947506 -1.39609 0.91 0 0 0 2.45491 2.45384 3.50147 
13 8.21417e-06 -5.65995e-05 -8.68624e-05 0.91 0 0 0 0.00269509 0.00077209 0.00231439 
72 1.00063e-05 -1.80689e-05 -8.50026e-05 0.91 0 0 0 0.0026316 -0.00149072 0.00224848 
103 5.00792e-05 -4.13095e-05 -4.72109e-05 0.91 0 0 0 0.000466882 -0.000525724 9.0691e-06 
7 -0.940325 -1.38946 -0.939627 0.91 0 0 0 2.518 3.5988 2.5136 
263 0.000317192 5.35832e-05 -0.000138378 0.91 0 0 0 -0.00686485 -0.0028142 0.00246038 
9 -1.37995 -0.939323 -0.934128 0.91 0 0 0 3.67052 2.57624 2.56359 
265 4.7828e-05 -4.1298e-05 -4.49718e-05 0.91 0 0 0 0.000393045 -0.000531791 8.54215e-05 
313 4.78372e-05 -3.68161e-05 -5.21076e-05 0.91 0 0 0 0.00039336 -0.000378795 -3.02982e-05 
270 0.000135086 0.000222796 -0.000134856 0.91 0 0 0 -0.00202594 -0.00759998 0.00244272 
296 4.33362e-05 -3.68211e-05 -4.94715e-05 0.91 0 0 0 0.000246717 -0.000378882 -6.3284e-05 
299 4.78249e-05 -3.88974e-05 -4.93001e-05 0.91 0 0 0 0.00039331 -0.000353082 3.49871e-05 
15 -0.5845 -1.93823 -0.585914 0.91 0 0 0 1.00084 2.53063 1.00154 
229 4.78687e-05 -3.68081e-05 -0.000102261 0.91 0 0 0 0.000392271 -0.00038092 0.00330585 
328 4.78194e-05 -3.68555e-05 5.94629e-06 0.91 0 0 0 0.000392691 -0.00037421 -0.00321797 
249 6.72421e-05 2.02515e-06 -8.59638e-05 0.91 0 0 0 -0.000743776 -0.00265648 0.00228068 
279 4.78279e-05 -3.86264e-05 -4.7213e-05 0.91 0 0 0 0.000393272 -0.000345765 9.37545e-06 
295 4.57326e-05 -3.68113e-05 -4.93139e-05 0.91 0 0 0 0.000418663 -0.000378629 3.4979e-05 
21 -1.93542 -0.586852 -0.584126 0.91 0 0 0 2.52979 1.00383 1.00105 
274 4.78326e-05 -3.68108e-05 -4.72089e-05 0.91 0 0 0 0.000393175 -0.000378641 9.28179e-06 
245 4.65345e-05 -3.81364e-05 -4.45929e-05 0.91 0 0 0 0.000218779 -0.000553096 0.000359542 
200 4.78227e-05 -3.472e-05 -4.93163e-05 0.91 0 0 0 0.000393302 -0.000404138 3.50702e-05 
93 -0.0133711 -4.27042e-05 -3.30156e-05 0.91 0 0 0 2.87723 -0.000658085 0.000205959 
89 4.9142e-05 -3.94503e-05 -4.58784e-05 0.91 0 0 0 0.00056656 -0.000726928 0.000183293 
32 -0.952926 -0.298395 -0.000546336 0.91 0 0 0 13.7548 4.38974 0.0085621 
79 -0.929845 0.000284136 -0.288603 0.91 0 0 0 13.9017 -0.00626437 4.39601 
262 4.52403e-05 -3.81353e-05 -4.59054e-05 0.91 0 0 0 4.22809e-05 -0.000554063 0.000184472 
315 6.20366e-05 -3.6835e-05 -3.30553e-05 0.91 0 0 0 -0.000915263 -0.00037598 -0.00129749 
96 4.96483e-05 -3.68137e-05 -4.7207e-05 0.91 0 0 0 0.000360347 -0.000378603 9.26141e-06 
294 4.78282e-05 -3.68017e-05 -4.90145e-05 0.91 0 0 0 0.000393266 -0.000378812 4.21644e-05 
142 -0.000137075 -0.283019 -0.906682 0.91 0 0 0 0.00228181 4.45305 14.0171 
193 4.79783e-05 -0.000160338 -5.74878e-06 0.91 0 0 0 0.0003874 0.00489568 -0.00176247 
183 4.55856e-05 -3.23121e-05 -4.72302e-05 0.91 0 0 0 0.000319604 -0.000231636 9.33504e-06 
98 -7.87973e-05 6.12792e-06 -4.70421e-05 0.91 0 0 0 0.00573732 -0.00219089 4.34114e-06 
111 4.99247e-05 -3.68075e-05 -4.9304e-05 0.91 0 0 0 0.000367714 -0.000378718 3.49379e-05 
196 4.78277e-05 -3.23216e-05 -4.94744e-05 0.91 0 0 0 0.000393033 -0.000228641 -6.55217e-05 
176 2.21961e-05 -0.0128483 -6.40622e-05 0.91 0 0 0 9.34841e-05 2.84467 0.00328453 
162 -0.000484349 -0.906503 -0.281534 0.91 0 0 0 0.00648764 14.0242 4.4331 
34 5.23141e-05 -3.45587e-05 -4.72149e-05 0.91 0 0 0 0.000543241 -0.000303868 9.29234e-06 
61 -1.83521 -0.000402823 -1.83177 0.91 0 0 0 -0.536757 -0.00931912 -0.517691 
59 -0.297852 0.000548094 -0.952639 0.91 0 0 0 4.38888 -0.0100275 13.7621 
144 -0.00197049 -1.82699 -1.82387 0.91 0 0 0 -0.0240905 -0.457126 -0.4423 
202 4.52219e-05 -3.54864e-05 -4.8541e-05 0.91 0 0 0 4.39179e-05 -0.000203337 -0.000164154 
304 4.78298e-05 -4.12995e-05 -4.94693e-05 0.91 0 0 0 0.000393393 -0.000527259 -6.52198e-05 
317 4.78215e-05 -3.90541e-05 -5.16955e-05 0.91 0 0 0 0.00039319 -0.000454852 -0.00014285 
305 4.65157e-05 -3.94467e-05 -4.85283e-05 0.91 0 0 0 0.000219721 -0.000727595 -0.000164079 
300 4.54918e-05 -3.91555e-05 -4.95473e-05 0.91 0 0 0 0.000402917 -0.00036886 1.9181e-05 
285 4.55922e-05 -4.13055e-05 -4.72166e-05 0.91 0 0 0 0.000318279 -0.000528909 9.1647e-06 
301 4.51779e-05 -3.81486e-05 -4.85498e-05 0.91 0 0 0 4.71803e-05 -0.000550927 -0.00016232 
318 4.65383e-05 -3.8104e-05 -4.97933e-05 0.91 0 0 0 0.000216714 -0.00055572 -0.000344327 
201 4.54938e-05 -3.44717e-05 -4.95454e-05 0.91 0 0 0 0.000403015 -0.000388556 1.9393e-05 
188 4.33535e-05 -3.45548e-05 -4.72287e-05 0.91 0 0 0 0.000243689 -0.00030372 9.35404e-06 
186 4.78348e-05 -3.50096e-05 -4.72188e-05 0.91 0 0 0 0.000393126 -0.000411393 9.48933e-06 
213 4.64834e-05 -3.54578e-05 -4.99175e-05 0.91 0 0 0 0.000222289 -0.000208301 -0.000332704 
314 4.55862e-05 -3.68093e-05 -5.1693e-05 0.91 0 0 0 0.000316045 -0.000378751 -0.00014452 
114 5.04146e-05 -3.81062e-05 -4.85113e-05 0.91 0 0 0 0.000745776 -0.000553843 -0.000166516 
280 4.57362e-05 -3.88934e-05 -4.72195e-05 0.91 0 0 0 0.000418788 -0.000353143 9.47042e-06 
212 4.7819e-05 -3.4566e-05 -5.17097e-05 0.91 0 0 0 0.000392949 -0.000303705 -0.000141346 
35 4.99149e-05 -3.47289e-05 -4.7218e-05 0.91 0 0 0 0.000367621 -0.000404264 9.44488e-06 
182 4.78322e-05 -3.19074e-05 -4.72198e-05 0.91 0 0 0 0.000393117 -0.000337292 9.49242e-06 
45 5.01541e-05 -3.44839e-05 -4.95346e-05 0.91 0 0 0 0.000382985 -0.000389025 1.97388e-05 
197 4.64818e-05 -3.41015e-05 -4.85813e-05 0.91 0 0 0 0.000222908 -3.75584e-05 -0.000159974 
124 5.00695e-05 -3.68008e-05 -5.16947e-05 0.91 0 0 0 0.000469845 -0.00037865 -0.000143355 
115 5.01653e-05 -3.91363e-05 -4.9556e-05 0.91 0 0 0 0.000383456 -0.00036884 1.92896e-05 
26 -1.83625 -1.8397 -0.000739443 0.91 0 0 0 -0.54542 -0.541429 -0.0081913 
288 4.77746e-05 1.55475e-05 -4.71866e-05 0.91 0 0 0 0.000395883 -0.00357664 9.56038e-06 
306 8.51014e-05 3.59123e-07 -2.87161e-05 0.91 0 0 0 -0.00182611 -0.0025938 -0.00109353 
286 6.17019e-05 -2.2952e-05 -4.72051e-05 0.91 0 0 0 -0.000898153 -0.00167198 8.80309e-06 
321 4.77803e-05 -2.31324e-05 -3.35417e-05 0.91 0 0 0 0.000396483 -0.00166195 -0.00127297 
187 4.57479e-05 -3.47291e-05 -4.72068e-05 0.91 0 0 0 0.000418727 -0.000404212 9.33692e-06 
322 6.74945e-05 2.52204e-06 -7.90355e-06 0.91 0 0 0 -0.000754657 -0.00267144 -0.00228177 
319 8.62975e-05 -1.75572e-05 -8.77107e-06 0.91 0 0 0 -0.00186783 -0.00151174 -0.00225175 
275 4.6022e-05 -3.68071e-05 -4.72126e-05 0.91 0 0 0 0.000425973 -0.000378696 9.3798e-06 
100 4.99228e-05 -3.89013e-05 -4.72065e-05 0.91 0 0 0 0.000367718 -0.000353114 9.26886e-06 
277 0.000100704 -3.68908e-05 -4.72071e-05 0.91 0 0 0 -0.00282155 -0.000374905 7.56683e-06 
281 4.33483e-05 -3.90731e-05 -4.72157e-05 0.91 0 0 0 0.000244711 -0.000452785 9.47866e-06 
214 8.5991e-05 -5.58583e-05 -9.24264e-06 0.91 0 0 0 -0.00185801 0.00074757 -0.00223409 
284 4.78346e-05 -4.17096e-05 -4.72009e-05 0.91 0 0 0 0.000393273 -0.000419276 9.37985e-06 
276 4.29443e-05 -3.682e-05 -4.72067e-05 0.91 0 0 0 0.000353023 -0.000378603 9.58454e-06 
99 5.23111e-05 -3.90569e-05 -4.71987e-05 0.91 0 0 0 0.000544058 -0.000453792 9.48697e-06 
118 4.91443e-05 -3.94451e-05 -4.85224e-05 0.91 0 0 0 0.000567633 -0.000726982 -0.000163862 
127 4.91183e-05 -3.8096e-05 -4.97911e-05 0.91 0 0 0 0.000570736 -0.000554821 -0.000344152 
44 5.0495e-05 -3.54644e-05 -4.85527e-05 0.91 0 0 0 0.000738079 -0.000207371 -0.000161811 
53 4.91515e-05 -3.54691e-05 -4.98572e-05 0.91 0 0 0 0.00056727 -0.00020473 -0.000337039 
95 5.27154e-05 -3.68021e-05 -4.72167e-05 0.91 0 0 0 0.0004328 -0.000378635 9.25184e-06 
282 0.000175747 6.13248e-06 -4.71499e-05 0.91 0 0 0 -0.00498502 -0.00218652 5.74357e-06 
110 5.23005e-05 -3.68145e-05 -4.94606e-05 0.91 0 0 0 0.000546239 -0.00037904 -6.70972e-05 
289 8.99153e-05 8.78504e-05 -4.71974e-05 0.91 0 0 0 -0.00139508 -0.00567995 1.03547e-05 
31 5.00837e-05 -3.23174e-05 -4.72065e-05 0.91 0 0 0 0.000467565 -0.000230139 9.86789e-06 
41 4.91254e-05 -3.42244e-05 -4.8523e-05 0.91 0 0 0 0.000570066 -2.59644e-05 -0.000167295 
332 4.80001e-05 6.44147e-06 8.17205e-05 0.91 0 0 0 0.000384248 -0.00218946 -0.00539633 
167 4.78374e-05 -3.23368e-05 -4.49719e-05 0.91 0 0 0 0.000393101 -0.000224879 8.63564e-05 
308 4.76425e-05 9.20229e-05 -3.60187e-06 0.91 0 0 0 0.000399463 -0.00578024 -0.00181597 
241 4.55936e-05 -3.68239e-05 -4.27434e-05 0.91 0 0 0 0.000315198 -0.00037862 0.000164362 
302 0.000313751 5.31193e-05 4.27131e-05 0.91 0 0 0 -0.00684785 -0.00282478 -0.0024367 
333 0.000135963 5.14548e-05 0.000214871 0.91 0 0 0 -0.0020341 -0.00280644 -0.00722411 
309 0.000138049 0.000229545 4.27157e-05 0.91 0 0 0 -0.00205608 -0.00762735 -0.00242902 
82 4.99192e-05 -3.68178e-05 -4.51132e-05 0.91 0 0 0 0.000367767 -0.00037856 -1.63043e-05 
256 4.57388e-05 -3.68124e-05 -4.51319e-05 0.91 0 0 0 0.000418741 -0.000378594 -1.61375e-05 
255 4.78397e-05 -3.68079e-05 -4.54032e-05 0.91 0 0 0 0.000393042 -0.000378695 -2.34904e-05 
172 4.55008e-05 -3.4467e-05 -4.48772e-05 0.91 0 0 0 0.000402794 -0.00038839 -3.84602e-07 
81 5.23074e-05 -3.6802e-05 -4.49543e-05 0.91 0 0 0 0.000544401 -0.000378279 8.49326e-05 
171 4.7842e-05 -3.47193e-05 -4.51371e-05 0.91 0 0 0 0.000393037 -0.000404315 -1.61521e-05 
260 4.78387e-05 -3.89026e-05 -4.51235e-05 0.91 0 0 0 0.0003931 -0.000353057 -1.62245e-05 
257 4.33517e-05 -3.6809e-05 -4.49795e-05 0.91 0 0 0 0.000241377 -0.000378181 8.4647e-05 
86 5.01771e-05 -3.91593e-05 -4.48613e-05 0.91 0 0 0 0.00038382 -0.00036917 -1.96518e-07 
240 4.78293e-05 -3.68257e-05 -4.23246e-05 0.91 0 0 0 0.000393046 -0.000378618 4.84801e-05 
261 4.549e-05 -3.91612e-05 -4.48743e-05 0.91 0 0 0 0.000402676 -0.000368959 -2.3704e-07 
329 9.01015e-05 -3.66488e-05 7.76563e-05 0.91 0 0 0 -0.00140202 -0.000383878 -0.00529609 
24 5.0164e-05 -3.44788e-05 -4.4888e-05 0.91 0 0 0 0.000383142 -0.000388717 -7.21484e-07 
297 0.00017342 -3.68542e-05 -4.99048e-06 0.91 0 0 0 -0.00492808 -0.000377498 -0.00178196 
225 8.97394e-05 -8.95883e-06 -0.0167111 0.91 0 0 0 -0.00483841 -0.00410632 3.04414 
135 4.16994e-06 -3.69156e-05 8.22683e-05 0.91 0 0 0 0.00221668 -0.000371691 -0.00540871 
123 3.442e-05 -3.68076e-05 -3.38336e-05 0.91 0 0 0 0.00166234 -0.000377171 -0.00125937 
94 -5.81729e-06 -3.68299e-05 -4.71353e-05 0.91 0 0 0 0.00363651 -0.000376834 5.71919e-06 
102 3.42677e-05 -2.33327e-05 -4.71877e-05 0.91 0 0 0 0.00167105 -0.00165122 9.15132e-06 
52 9.97043e-06 -5.56228e-05 -9.249e-06 0.91 0 0 0 0.0026304 0.000737211 -0.00223678 
106 5.31727e-06 8.88396e-05 -4.7001e-05 0.91 0 0 0 0.00219154 -0.00570324 3.19315e-06 
117 9.11241e-06 1.8442e-06 -2.79134e-05 0.91 0 0 0 0.00266277 -0.00264685 -0.00112246 
126 9.56718e-06 -1.77524e-05 -9.01219e-06 0.91 0 0 0 0.00264649 -0.00150201 -0.00224214 
130 2.89464e-05 1.0819e-06 -9.29278e-06 0.91 0 0 0 0.00150909 -0.00261943 -0.00223254 
209 6.66325e-05 -7.43773e-05 -9.67596e-06 0.91 0 0 0 -0.000722723 0.00185164 -0.00222 
184 6.12322e-05 -5.01424e-05 -4.72395e-05 0.91 0 0 0 -0.000876497 0.00088703 9.36282e-06 
30 3.40607e-05 -5.06001e-05 -4.72432e-05 0.91 0 0 0 0.00167927 0.0009116 1.14298e-05 
50 2.83825e-05 -7.58818e-05 -8.12327e-06 0.91 0 0 0 0.00152954 0.00190646 -0.00227632 
40 1.01669e-05 -7.44315e-05 -2.849e-05 0.91 0 0 0 0.00262514 0.00185421 -0.00110302 
198 8.5992e-05 -7.49276e-05 -2.82612e-05 0.91 0 0 0 -0.00185666 0.00187124 -0.0011125 
203 0.000310138 -0.000125589 4.16435e-05 0.91 0 0 0 -0.00682808 0.00206092 -0.00243684 
221 0.000137973 -0.000127195 0.000220431 0.91 0 0 0 -0.00204441 0.0020684 -0.007251 
208 4.78338e-05 -5.04909e-05 -3.35077e-05 0.91 0 0 0 0.000392611 0.000904857 -0.00127684 
220 4.79777e-05 -7.88093e-05 7.76855e-05 0.91 0 0 0 0.000385903 0.00140733 -0.00529846 
178 4.78571e-05 -9.09021e-05 -4.72645e-05 0.91 0 0 0 0.000392383 0.00288322 1.04049e-05 
189 0.000175428 -7.97622e-05 -4.71563e-05 0.91 0 0 0 -0.00497644 0.00142867 4.6239e-06 
20 4.92007e-05 -3.40806e-05 -4.58493e-05 0.91 0 0 0 0.000561849 -4.02895e-05 0.000178042 
154 4.7819e-05 -5.056e-05 -6.09315e-05 0.91 0 0 0 0.000395814 0.00090847 0.00129344 
168 4.64965e-05 -3.41268e-05 -4.58773e-05 0.91 0 0 0 0.000221869 -3.5528e-05 0.000180369 
85 5.04275e-05 -3.81219e-05 -4.58981e-05 0.91 0 0 0 0.000744758 -0.000553757 0.000183974 
14 4.91584e-05 -3.55014e-05 -4.45801e-05 0.91 0 0 0 0.000567619 -0.000205274 0.000357633 
169 8.53666e-05 -7.43229e-05 -6.59596e-05 0.91 0 0 0 -0.0018333 0.00184872 0.00112183 
19 9.70627e-06 -7.48569e-05 -6.61407e-05 0.91 0 0 0 0.00264323 0.00186823 0.00112761 
73 4.91847e-05 -3.8176e-05 -4.45122e-05 0.91 0 0 0 0.000564064 -0.000549413 0.000350504 
323 0.000339414 0.000255243 0.000244786 0.91 0 0 0 -0.000100022 -0.000877066 -0.000491465 
23 5.04976e-05 -3.5471e-05 -4.58711e-05 0.91 0 0 0 0.000737661 -0.000206915 0.000180902 
69 3.46702e-05 -3.67991e-05 -6.03656e-05 0.91 0 0 0 0.00165053 -0.000380863 0.00126796 
248 4.7857e-05 -2.34052e-05 -6.0665e-05 0.91 0 0 0 0.000391237 -0.0016489 0.00128315 
70 5.0094e-05 -3.68151e-05 -4.27236e-05 0.91 0 0 0 0.000467951 -0.000378486 0.000157863 
88 1.01219e-05 7.64715e-07 -6.59429e-05 0.91 0 0 0 0.00262763 -0.00260805 0.00112336 
266 4.65233e-05 -3.94489e-05 -4.58918e-05 0.91 0 0 0 0.000219276 -0.000727646 0.000183137 
158 4.78429e-05 -3.45599e-05 -4.27194e-05 0.91 0 0 0 0.000393225 -0.000304643 0.000156854 
244 4.78296e-05 -3.90689e-05 -4.27321e-05 0.91 0 0 0 0.000392907 -0.000454886 0.000161648 
267 8.64087e-05 1.74363e-06 -6.64051e-05 0.91 0 0 0 -0.00187127 -0.00264578 0.00113832 
242 6.09044e-05 -3.68215e-05 -6.02538e-05 0.91 0 0 0 -0.000859471 -0.0003799 0.00126136 
173 4.52081e-05 -3.5495e-05 -4.58961e-05 0.91 0 0 0 4.50285e-05 -0.000205192 0.000183137 
159 4.65051e-05 -3.54788e-05 -4.45461e-05 0.91 0 0 0 0.00022098 -0.000206367 0.000353682 
109 -8.00519e-05 -3.67545e-05 -3.97134e-06 0.91 0 0 0 0.00576838 -0.000379297 -0.00180779 
120 -4.18031e-05 0.000227937 4.23417e-05 0.91 0 0 0 0.00283353 -0.00761766 -0.00242906 
33 -8.06607e-05 -8.03102e-05 -4.72449e-05 0.91 0 0 0 0.00578325 0.00144781 1.12433e-05 
43 -0.000218894 -0.000127175 4.23539e-05 0.91 0 0 0 0.00763834 0.00207501 -0.00241926 
57 -4.00713e-05 -0.000124816 0.000213833 0.91 0 0 0 0.00281696 0.00205546 -0.00721828 
113 -0.00021284 5.11392e-05 4.06991e-05 0.91 0 0 0 0.0076079 -0.00280724 -0.00241738 
137 -4.15704e-05 5.30549e-05 0.000218629 0.91 0 0 0 0.00282003 -0.00281919 -0.00723857 
179 9.06794e-05 -0.000163646 -4.74286e-05 0.91 0 0 0 -0.00141242 0.00497523 1.56802e-05 
28 4.83662e-06 -0.00016354 -4.71877e-05 0.91 0 0 0 0.00220699 0.00497205 6.40968e-06 
287 -1.40075e-05 -8.38368e-05 -4.69546e-05 0.91 0 0 0 0.0465386 0.0312873 2.24179e-06 
38 -4.05054e-05 -0.000299392 4.09722e-05 0.91 0 0 0 0.00282025 0.00686005 -0.00241807 
290 9.37489e-06 -8.38824e-05 -4.7181e-05 0.91 0 0 0 0.0315222 0.0449001 2.57473e-05 
194 0.000138381 -0.000304819 4.33015e-05 0.91 0 0 0 -0.00204928 0.00687886 -0.00243948 
25 -0.272599 -0.875334 0.000524642 0.91 0 0 0 4.48552 14.1621 -0.00946609 
335 4.81572e-05 -8.00783e-05 -0.000101895 0.91 0 0 0 0.000437747 0.0311187 0.0457107 
325 4.81573e-05 -9.87143e-05 -9.53139e-05 0.91 0 0 0 0.000332061 0.0457856 0.0317581 
165 0.000137338 -0.000301604 -0.000136862 0.91 0 0 0 -0.00204382 0.00686075 0.00245089 
17 -4.03348e-05 -0.000298818 -0.000136163 0.91 0 0 0 0.00281938 0.00684905 0.00245505 
164 4.78754e-05 -0.000165817 -9.07101e-05 0.91 0 0 0 0.000392784 0.00502807 0.00182944 
330 2.66574e-05 -3.70942e-05 -6.91322e-05 0.91 0 0 0 0.0304603 -0.000450031 0.0437792 
316 -8.60662e-05 -3.71843e-05 -0.000143306 0.91 0 0 0 0.0508079 -0.000318409 0.0346076 
22 -0.000213316 -0.000124632 -0.000135124 0.91 0 0 0 0.00761577 0.00204694 0.00243832 
148 4.76606e-05 -8.04843e-05 -0.000176318 0.91 0 0 0 0.000402308 0.00144817 0.0054173 
84 -0.000214941 5.2154e-05 -0.000136001 0.91 0 0 0 0.00761768 -0.0028207 0.00245014 
91 -4.21035e-05 0.000231179 -0.000137346 0.91 0 0 0 0.00282119 -0.00764299 0.00244961 
174 0.000304608 -0.0001232 -0.000133634 0.91 0 0 0 -0.00680265 0.00203671 0.00242497 
160 8.65448e-05 -5.61057e-05 -8.58432e-05 0.91 0 0 0 -0.00187641 0.000753485 0.00227594 
11 2.86924e-05 -7.52333e-05 -8.55983e-05 0.91 0 0 0 0.00152092 0.00188196 0.00226765 
80 -7.88485e-05 -3.70167e-05 -8.97121e-05 0.91 0 0 0 0.00574155 -0.000369831 0.00180564 
155 6.69973e-05 -7.52651e-05 -8.57443e-05 0.91 0 0 0 -0.000732688 0.00188185 0.00227396 
246 8.64543e-05 -1.7538e-05 -8.57621e-05 0.91 0 0 0 -0.00187274 -0.00151416 0.00227351 
258 0.000173882 -3.69894e-05 -8.96039e-05 0.91 0 0 0 -0.00493887 -0.000373178 0.00180186 
233 4.79972e-05 6.21651e-06 -0.000174629 0.91 0 0 0 0.000387493 -0.00219322 0.00537735 
230 9.07707e-05 -3.67847e-05 -0.000174733 0.91 0 0 0 -0.00141181 -0.000382532 0.00538017 
63 5.67526e-06 -3.70524e-05 -0.000171682 0.91 0 0 0 0.00218613 -0.000370356 0.00530465 
76 2.89237e-05 1.21846e-06 -8.52118e-05 0.91 0 0 0 0.00151048 -0.00262678 0.00225552 
269 4.77042e-05 8.83284e-05 -8.94874e-05 0.91 0 0 0 0.00039811 -0.00569169 0.00180509 
129 -0.000242507 0.000254403 0.000244053 0.91 0 0 0 0.00105465 -0.00105371 -0.000663381 
105 7.97859e-05 -7.46561e-05 -4.77721e-05 0.91 0 0 0 -0.0303861 0.0443114 -6.56544e-06 
134 0.000130982 -3.73344e-05 -0.000158771 0.91 0 0 0 -0.0334056 -0.000328679 0.0491293 
217 4.83772e-05 5.90154e-06 -0.00010149 0.91 0 0 0 0.000312108 -0.0318572 0.0457142 
210 0.000337156 -0.000326899 0.000242927 0.91 0 0 0 -0.000551022 0.000579477 -0.000960739 
49 -0.000243722 -0.000328933 0.000244736 0.91 0 0 0 0.000874777 0.000127043 -0.000493298 
185 -1.41478e-06 1.69752e-06 -4.64797e-05 0.91 0 0 0 0.0458028 -0.0315007 -5.28752e-06 
29 8.88519e-05 -4.04051e-06 -4.74314e-05 0.91 0 0 0 -0.0444999 -0.0311771 -2.45333e-06 
6 -4.08531e-05 -0.000125929 -0.000310567 0.91 0 0 0 0.00282503 0.00206182 0.00724583 
149 0.0001389 -0.000127303 -0.000316574 0.91 0 0 0 -0.00205136 0.00205215 0.00727285 
336 -0.00183825 -0.00384781 -0.00556943 0.91 0 0 0 0.0783383 0.15719 0.229035 
307 -0.00645372 -0.00452853 -0.00227611 0.91 0 0 0 0.248633 0.170667 0.0849093 
10 -0.000242974 -0.000328147 -0.00033758 0.91 0 0 0 0.00112883 0.000360784 0.000751123 
334 -0.00431847 -0.00219577 -0.00635951 0.91 0 0 0 0.169249 0.0830201 0.244833 
310 -0.00383179 -0.00565117 -0.00196996 0.91 0 0 0 0.159449 0.230488 0.0788448 
326 -0.00188389 -0.00567077 -0.00392845 0.91 0 0 0 0.0794413 0.230998 0.158997 
320 -0.00565405 -0.0019871 -0.00398264 0.91 0 0 0 0.233137 0.0789208 0.16029 
156 0.000339037 -0.000328695 -0.000338767 0.91 0 0 0 -0.000126054 0.000151934 0.000539558 
65 -3.96955e-05 5.01986e-05 -0.000306037 0.91 0 0 0 0.00282678 -0.00280097 0.00722418 
250 0.00033666 0.000253101 -0.000336423 0.91 0 0 0 -0.000629545 -0.00142716 0.00104547 
75 -0.000242673 0.000253128 -0.000338086 0.91 0 0 0 0.00122063 -0.00121537 0.000853191 
234 0.000137226 5.2286e-05 -0.000312949 0.91 0 0 0 -0.00203662 -0.00280894 0.00726271 
122 0.000135394 -3.71588e-05 -0.000112238 0.91 0 0 0 -0.0473134 -0.000357942 0.0327068 
132 0.00215349 -0.00618877 -0.0042926 0.91 0 0 0 -0.0820866 0.241422 0.166415 
116 0.00595403 -0.00410969 -0.00206266 0.91 0 0 0 -0.236576 0.162626 0.0805739 
125 0.00602483 -0.00207516 -0.00416733 0.91 0 0 0 -0.238001 0.0806849 0.163891 
136 0.00396391 -0.00198722 -0.00572795 0.91 0 0 0 -0.159275 0.079134 0.232343 
119 0.00395414 -0.00569946 -0.0019949 0.91 0 0 0 -0.159134 0.231551 0.0794825 
139 0.00197317 -0.00389166 -0.00564007 0.91 0 0 0 -0.0786448 0.158039 0.230488 
101 0.00015839 -0.000117663 -4.79459e-05 0.91 0 0 0 -0.0486531 0.0333129 3.47482e-05 
27 0.00012513 6.65826e-05 -4.72157e-05 0.91 0 0 0 -0.0331024 -0.0490154 4.98382e-05 
55 0.00201822 0.00395222 -0.00580902 0.91 0 0 0 -0.0792314 -0.161934 0.233931 
205 4.81234e-05 -8.99346e-06 -7.1213e-05 0.91 0 0 0 0.000360521 -0.0444872 0.0303114 
39 0.00553752 0.00375464 -0.0019187 0.91 0 0 0 -0.227832 -0.157634 0.0775365 
51 0.00583985 0.00193387 -0.00404521 0.91 0 0 0 -0.234219 -0.0799792 0.161522 
180 -5.3067e-05 0.000100767 -4.6219e-05 0.91 0 0 0 0.0352703 -0.0510065 -6.7836e-05 
56 0.004475 0.00215223 -0.00645629 0.91 0 0 0 -0.169438 -0.0843807 0.246644 
222 -0.00427714 0.00210805 -0.00630682 0.91 0 0 0 0.168416 -0.0837326 0.243873 
215 -0.00560958 0.00189107 -0.00394142 0.91 0 0 0 0.232349 -0.0792396 0.159318 
218 -0.0019789 0.00406711 -0.00598822 0.91 0 0 0 0.081258 -0.164169 0.237698 
199 -0.00621715 0.00428766 -0.0021871 0.91 0 0 0 0.244357 -0.168418 0.0831709 
145 4.72517e-05 5.52165e-05 7.82502e-05 0.91 0 0 0 0.000394945 -0.0347311 -0.0499158 
62 0.000124715 -3.66336e-05 5.64144e-05 0.91 0 0 0 -0.0330799 -0.000378887 -0.0486503 
170 -0.00633914 0.00436848 0.00213834 0.91 0 0 0 0.246641 -0.169847 -0.0839235 
68 8.80978e-05 -3.6768e-05 -1.49708e-05 0.91 0 0 0 -0.0444618 -0.000344247 -0.0307682 
18 0.00582522 0.00395083 0.00193255 0.91 0 0 0 -0.233884 -0.161673 -0.0800482 
236 4.74318e-05 -8.8968e-05 2.11083e-05 0.91 0 0 0 0.000340702 0.0316301 -0.0465474 
252 4.7419e-05 -8.29904e-05 -1.0018e-05 0.91 0 0 0 0.000434921 0.0447964 -0.0311532 
231 7.62797e-06 -3.64884e-05 2.23794e-06 0.91 0 0 0 0.0315951 -0.000354393 -0.0454237 
243 5.71856e-06 -3.63945e-05 -1.33822e-05 0.91 0 0 0 0.0452991 -0.000484078 -0.0308958 
151 4.74818e-05 3.5817e-05 8.23212e-06 0.91 0 0 0 0.000351944 -0.0471738 -0.0321976 
90 0.00414327 -0.00596792 0.00198618 0.91 0 0 0 -0.163097 0.237027 -0.0811434 
268 -0.00587289 -0.00411625 0.00197077 0.91 0 0 0 0.237665 0.162684 -0.0806076 
271 -0.00410516 -0.00603523 0.00201602 0.91 0 0 0 0.165095 0.238235 -0.081805 
87 0.00609285 -0.00421487 0.00201131 0.91 0 0 0 -0.239286 0.164845 -0.0813885 
161 -0.00613219 0.00208106 0.00422141 0.91 0 0 0 0.242644 -0.0831674 -0.166873 
140 -0.286944 0.00140706 0.924093 0.91 0 0 0 4.40567 -0.0206323 -13.935 
339 4.11839e-05 -4.03345e-05 0.00924689 0.91 0 0 0 0.000569187 0.00272732 -2.65798 
4 0.0021309 0.00417698 0.00605411 0.91 0 0 0 -0.0815752 -0.166242 -0.240804 
58 -0.586937 -0.589096 1.94406 0.91 0 0 0 0.981121 0.991922 -2.46843 
150 -0.00394057 0.00194561 0.00573246 0.91 0 0 0 0.161619 -0.0804977 -0.234353 
12 0.00616699 0.00204876 0.00418624 0.91 0 0 0 -0.240689 -0.0822836 -0.166375 
146 -0.00212908 0.00434293 0.00628673 0.91 0 0 0 0.0843318 -0.169453 -0.245127 
54 -0.938065 -0.940005 1.38529 0.91 0 0 0 2.5398 2.54829 -3.63259 
191 -0.000981296 -0.952744 0.297628 0.91 0 0 0 0.0155094 13.7598 -4.38232 
216 0.00179698 -1.8289 1.82911 0.91 0 0 0 0.0103324 -0.508458 0.487013 
36 -0.579107 -1.9214 0.579662 0.91 0 0 0 1.05647 2.70509 -1.04935 
5 0.00440326 0.00211475 0.00625126 0.91 0 0 0 -0.168252 -0.0836325 -0.244538 
108 -0.889285 -2.77551e-05 0.278281 0.91 0 0 0 14.0916 -0.00040136 -4.48483 
67 0.00199486 -0.00398513 0.00565579 0.91 0 0 0 -0.0788167 0.160277 -0.232712 
133 -1.83338 -0.000192782 1.82988 0.91 0 0 0 -0.523151 -0.00239287 0.498806 
46 -0.955745 -1.40757 0.951309 0.91 0 0 0 2.38724 3.38731 -2.37436 
42 -1.91401 -0.577186 0.579073 0.91 0 0 0 2.76689 1.07058 -1.06947 
223 0.000602764 -0.284973 0.916145 0.91 0 0 0 -0.0101411 4.42479 -13.976 
48 -1.39937 -0.944108 0.948539 0.91 0 0 0 3.48835 2.44393 -2.452 
235 -0.00371534 -0.00189879 0.00540908 0.91 0 0 0 0.156854 0.0770327 -0.227611 
237 -0.00183656 -0.00383622 0.0054544 0.91 0 0 0 0.0783276 0.156981 -0.228518 
253 -0.0018742 -0.00565634 0.00382777 0.91 0 0 0 0.0790979 0.230684 -0.158905 
71 0.00609148 -0.00210549 0.00411889 0.91 0 0 0 -0.239313 0.0814122 -0.164823 
78 0.00213352 -0.00612626 0.00416502 0.91 0 0 0 -0.0817384 0.240093 -0.165916 
247 -0.00599 -0.00210673 0.00410987 0.91 0 0 0 0.239967 0.0815001 -0.164539 
64 0.00400845 -0.00200554 0.00569269 0.91 0 0 0 -0.160316 0.0794629 -0.233555 
83 -1.90953 0.576362 -0.578328 0.91 0 0 0 2.80957 -1.07951 1.08963 
60 -0.579951 0.585385 -1.93273 0.91 0 0 0 1.02055 -1.02871 2.59538 
227 0.000794636 0.281735 -0.902411 0.91 0 0 0 -0.00811926 -4.46072 14.0362 
92 -0.578029 1.91649 -0.57686 0.91 0 0 0 1.06234 -2.76516 1.07119 
239 0.000270059 1.83706 -1.83586 0.91 0 0 0 0.00150494 0.503716 -0.511028 
37 0.00446903 0.00636626 -0.00224408 0.91 0 0 0 -0.169272 -0.246926 0.0843077 
47 0.00208017 0.00587176 -0.00411996 0.91 0 0 0 -0.080756 -0.237441 0.162945 
66 -0.950966 0.950167 -1.40534 0.91 0 0 0 2.40719 -2.40576 3.43175 
77 -0.950287 1.40305 -0.948537 0.91 0 0 0 2.42118 -3.44775 2.42341 
74 -1.3948 0.942561 -0.942718 0.91 0 0 0 3.54518 -2.48336 2.48906 
97 -0.911093 0.282564 0.000596113 0.91 0 0 0 14.0012 -4.42161 -0.00766094 
292 5.16757e-05 0.00910212 -5.73105e-05 0.91 0 0 0 0.00146871 -2.64958 0.00315231 
195 -0.00393655 0.00573852 -0.00201168 0.91 0 0 0 0.161636 -0.234811 0.0795495 
272 -0.00115689 0.88907 -0.276985 0.91 0 0 0 0.0197928 -14.1042 4.46937 
104 -1.83368 1.83223 -0.00060209 0.91 0 0 0 -0.540928 0.529082 0.00520048 
107 -0.29219 0.935302 0.000731954 0.91 0 0 0 4.41239 -13.8629 -0.00938054 
206 -0.00183896 0.00546298 -0.00383858 0.91 0 0 0 0.0785712 -0.228964 0.157157 
16 0.00395091 0.00561453 0.0018906 0.91 0 0 0 -0.159131 -0.232078 -0.0791727 
166 -0.00408546 0.00594315 0.00200314 0.91 0 0 0 0.164682 -0.238801 -0.0813779 
311 0.000268413 0.891218 0.278621 0.91 0 0 0 -0.00318514 -14.0868 -4.47716 
141 -0.576501 0.574624 1.91227 0.91 0 0 0 1.08397 -1.07861 -2.8195 
121 -0.578846 1.91837 0.581145 0.91 0 0 0 1.05396 -2.72834 -1.06166 
8 0.00190973 0.00541769 0.00371714 0.91 0 0 0 -0.0770126 -0.227943 -0.156577 
138 -0.964072 0.963956 1.42305 0.91 0 0 0 2.26885 -2.26947 -3.21956 
112 -1.91617 0.580863 0.577476 0.91 0 0 0 2.73959 -1.06676 -1.06036 
341 -0.00059803 0.28644 0.919049 0.91 0 0 0 0.0092462 -4.42594 -13.9558 
128 -1.38497 0.936827 0.937019 0.91 0 0 0 3.64457 -2.55419 -2.55673 
131 -0.946598 1.396 0.94573 0.91 0 0 0 2.46496 -3.50941 -2.4663 
338 0.00120421 1.82454 1.8242 0.91 0 0 0 0.00975781 0.470942 0.465637 
152 -0.00191798 0.0056831 0.00391223 0.91 0 0 0 0.0801785 -0.233426 -0.160806 
175 1.91641 -0.579029 -0.578452 0.91 0 0 0 -2.76359 1.06696 1.06317 
143 0.58772 -0.586762 -1.94477 0.91 0 0 0 -0.996122 1.0016 2.48417 
278 0.0146935 -3.56578e-05 -6.13536e-05 0.91 0 0 0 -2.94089 0.00327434 0.00147497 
163 0.579642 -1.92544 -0.581409 0.91 0 0 0 -1.0436 2.6716 1.05169 
177 0.284098 -0.91482 0.000577129 0.91 0 0 0 -4.42163 13.981 -0.0074747 
147 0.959039 -0.956662 -1.41563 0.91 0 0 0 -2.34018 2.34099 3.33001 
259 0.891719 -0.000545008 -0.279211 0.91 0 0 0 -14.086 0.00917284 4.48118 
232 1.82127 0.00227107 -1.82113 0.91 0 0 0 0.446105 0.0160583 -0.437622 
190 0.934794 -0.291464 -0.000287641 0.91 0 0 0 -13.8737 4.40446 0.0021354 
226 0.274557 0.00149979 -0.877361 0.91 0 0 0 -4.49965 -0.0223186 14.1483 
157 1.39188 -0.94203 -0.940274 0.91 0 0 0 -3.58328 2.51876 2.51266 
153 0.951985 -1.40794 -0.951915 0.91 0 0 0 -2.39531 3.41168 2.40023 
224 0.591512 -0.584808 1.94962 0.91 0 0 0 -0.97956 0.964324 -2.43005 
298 0.886096 0.000938466 0.27716 0.91 0 0 0 -14.1147 -0.0150816 -4.49029 
192 0.578212 -1.91263 0.579699 0.91 0 0 0 -1.06829 2.77447 -1.06825 
331 1.8403 0.000219688 1.84083 0.91 0 0 0 0.517074 -0.00730618 0.513747 
219 0.943634 -0.941948 1.3906 0.91 0 0 0 -2.50427 2.49375 -3.57542 
181 1.83113 -1.83321 0.00388152 0.91 0 0 0 0.517406 -0.522938 0.0175484 
211 1.37762 -0.932573 0.934289 0.91 0 0 0 -3.72216 2.59145 -2.60327 
204 1.94672 -0.585982 0.589012 0.91 0 0 0 -2.44722 0.966621 -0.98037 
340 0.271504 -0.000456919 0.873264 0.91 0 0 0 -4.48225 0.00911324 -14.178 
207 0.943047 -1.39157 0.944939 0.91 0 0 0 -2.48548 3.5415 -2.49064 
254 0.943179 1.39263 -0.945061 0.91 0 0 0 -2.48329 -3.55617 2.48796 
238 0.953475 0.951444 -1.40821 0.91 0 0 0 -2.38226 -2.38655 3.39271 
291 1.83249 1.83276 -0.00102896 0.91 0 0 0 0.51183 0.510929 0.00602401 
228 0.578292 0.579105 -1.91453 0.91 0 0 0 -1.06857 -1.07418 2.78475 
283 0.948702 0.296007 -0.000610136 0.91 0 0 0 -13.793 -4.38382 0.00637158 
293 0.297385 0.953329 5.45852e-05 0.91 0 0 0 -4.375 -13.7631 0.000928193 
251 1.37234 0.930793 -0.931578 0.91 0 0 0 -3.76835 -2.63911 2.63095 
273 0.585329 1.94814 -0.59204 0.91 0 0 0 -0.968922 -2.42925 0.981281 
264 1.9489 0.59012 -0.590138 0.91 0 0 0 -2.41137 -0.971301 0.961047 
342 0.584513 0.586349 1.93754 0.91 0 0 0 -1.01168 -1.00235 -2.54793 
337 0.949586 0.950639 1.40076 0.91 0 0 0 -2.4299 -2.42234 -3.45703 
324 1.39361 0.945972 0.943214 0.91 0 0 0 -3.54489 -2.4797 -2.47725 
327 0.928225 1.37338 0.932105 0.91 0 0 0 -2.62952 -3.76873 -2.63554 
312 0.588004 1.94417 0.585702 0.91 0 0 0 -0.984278 -2.46481 -0.97151 
303 1.93765 0.586328 0.585857 0.91 0 0 0 -2.54047 -1.00059 -1.00277 
ITEM: TIMESTEP
960119
ITEM: NUMBER OF ATOMS
341
ITEM: BOX BOUNDS ss ss ss
-1.9360300446137211e+00 1.9495118901764781e+00
-1.9388440561347573e+00 1.9487524452880283e+00
-1.9453750558316978e+00 1.9502296762444777e+00
ITEM: ATOMS id x y z width_SPH x_COM y_COM z_COM vx vy vz 
2 -0.5851 -0.586068 -1.9354 0.91 0 0 0 1.00611 1.00859 2.55696 
3 -0.946569 -0.947505 -1.39609 0.91 0 0 0 2.45492 2.45386 3.5015 
13 8.21552e-06 -5.65991e-05 -8.68613e-05 0.91 0 0 0 0.00269504 0.000772082 0.00231438 
72 1.00076e-05 -1.80696e-05 -8.50014e-05 0.91 0 0 0 0.00263155 -0.0014907 0.00224847 
103 5.00794e-05 -4.13098e-05 -4.72109e-05 0.91 0 0 0 0.000466862 -0.000525706 9.0883e-06 
7 -0.940324 -1.38946 -0.939626 0.91 0 0 0 2.51802 3.59882 2.51361 
263 0.000317188 5.35818e-05 -0.000138377 0.91 0 0 0 -0.00686487 -0.0028142 0.0024604 
9 -1.37994 -0.939322 -0.934126 0.91 0 0 0 3.67054 2.57626 2.56361 
265 4.78282e-05 -4.12983e-05 -4.49718e-05 0.91 0 0 0 0.000393028 -0.000531773 8.54367e-05 
313 4.78374e-05 -3.68163e-05 -5.21077e-05 0.91 0 0 0 0.000393343 -0.000378785 -3.02739e-05 
270 0.000135085 0.000222792 -0.000134855 0.91 0 0 0 -0.00202596 -0.00759997 0.00244274 
296 4.33364e-05 -3.68213e-05 -4.94715e-05 0.91 0 0 0 0.000246708 -0.000378872 -6.32609e-05 
299 4.78251e-05 -3.88976e-05 -4.93001e-05 0.91 0 0 0 0.000393293 -0.000353071 3.50072e-05 
15 -0.5845 -1.93823 -0.585914 0.91 0 0 0 1.00085 2.53065 1.00154 
229 4.78689e-05 -3.68083e-05 -0.000102259 0.91 0 0 0 0.000392254 -0.00038091 0.00330582 
328 4.78196e-05 -3.68557e-05 5.94468e-06 0.91 0 0 0 0.000392674 -0.000374199 -0.0032179 
249 6.72417e-05 2.02382e-06 -8.59626e-05 0.91 0 0 0 -0.000743775 -0.00265643 0.00228066 
279 4.78281e-05 -3.86266e-05 -4.7213e-05 0.91 0 0 0 0.000393255 -0.000345754 9.39465e-06 
295 4.57328e-05 -3.68115e-05 -4.93139e-05 0.91 0 0 0 0.000418648 -0.000378618 3.49992e-05 
21 -1.93542 -0.586851 -0.584125 0.91 0 0 0 2.52981 1.00383 1.00105 
274 4.78328e-05 -3.68109e-05 -4.72089e-05 0.91 0 0 0 0.000393158 -0.000378631 9.30098e-06 
245 4.65346e-05 -3.81367e-05 -4.45927e-05 0.91 0 0 0 0.000218768 -0.000553079 0.000359549 
200 4.78229e-05 -3.47202e-05 -4.93162e-05 0.91 0 0 0 0.000393285 -0.000404129 3.50903e-05 
93 -0.0133697 -4.27045e-05 -3.30155e-05 0.91 0 0 0 2.87715 -0.000658063 0.000205962 
89 4.91423e-05 -3.94506e-05 -4.58783e-05 0.91 0 0 0 0.000566537 -0.000726905 0.000183306 
32 -0.952919 -0.298393 -0.000546331 0.91 0 0 0 13.7548 4.38975 0.0085621 
79 -0.929838 0.000284133 -0.288601 0.91 0 0 0 13.9017 -0.0062644 4.39602 
262 4.52403e-05 -3.81355e-05 -4.59053e-05 0.91 0 0 0 4.22765e-05 -0.000554047 0.000184485 
315 6.20362e-05 -3.68352e-05 -3.30559e-05 0.91 0 0 0 -0.000915253 -0.00037597 -0.00129745 
96 4.96485e-05 -3.68139e-05 -4.7207e-05 0.91 0 0 0 0.000360329 -0.000378592 9.2806e-06 
294 4.78284e-05 -3.68019e-05 -4.90145e-05 0.91 0 0 0 0.000393249 -0.000378802 4.21841e-05 
142 -0.000137073 -0.283017 -0.906675 0.91 0 0 0 0.00228181 4.45306 14.0171 
193 4.79785e-05 -0.000160335 -5.74966e-06 0.91 0 0 0 0.000387383 0.00489564 -0.00176243 
183 4.55858e-05 -3.23122e-05 -4.72302e-05 0.91 0 0 0 0.000319591 -0.000231634 9.35425e-06 
98 -7.87945e-05 6.12683e-06 -4.70421e-05 0.91 0 0 0 0.00573725 -0.00219086 4.36035e-06 
111 4.99248e-05 -3.68077e-05 -4.93039e-05 0.91 0 0 0 0.000367696 -0.000378707 3.4958e-05 
196 4.78279e-05 -3.23217e-05 -4.94745e-05 0.91 0 0 0 0.000393016 -0.000228638 -6.54985e-05 
176 2.21961e-05 -0.0128469 -6.40605e-05 0.91 0 0 0 9.34962e-05 2.8446 0.00328447 
162 -0.000484346 -0.906496 -0.281531 0.91 0 0 0 0.0064877 14.0242 4.43312 
34 5.23143e-05 -3.45588e-05 -4.72149e-05 0.91 0 0 0 0.000543216 -0.000303862 9.31154e-06 
61 -1.83521 -0.000402828 -1.83177 0.91 0 0 0 -0.536761 -0.00931918 -0.517696 
59 -0.29785 0.000548089 -0.952632 0.91 0 0 0 4.38889 -0.0100276 13.7621 
144 -0.0019705 -1.82699 -1.82387 0.91 0 0 0 -0.0240907 -0.45713 -0.442304 
202 4.52219e-05 -3.54865e-05 -4.8541e-05 0.91 0 0 0 4.39135e-05 -0.000203333 -0.000164129 
304 4.78299e-05 -4.12997e-05 -4.94693e-05 0.91 0 0 0 0.000393376 -0.00052724 -6.51966e-05 
317 4.78217e-05 -3.90543e-05 -5.16956e-05 0.91 0 0 0 0.000393174 -0.000454837 -0.000142823 
305 4.65158e-05 -3.94471e-05 -4.85284e-05 0.91 0 0 0 0.000219711 -0.000727573 -0.000164053 
300 4.5492e-05 -3.91556e-05 -4.95473e-05 0.91 0 0 0 0.000402902 -0.000368848 1.92018e-05 
285 4.55924e-05 -4.13057e-05 -4.72166e-05 0.91 0 0 0 0.000318266 -0.00052889 9.18391e-06 
301 4.51779e-05 -3.81489e-05 -4.85499e-05 0.91 0 0 0 4.71757e-05 -0.000550911 -0.000162295 
318 4.65384e-05 -3.81043e-05 -4.97934e-05 0.91 0 0 0 0.000216704 -0.000555703 -0.000344296 
201 4.5494e-05 -3.44719e-05 -4.95454e-05 0.91 0 0 0 0.000403 -0.000388547 1.94138e-05 
188 4.33537e-05 -3.45549e-05 -4.72287e-05 0.91 0 0 0 0.00024368 -0.000303714 9.37325e-06 
186 4.7835e-05 -3.50098e-05 -4.72188e-05 0.91 0 0 0 0.000393109 -0.000411383 9.50853e-06 
213 4.64835e-05 -3.54579e-05 -4.99176e-05 0.91 0 0 0 0.000222279 -0.000208297 -0.000332672 
314 4.55864e-05 -3.68095e-05 -5.16931e-05 0.91 0 0 0 0.000316032 -0.000378741 -0.000144493 
114 5.0415e-05 -3.81064e-05 -4.85113e-05 0.91 0 0 0 0.000745747 -0.000553826 -0.000166491 
280 4.57364e-05 -3.88935e-05 -4.72195e-05 0.91 0 0 0 0.000418772 -0.000353132 9.48962e-06 
212 4.78192e-05 -3.45661e-05 -5.17098e-05 0.91 0 0 0 0.000392932 -0.000303699 -0.000141319 
35 4.99151e-05 -3.47291e-05 -4.7218e-05 0.91 0 0 0 0.000367603 -0.000404254 9.46408e-06 
182 4.78324e-05 -3.19075e-05 -4.72198e-05 0.91 0 0 0 0.0003931 -0.000337287 9.51162e-06 
45 5.01543e-05 -3.44841e-05 -4.95346e-05 0.91 0 0 0 0.000382966 -0.000389016 1.97595e-05 
197 4.64819e-05 -3.41015e-05 -4.85814e-05 0.91 0 0 0 0.000222898 -3.75602e-05 -0.000159949 
124 5.00697e-05 -3.6801e-05 -5.16948e-05 0.91 0 0 0 0.000469824 -0.00037864 -0.000143328 
115 5.01655e-05 -3.91365e-05 -4.9556e-05 0.91 0 0 0 0.000383437 -0.000368828 1.93104e-05 
26 -1.83625 -1.8397 -0.000739447 0.91 0 0 0 -0.545425 -0.541434 -0.00819134 
288 4.77748e-05 1.55457e-05 -4.71866e-05 0.91 0 0 0 0.000395866 -0.00357658 9.57956e-06 
306 8.51005e-05 3.57826e-07 -2.87167e-05 0.91 0 0 0 -0.00182609 -0.00259376 -0.00109349 
286 6.17014e-05 -2.29528e-05 -4.72051e-05 0.91 0 0 0 -0.000898143 -0.00167194 8.8223e-06 
321 4.77805e-05 -2.31333e-05 -3.35423e-05 0.91 0 0 0 0.000396466 -0.00166191 -0.00127292 
187 4.57481e-05 -3.47293e-05 -4.72068e-05 0.91 0 0 0 0.000418711 -0.000404203 9.35611e-06 
322 6.74941e-05 2.52071e-06 -7.90469e-06 0.91 0 0 0 -0.000754656 -0.00267139 -0.00228172 
319 8.62965e-05 -1.7558e-05 -8.7722e-06 0.91 0 0 0 -0.00186781 -0.00151171 -0.0022517 
275 4.60222e-05 -3.68073e-05 -4.72126e-05 0.91 0 0 0 0.000425956 -0.000378685 9.39899e-06 
100 4.9923e-05 -3.89014e-05 -4.72065e-05 0.91 0 0 0 0.0003677 -0.000353103 9.28806e-06 
277 0.000100702 -3.6891e-05 -4.72071e-05 0.91 0 0 0 -0.00282152 -0.000374894 7.58607e-06 
281 4.33484e-05 -3.90733e-05 -4.72157e-05 0.91 0 0 0 0.000244702 -0.000452771 9.49786e-06 
214 8.599e-05 -5.58579e-05 -9.24376e-06 0.91 0 0 0 -0.00185799 0.000747562 -0.00223404 
284 4.78348e-05 -4.17098e-05 -4.72009e-05 0.91 0 0 0 0.000393257 -0.000419261 9.39904e-06 
276 4.29444e-05 -3.68202e-05 -4.72067e-05 0.91 0 0 0 0.000353011 -0.000378593 9.60373e-06 
99 5.23114e-05 -3.90572e-05 -4.71987e-05 0.91 0 0 0 0.000544034 -0.000453778 9.50616e-06 
118 4.91446e-05 -3.94454e-05 -4.85225e-05 0.91 0 0 0 0.00056761 -0.000726959 -0.000163837 
127 4.91186e-05 -3.80963e-05 -4.97913e-05 0.91 0 0 0 0.000570713 -0.000554805 -0.00034412 
44 5.04954e-05 -3.54645e-05 -4.85528e-05 0.91 0 0 0 0.00073805 -0.000207366 -0.000161786 
53 4.91518e-05 -3.54692e-05 -4.98574e-05 0.91 0 0 0 0.000567247 -0.000204726 -0.000337007 
95 5.27157e-05 -3.68023e-05 -4.72167e-05 0.91 0 0 0 0.000432778 -0.000378625 9.27105e-06 
282 0.000175744 6.13139e-06 -4.71499e-05 0.91 0 0 0 -0.00498499 -0.00218649 5.76281e-06 
110 5.23007e-05 -3.68147e-05 -4.94606e-05 0.91 0 0 0 0.000546214 -0.00037903 -6.7074e-05 
289 8.99146e-05 8.78475e-05 -4.71974e-05 0.91 0 0 0 -0.00139508 -0.00567988 1.03738e-05 
31 5.00839e-05 -3.23175e-05 -4.72065e-05 0.91 0 0 0 0.000467544 -0.000230137 9.88706e-06 
41 4.91257e-05 -3.42244e-05 -4.85231e-05 0.91 0 0 0 0.000570043 -2.59665e-05 -0.000167269 
332 4.80003e-05 6.44037e-06 8.17178e-05 0.91 0 0 0 0.000384231 -0.00218944 -0.00539626 
167 4.78376e-05 -3.23369e-05 -4.49718e-05 0.91 0 0 0 0.000393085 -0.000224877 8.63715e-05 
308 4.76427e-05 9.202e-05 -3.60278e-06 0.91 0 0 0 0.000399446 -0.00578017 -0.00181593 
241 4.55937e-05 -3.6824e-05 -4.27434e-05 0.91 0 0 0 0.000315186 -0.00037861 0.000164373 
302 0.000313748 5.31179e-05 4.27119e-05 0.91 0 0 0 -0.00684787 -0.00282477 -0.00243668 
333 0.000135962 5.14534e-05 0.000214867 0.91 0 0 0 -0.00203412 -0.00280643 -0.00722409 
309 0.000138048 0.000229542 4.27145e-05 0.91 0 0 0 -0.0020561 -0.00762734 -0.002429 
82 4.99194e-05 -3.6818e-05 -4.51132e-05 0.91 0 0 0 0.000367749 -0.000378549 -1.62861e-05 
256 4.5739e-05 -3.68126e-05 -4.51319e-05 0.91 0 0 0 0.000418726 -0.000378584 -1.61193e-05 
255 4.78399e-05 -3.68081e-05 -4.54032e-05 0.91 0 0 0 0.000393026 -0.000378684 -2.34717e-05 
172 4.5501e-05 -3.44672e-05 -4.48772e-05 0.91 0 0 0 0.000402779 -0.000388382 -3.67013e-07 
81 5.23076e-05 -3.68022e-05 -4.49542e-05 0.91 0 0 0 0.000544376 -0.000378268 8.49477e-05 
171 4.78422e-05 -3.47195e-05 -4.51371e-05 0.91 0 0 0 0.00039302 -0.000404306 -1.61338e-05 
260 4.78389e-05 -3.89028e-05 -4.51235e-05 0.91 0 0 0 0.000393083 -0.000353046 -1.62063e-05 
257 4.33518e-05 -3.68092e-05 -4.49795e-05 0.91 0 0 0 0.000241369 -0.000378171 8.46622e-05 
86 5.01773e-05 -3.91594e-05 -4.48613e-05 0.91 0 0 0 0.000383802 -0.000369159 -1.78947e-07 
240 4.78295e-05 -3.68259e-05 -4.23246e-05 0.91 0 0 0 0.000393029 -0.000378608 4.84942e-05 
261 4.54902e-05 -3.91614e-05 -4.48743e-05 0.91 0 0 0 0.000402661 -0.000368947 -2.19458e-07 
329 9.01008e-05 -3.6649e-05 7.76537e-05 0.91 0 0 0 -0.00140202 -0.000383868 -0.00529602 
24 5.01642e-05 -3.4479e-05 -4.4888e-05 0.91 0 0 0 0.000383123 -0.000388708 -7.03876e-07 
297 0.000173418 -3.68544e-05 -4.99137e-06 0.91 0 0 0 -0.00492804 -0.000377488 -0.00178192 
225 8.9737e-05 -8.96089e-06 -0.0167096 0.91 0 0 0 -0.00483831 -0.00410623 3.04406 
135 4.17105e-06 -3.69158e-05 8.22656e-05 0.91 0 0 0 0.00221665 -0.00037168 -0.00540864 
123 3.44209e-05 -3.68078e-05 -3.38342e-05 0.91 0 0 0 0.00166229 -0.00037716 -0.00125933 
94 -5.81547e-06 -3.68301e-05 -4.71353e-05 0.91 0 0 0 0.00363644 -0.000376824 5.73844e-06 
102 3.42685e-05 -2.33336e-05 -4.71877e-05 0.91 0 0 0 0.00167101 -0.00165118 9.17051e-06 
52 9.97175e-06 -5.56225e-05 -9.25012e-06 0.91 0 0 0 0.00263034 0.000737204 -0.00223673 
106 5.31837e-06 8.88367e-05 -4.7001e-05 0.91 0 0 0 0.00219151 -0.00570318 3.21236e-06 
117 9.11374e-06 1.84288e-06 -2.7914e-05 0.91 0 0 0 0.00266272 -0.00264681 -0.00112242 
126 9.5685e-06 -1.77532e-05 -9.01331e-06 0.91 0 0 0 0.00264644 -0.00150198 -0.00224209 
130 2.89471e-05 1.08059e-06 -9.29389e-06 0.91 0 0 0 0.00150905 -0.00261938 -0.00223249 
209 6.66322e-05 -7.43763e-05 -9.67707e-06 0.91 0 0 0 -0.000722723 0.00185162 -0.00221995 
184 6.12318e-05 -5.0142e-05 -4.72395e-05 0.91 0 0 0 -0.000876487 0.000887014 9.38204e-06 
30 3.40615e-05 -5.05996e-05 -4.72432e-05 0.91 0 0 0 0.00167922 0.000911584 1.14489e-05 
50 2.83832e-05 -7.58808e-05 -8.12441e-06 0.91 0 0 0 0.00152951 0.00190643 -0.00227626 
40 1.01682e-05 -7.44306e-05 -2.84905e-05 0.91 0 0 0 0.00262509 0.00185418 -0.00110298 
198 8.59911e-05 -7.49266e-05 -2.82618e-05 0.91 0 0 0 -0.00185664 0.00187122 -0.00111246 
203 0.000310134 -0.000125588 4.16423e-05 0.91 0 0 0 -0.0068281 0.00206093 -0.00243683 
221 0.000137972 -0.000127194 0.000220427 0.91 0 0 0 -0.00204443 0.00206842 -0.00725098 
208 4.7834e-05 -5.04904e-05 -3.35083e-05 0.91 0 0 0 0.000392594 0.000904841 -0.0012768 
220 4.79779e-05 -7.88086e-05 7.76828e-05 0.91 0 0 0 0.000385886 0.00140732 -0.00529839 
178 4.78573e-05 -9.09007e-05 -4.72645e-05 0.91 0 0 0 0.000392366 0.00288318 1.04241e-05 
189 0.000175426 -7.97615e-05 -4.71563e-05 0.91 0 0 0 -0.0049764 0.00142866 4.64318e-06 
20 4.9201e-05 -3.40806e-05 -4.58492e-05 0.91 0 0 0 0.000561826 -4.02913e-05 0.000178055 
154 4.78192e-05 -5.05596e-05 -6.09308e-05 0.91 0 0 0 0.000395797 0.000908454 0.00129343 
168 4.64966e-05 -3.41268e-05 -4.58772e-05 0.91 0 0 0 0.000221858 -3.55299e-05 0.000180382 
85 5.04279e-05 -3.81222e-05 -4.5898e-05 0.91 0 0 0 0.000744729 -0.000553741 0.000183987 
14 4.91587e-05 -3.55015e-05 -4.45799e-05 0.91 0 0 0 0.000567596 -0.00020527 0.00035764 
169 8.53657e-05 -7.4322e-05 -6.5959e-05 0.91 0 0 0 -0.00183328 0.00184869 0.00112184 
19 9.70759e-06 -7.4856e-05 -6.61401e-05 0.91 0 0 0 0.00264318 0.0018682 0.00112761 
73 4.9185e-05 -3.81762e-05 -4.4512e-05 0.91 0 0 0 0.000564041 -0.000549397 0.000350511 
323 0.000339414 0.000255243 0.000244786 0.91 0 0 0 -0.000100261 -0.000877278 -0.000491668 
23 5.04979e-05 -3.54711e-05 -4.58711e-05 0.91 0 0 0 0.000737632 -0.00020691 0.000180915 
69 3.46711e-05 -3.67993e-05 -6.0365e-05 0.91 0 0 0 0.00165049 -0.000380853 0.00126796 
248 4.78572e-05 -2.34061e-05 -6.06643e-05 0.91 0 0 0 0.000391221 -0.00164886 0.00128314 
70 5.00942e-05 -3.68153e-05 -4.27235e-05 0.91 0 0 0 0.00046793 -0.000378476 0.000157874 
88 1.01233e-05 7.63411e-07 -6.59423e-05 0.91 0 0 0 0.00262758 -0.002608 0.00112336 
266 4.65234e-05 -3.94493e-05 -4.58917e-05 0.91 0 0 0 0.000219266 -0.000727624 0.00018315 
158 4.78431e-05 -3.456e-05 -4.27193e-05 0.91 0 0 0 0.000393208 -0.000304636 0.000156865 
244 4.78298e-05 -3.90692e-05 -4.2732e-05 0.91 0 0 0 0.00039289 -0.000454871 0.000161659 
267 8.64077e-05 1.74231e-06 -6.64045e-05 0.91 0 0 0 -0.00187125 -0.00264573 0.00113832 
242 6.09039e-05 -3.68217e-05 -6.02531e-05 0.91 0 0 0 -0.000859462 -0.00037989 0.00126135 
173 4.52081e-05 -3.54951e-05 -4.5896e-05 0.91 0 0 0 4.5024e-05 -0.000205188 0.00018315 
159 4.65052e-05 -3.54789e-05 -4.4546e-05 0.91 0 0 0 0.00022097 -0.000206362 0.000353689 
109 -8.0049e-05 -3.67547e-05 -3.97225e-06 0.91 0 0 0 0.00576831 -0.000379287 -0.00180775 
120 -4.18017e-05 0.000227933 4.23405e-05 0.91 0 0 0 0.00283351 -0.00761765 -0.00242904 
33 -8.06578e-05 -8.03095e-05 -4.72449e-05 0.91 0 0 0 0.00578318 0.00144781 1.12625e-05 
43 -0.00021889 -0.000127174 4.23527e-05 0.91 0 0 0 0.00763833 0.00207502 -0.00241924 
57 -4.00698e-05 -0.000124815 0.000213829 0.91 0 0 0 0.00281695 0.00205547 -0.00721826 
113 -0.000212836 5.11378e-05 4.06979e-05 0.91 0 0 0 0.00760788 -0.00280723 -0.00241736 
137 -4.1569e-05 5.30535e-05 0.000218626 0.91 0 0 0 0.00282002 -0.00281918 -0.00723855 
179 9.06787e-05 -0.000163644 -4.74286e-05 0.91 0 0 0 -0.00141242 0.00497519 1.56994e-05 
28 4.83773e-06 -0.000163537 -4.71877e-05 0.91 0 0 0 0.00220696 0.004972 6.42895e-06 
287 -1.39842e-05 -8.38212e-05 -4.69546e-05 0.91 0 0 0 0.0465373 0.0312864 2.26099e-06 
38 -4.0504e-05 -0.000299389 4.0971e-05 0.91 0 0 0 0.00282023 0.00686006 -0.00241805 
290 9.39065e-06 -8.38599e-05 -4.7181e-05 0.91 0 0 0 0.0315213 0.0448988 2.5766e-05 
194 0.00013838 -0.000304816 4.33002e-05 0.91 0 0 0 -0.0020493 0.00687887 -0.00243946 
25 -0.272597 -0.875327 0.000524638 0.91 0 0 0 4.48553 14.1621 -0.00946609 
335 4.81574e-05 -8.00627e-05 -0.000101873 0.91 0 0 0 0.000437729 0.0311178 0.0457094 
325 4.81575e-05 -9.86914e-05 -9.5298e-05 0.91 0 0 0 0.000332045 0.0457844 0.0317572 
165 0.000137337 -0.0003016 -0.000136861 0.91 0 0 0 -0.00204384 0.00686076 0.00245091 
17 -4.03334e-05 -0.000298815 -0.000136162 0.91 0 0 0 0.00281936 0.00684907 0.00245507 
164 4.78756e-05 -0.000165815 -9.07091e-05 0.91 0 0 0 0.000392767 0.00502803 0.00182944 
330 2.66726e-05 -3.70944e-05 -6.91103e-05 0.91 0 0 0 0.0304594 -0.000450019 0.043778 
316 -8.60408e-05 -3.71845e-05 -0.000143289 0.91 0 0 0 0.0508066 -0.0003184 0.0346067 
22 -0.000213312 -0.000124631 -0.000135123 0.91 0 0 0 0.00761576 0.00204695 0.00243834 
148 4.76608e-05 -8.04836e-05 -0.000176315 0.91 0 0 0 0.000402291 0.00144816 0.00541727 
84 -0.000214937 5.21525e-05 -0.000136 0.91 0 0 0 0.00761767 -0.00282069 0.00245016 
91 -4.21021e-05 0.000231176 -0.000137344 0.91 0 0 0 0.00282118 -0.00764299 0.00244963 
174 0.000304604 -0.000123199 -0.000133632 0.91 0 0 0 -0.00680267 0.00203672 0.00242499 
160 8.65438e-05 -5.61053e-05 -8.58421e-05 0.91 0 0 0 -0.00187639 0.000753478 0.00227593 
11 2.86931e-05 -7.52324e-05 -8.55972e-05 0.91 0 0 0 0.00152089 0.00188193 0.00226764 
80 -7.88456e-05 -3.70169e-05 -8.97112e-05 0.91 0 0 0 0.00574148 -0.000369821 0.00180564 
155 6.69969e-05 -7.52642e-05 -8.57431e-05 0.91 0 0 0 -0.000732688 0.00188182 0.00227395 
246 8.64533e-05 -1.75387e-05 -8.5761e-05 0.91 0 0 0 -0.00187273 -0.00151413 0.00227349 
258 0.000173879 -3.69896e-05 -8.9603e-05 0.91 0 0 0 -0.00493884 -0.000373168 0.00180186 
233 4.79974e-05 6.21541e-06 -0.000174626 0.91 0 0 0 0.000387477 -0.00219319 0.00537731 
230 9.077e-05 -3.67848e-05 -0.000174731 0.91 0 0 0 -0.00141181 -0.000382521 0.00538013 
63 5.67636e-06 -3.70526e-05 -0.00017168 0.91 0 0 0 0.00218609 -0.000370346 0.00530462 
76 2.89245e-05 1.21715e-06 -8.52107e-05 0.91 0 0 0 0.00151045 -0.00262673 0.00225551 
269 4.77044e-05 8.83255e-05 -8.94865e-05 0.91 0 0 0 0.000398093 -0.00569163 0.00180509 
129 -0.000242507 0.000254402 0.000244053 0.91 0 0 0 0.00105485 -0.00105392 -0.000663578 
105 7.97707e-05 -7.4634e-05 -4.77721e-05 0.91 0 0 0 -0.0303852 0.0443102 -6.54533e-06 
134 0.000130965 -3.73346e-05 -0.000158746 0.91 0 0 0 -0.0334047 -0.000328669 0.049128 
217 4.83773e-05 5.88562e-06 -0.000101468 0.91 0 0 0 0.000312093 -0.0318563 0.045713 
210 0.000337156 -0.000326899 0.000242927 0.91 0 0 0 -0.000551246 0.000579695 -0.000960927 
49 -0.000243722 -0.000328933 0.000244735 0.91 0 0 0 0.000874983 0.000127276 -0.0004935 
185 -1.39188e-06 1.68177e-06 -4.64797e-05 0.91 0 0 0 0.0458015 -0.0314998 -5.26849e-06 
29 8.88297e-05 -4.0561e-06 -4.74314e-05 0.91 0 0 0 -0.0444987 -0.0311762 -2.43361e-06 
6 -4.08517e-05 -0.000125928 -0.000310563 0.91 0 0 0 0.00282502 0.00206183 0.00724585 
149 0.000138899 -0.000127302 -0.00031657 0.91 0 0 0 -0.00205138 0.00205217 0.00727288 
336 -0.00183821 -0.00384773 -0.00556932 0.91 0 0 0 0.0783376 0.157189 0.229033 
307 -0.00645359 -0.00452845 -0.00227607 0.91 0 0 0 0.248631 0.170666 0.0849087 
10 -0.000242974 -0.000328147 -0.000337579 0.91 0 0 0 0.00112902 0.000361009 0.000751356 
334 -0.00431838 -0.00219573 -0.00635939 0.91 0 0 0 0.169247 0.0830195 0.244831 
310 -0.00383171 -0.00565106 -0.00196992 0.91 0 0 0 0.159447 0.230486 0.0788441 
326 -0.00188385 -0.00567066 -0.00392837 0.91 0 0 0 0.0794405 0.230996 0.158995 
320 -0.00565394 -0.00198706 -0.00398256 0.91 0 0 0 0.233135 0.07892 0.160289 
156 0.000339036 -0.000328695 -0.000338767 0.91 0 0 0 -0.000126292 0.000152166 0.000539798 
65 -3.96941e-05 5.01972e-05 -0.000306034 0.91 0 0 0 0.00282676 -0.00280096 0.0072242 
250 0.00033666 0.0002531 -0.000336423 0.91 0 0 0 -0.000629766 -0.00142736 0.00104569 
75 -0.000242673 0.000253128 -0.000338085 0.91 0 0 0 0.00122083 -0.00121557 0.000853422 
234 0.000137225 5.22846e-05 -0.000312946 0.91 0 0 0 -0.00203663 -0.00280894 0.00726273 
122 0.00013537 -3.7159e-05 -0.000112221 0.91 0 0 0 -0.0473121 -0.000357932 0.0327059 
132 0.00215345 -0.00618865 -0.00429251 0.91 0 0 0 -0.0820859 0.24142 0.166414 
116 0.00595391 -0.0041096 -0.00206262 0.91 0 0 0 -0.236574 0.162624 0.0805732 
125 0.00602471 -0.00207512 -0.00416725 0.91 0 0 0 -0.237999 0.0806842 0.16389 
136 0.00396383 -0.00198718 -0.00572783 0.91 0 0 0 -0.159273 0.0791333 0.232341 
119 0.00395406 -0.00569935 -0.00199486 0.91 0 0 0 -0.159133 0.231549 0.0794818 
139 0.00197313 -0.00389158 -0.00563995 0.91 0 0 0 -0.0786441 0.158038 0.230485 
101 0.000158365 -0.000117646 -4.79459e-05 0.91 0 0 0 -0.0486518 0.033312 3.47673e-05 
27 0.000125114 6.65581e-05 -4.72157e-05 0.91 0 0 0 -0.0331015 -0.0490141 4.98562e-05 
55 0.00201819 0.00395214 -0.0058089 0.91 0 0 0 -0.0792307 -0.161933 0.233929 
205 4.81236e-05 -9.0157e-06 -7.11979e-05 0.91 0 0 0 0.000360505 -0.044486 0.0303105 
39 0.00553741 0.00375456 -0.00191866 0.91 0 0 0 -0.22783 -0.157633 0.0775358 
51 0.00583973 0.00193383 -0.00404513 0.91 0 0 0 -0.234217 -0.0799785 0.161521 
180 -5.30494e-05 0.000100742 -4.62191e-05 0.91 0 0 0 0.0352693 -0.0510051 -6.78153e-05 
56 0.00447492 0.00215219 -0.00645617 0.91 0 0 0 -0.169437 -0.08438 0.246642 
222 -0.00427705 0.00210801 -0.0063067 0.91 0 0 0 0.168415 -0.0837319 0.243871 
215 -0.00560946 0.00189103 -0.00394134 0.91 0 0 0 0.232347 -0.0792389 0.159316 
218 -0.00197886 0.00406703 -0.0059881 0.91 0 0 0 0.0812573 -0.164167 0.237696 
199 -0.00621703 0.00428758 -0.00218706 0.91 0 0 0 0.244355 -0.168417 0.0831702 
145 4.72519e-05 5.51991e-05 7.82253e-05 0.91 0 0 0 0.000394929 -0.0347301 -0.0499144 
62 0.000124698 -3.66337e-05 5.639e-05 0.91 0 0 0 -0.033079 -0.000378877 -0.048649 
170 -0.00633901 0.00436839 0.0021383 0.91 0 0 0 0.246639 -0.169845 -0.0839229 
68 8.80756e-05 -3.67682e-05 -1.49862e-05 0.91 0 0 0 -0.0444606 -0.000344238 -0.0307673 
18 0.00582511 0.00395075 0.00193251 0.91 0 0 0 -0.233882 -0.161672 -0.0800474 
236 4.7432e-05 -8.89522e-05 2.1085e-05 0.91 0 0 0 0.000340687 0.0316292 -0.046546 
252 4.74193e-05 -8.2968e-05 -1.00336e-05 0.91 0 0 0 0.000434903 0.0447951 -0.0311523 
231 7.64377e-06 -3.64885e-05 2.21523e-06 0.91 0 0 0 0.0315942 -0.000354383 -0.0454224 
243 5.74121e-06 -3.63947e-05 -1.33976e-05 0.91 0 0 0 0.0452978 -0.000484065 -0.0308949 
151 4.74819e-05 3.57934e-05 8.21602e-06 0.91 0 0 0 0.000351929 -0.0471725 -0.0321966 
90 0.00414318 -0.0059678 0.00198614 0.91 0 0 0 -0.163095 0.237025 -0.0811426 
268 -0.00587278 -0.00411617 0.00197073 0.91 0 0 0 0.237663 0.162682 -0.0806068 
271 -0.00410507 -0.00603511 0.00201598 0.91 0 0 0 0.165094 0.238233 -0.0818043 
87 0.00609273 -0.00421479 0.00201127 0.91 0 0 0 -0.239284 0.164843 -0.0813878 
161 -0.00613207 0.00208102 0.00422133 0.91 0 0 0 0.242641 -0.0831667 -0.166872 
140 -0.286942 0.00140705 0.924086 0.91 0 0 0 4.40569 -0.0206323 -13.9351 
339 4.11842e-05 -4.03332e-05 0.00924556 0.91 0 0 0 0.00056917 0.00272725 -2.65791 
4 0.00213086 0.0041769 0.00605399 0.91 0 0 0 -0.0815745 -0.166241 -0.240802 
58 -0.586936 -0.589096 1.94406 0.91 0 0 0 0.981125 0.991925 -2.46845 
150 -0.00394049 0.00194557 0.00573234 0.91 0 0 0 0.161618 -0.080497 -0.234351 
12 0.00616687 0.00204872 0.00418616 0.91 0 0 0 -0.240687 -0.0822829 -0.166374 
146 -0.00212904 0.00434284 0.00628661 0.91 0 0 0 0.0843311 -0.169452 -0.245125 
54 -0.938064 -0.940003 1.38529 0.91 0 0 0 2.53981 2.5483 -3.63261 
191 -0.000981289 -0.952737 0.297626 0.91 0 0 0 0.0155094 13.7598 -4.38234 
216 0.00179698 -1.8289 1.82911 0.91 0 0 0 0.0103324 -0.508463 0.487018 
36 -0.579107 -1.92139 0.579661 0.91 0 0 0 1.05648 2.70511 -1.04936 
5 0.00440318 0.00211471 0.00625113 0.91 0 0 0 -0.168251 -0.0836318 -0.244536 
108 -0.889278 -2.77553e-05 0.278279 0.91 0 0 0 14.0916 -0.000401371 -4.48484 
67 0.00199482 -0.00398505 0.00565567 0.91 0 0 0 -0.078816 0.160276 -0.23271 
133 -1.83338 -0.000192783 1.82988 0.91 0 0 0 -0.523155 -0.0023929 0.49881 
46 -0.955744 -1.40757 0.951308 0.91 0 0 0 2.38725 3.38733 -2.37437 
42 -1.914 -0.577185 0.579073 0.91 0 0 0 2.76691 1.07058 -1.06948 
223 0.000602759 -0.284971 0.916138 0.91 0 0 0 -0.0101412 4.4248 -13.976 
48 -1.39937 -0.944107 0.948538 0.91 0 0 0 3.48837 2.44394 -2.45201 
235 -0.00371527 -0.00189875 0.00540896 0.91 0 0 0 0.156852 0.0770319 -0.227609 
237 -0.00183652 -0.00383614 0.00545429 0.91 0 0 0 0.0783268 0.15698 -0.228516 
253 -0.00187416 -0.00565622 0.00382769 0.91 0 0 0 0.0790971 0.230682 -0.158904 
71 0.00609136 -0.00210545 0.0041188 0.91 0 0 0 -0.239311 0.0814115 -0.164822 
78 0.00213348 -0.00612614 0.00416494 0.91 0 0 0 -0.0817377 0.240091 -0.165914 
247 -0.00598988 -0.00210669 0.00410979 0.91 0 0 0 0.239964 0.0814994 -0.164537 
64 0.00400837 -0.0020055 0.00569258 0.91 0 0 0 -0.160314 0.0794622 -0.233553 
83 -1.90953 0.576362 -0.578327 0.91 0 0 0 2.80958 -1.07952 1.08963 
60 -0.57995 0.585385 -1.93273 0.91 0 0 0 1.02055 -1.02871 2.59539 
227 0.000794632 0.281733 -0.902404 0.91 0 0 0 -0.00811935 -4.46073 14.0362 
92 -0.578028 1.91649 -0.57686 0.91 0 0 0 1.06235 -2.76518 1.07119 
239 0.000270059 1.83706 -1.83586 0.91 0 0 0 0.00150494 0.50372 -0.511032 
37 0.00446894 0.00636613 -0.00224404 0.91 0 0 0 -0.169271 -0.246924 0.0843071 
47 0.00208013 0.00587164 -0.00411988 0.91 0 0 0 -0.0807553 -0.237438 0.162943 
66 -0.950964 0.950165 -1.40534 0.91 0 0 0 2.4072 -2.40577 3.43177 
77 -0.950286 1.40304 -0.948536 0.91 0 0 0 2.42119 -3.44777 2.42342 
74 -1.3948 0.94256 -0.942717 0.91 0 0 0 3.5452 -2.48337 2.48907 
97 -0.911086 0.282561 0.00059611 0.91 0 0 0 14.0012 -4.42162 -0.00766098 
292 5.16764e-05 0.0091008 -5.73089e-05 0.91 0 0 0 0.00146866 -2.64951 0.00315224 
195 -0.00393647 0.00573841 -0.00201164 0.91 0 0 0 0.161635 -0.234809 0.0795488 
272 -0.00115688 0.889063 -0.276983 0.91 0 0 0 0.0197929 -14.1043 4.46938 
104 -1.83368 1.83223 -0.000602087 0.91 0 0 0 -0.540933 0.529087 0.00520048 
107 -0.292188 0.935295 0.000731949 0.91 0 0 0 4.4124 -13.8629 -0.00938056 
206 -0.00183892 0.00546287 -0.00383851 0.91 0 0 0 0.0785705 -0.228962 0.157156 
16 0.00395083 0.00561442 0.00189056 0.91 0 0 0 -0.159129 -0.232076 -0.0791719 
166 -0.00408538 0.00594303 0.0020031 0.91 0 0 0 0.16468 -0.238799 -0.0813772 
311 0.000268412 0.891211 0.278619 0.91 0 0 0 -0.00318513 -14.0869 -4.47717 
141 -0.5765 0.574624 1.91227 0.91 0 0 0 1.08397 -1.07862 -2.81952 
121 -0.578846 1.91837 0.581144 0.91 0 0 0 1.05396 -2.72835 -1.06166 
8 0.00190969 0.00541758 0.00371706 0.91 0 0 0 -0.0770119 -0.227941 -0.156575 
138 -0.964071 0.963955 1.42305 0.91 0 0 0 2.26887 -2.26948 -3.21958 
112 -1.91617 0.580863 0.577475 0.91 0 0 0 2.73961 -1.06676 -1.06036 
341 -0.000598026 0.286437 0.919042 0.91 0 0 0 0.00924619 -4.42595 -13.9559 
128 -1.38497 0.936826 0.937017 0.91 0 0 0 3.64459 -2.5542 -2.55675 
131 -0.946597 1.396 0.945728 0.91 0 0 0 2.46497 -3.50943 -2.46631 
338 0.00120421 1.82454 1.82421 0.91 0 0 0 0.00975782 0.470946 0.465641 
152 -0.00191794 0.00568299 0.00391215 0.91 0 0 0 0.0801778 -0.233424 -0.160804 
175 1.9164 -0.579029 -0.578451 0.91 0 0 0 -2.76361 1.06696 1.06317 
143 0.587719 -0.586761 -1.94476 0.91 0 0 0 -0.996126 1.0016 2.48418 
278 0.0146921 -3.56561e-05 -6.13529e-05 0.91 0 0 0 -2.94081 0.00327425 0.00147496 
163 0.579641 -1.92544 -0.581409 0.91 0 0 0 -1.04361 2.67162 1.0517 
177 0.284096 -0.914813 0.000577126 0.91 0 0 0 -4.42164 13.981 -0.00747474 
147 0.959038 -0.956661 -1.41563 0.91 0 0 0 -2.34019 2.341 3.33003 
259 0.891712 -0.000545003 -0.279209 0.91 0 0 0 -14.086 0.00917286 4.48119 
232 1.82127 0.00227108 -1.82113 0.91 0 0 0 0.446109 0.0160584 -0.437626 
190 0.934787 -0.291462 -0.00028764 0.91 0 0 0 -13.8737 4.40447 0.00213541 
226 0.274555 0.00149977 -0.877354 0.91 0 0 0 -4.49966 -0.0223187 14.1484 
157 1.39188 -0.942029 -0.940273 0.91 0 0 0 -3.5833 2.51877 2.51267 
153 0.951984 -1.40794 -0.951914 0.91 0 0 0 -2.39532 3.4117 2.40024 
224 0.591512 -0.584808 1.94962 0.91 0 0 0 -0.979564 0.964328 -2.43007 
298 0.886089 0.000938459 0.277158 0.91 0 0 0 -14.1147 -0.0150816 -4.4903 
192 0.578212 -1.91263 0.579699 0.91 0 0 0 -1.0683 2.77449 -1.06825 
331 1.8403 0.000219685 1.84083 0.91 0 0 0 0.517078 -0.00730621 0.513751 
219 0.943633 -0.941946 1.3906 0.91 0 0 0 -2.50428 2.49376 -3.57544 
181 1.83113 -1.83321 0.00388153 0.91 0 0 0 0.51741 -0.522943 0.0175486 
211 1.37762 -0.932572 0.934288 0.91 0 0 0 -3.72218 2.59147 -2.60329 
204 1.94672 -0.585982 0.589012 0.91 0 0 0 -2.44723 0.966624 -0.980374 
340 0.271502 -0.000456914 0.873257 0.91 0 0 0 -4.48226 0.00911324 -14.178 
207 0.943045 -1.39156 0.944938 0.91 0 0 0 -2.48549 3.54152 -2.49065 
254 0.943178 1.39263 -0.94506 0.91 0 0 0 -2.4833 -3.55619 2.48798 
238 0.953473 0.951443 -1.40821 0.91 0 0 0 -2.38228 -2.38656 3.39273 
291 1.83249 1.83276 -0.00102895 0.91 0 0 0 0.511835 0.510933 0.00602403 
228 0.578291 0.579104 -1.91453 0.91 0 0 0 -1.06858 -1.07418 2.78476 
283 0.948695 0.296004 -0.000610133 0.91 0 0 0 -13.793 -4.38383 0.00637161 
293 0.297382 0.953322 5.45857e-05 0.91 0 0 0 -4.37501 -13.7631 0.000928187 
251 1.37234 0.930792 -0.931577 0.91 0 0 0 -3.76838 -2.63913 2.63096 
273 0.585329 1.94814 -0.59204 0.91 0 0 0 -0.968925 -2.42927 0.981285 
264 1.9489 0.59012 -0.590137 0.91 0 0 0 -2.41138 -0.971305 0.961051 
342 0.584512 0.586349 1.93754 0.91 0 0 0 -1.01168 -1.00236 -2.54795 
337 0.949585 0.950638 1.40076 0.91 0 0 0 -2.42991 -2.42235 -3.45705 
324 1.39361 0.945971 0.943213 0.91 0 0 0 -3.54491 -2.47972 -2.47727 
327 0.928224 1.37338 0.932104 0.91 0 0 0 -2.62954 -3.76875 -2.63556 
312 0.588003 1.94417 0.585702 0.91 0 0 0 -0.984281 -2.46483 -0.971514 
303 1.93765 0.586327 0.585856 0.91 0 0 0 -2.54049 -1.0006 -1.00278 
ITEM: TIMESTEP
960120
ITEM: NUMBER OF ATOMS
341
ITEM: BOX BOUNDS ss ss ss
-1.9360300446137211e+00 1.9495118901764781e+00
-1.9388440561347573e+00 1.9487524452880283e+00
-1.9453750558316978e+00 1.9502296762444777e+00
ITEM: ATOMS id x y z width_SPH x_COM y_COM z_COM vx vy vz 
2 -0.5851 -0.586068 -1.9354 0.91 0 0 0 1.00611 1.00859 2.55697 
3 -0.946568 -0.947504 -1.39609 0.91 0 0 0 2.45494 2.45387 3.50152 
13 8.21687e-06 -5.65987e-05 -8.68601e-05 0.91 0 0 0 0.00269499 0.000772075 0.00231436 
72 1.0009e-05 -1.80704e-05 -8.50003e-05 0.91 0 0 0 0.00263149 -0.00149067 0.00224845 
103 5.00796e-05 -4.131e-05 -4.72109e-05 0.91 0 0 0 0.000466841 -0.000525688 9.1075e-06 
7 -0.940322 -1.38946 -0.939625 0.91 0 0 0 2.51803 3.59884 2.51363 
263 0.000317185 5.35804e-05 -0.000138376 0.91 0 0 0 -0.0068649 -0.00281419 0.00246042 
9 -1.37994 -0.939321 -0.934125 0.91 0 0 0 3.67056 2.57627 2.56362 
265 4.78284e-05 -4.12986e-05 -4.49717e-05 0.91 0 0 0 0.000393011 -0.000531754 8.54518e-05 
313 4.78376e-05 -3.68165e-05 -5.21077e-05 0.91 0 0 0 0.000393326 -0.000378775 -3.02496e-05 
270 0.000135084 0.000222788 -0.000134854 0.91 0 0 0 -0.00202597 -0.00759996 0.00244276 
296 4.33365e-05 -3.68214e-05 -4.94715e-05 0.91 0 0 0 0.000246699 -0.000378861 -6.32377e-05 
299 4.78253e-05 -3.88977e-05 -4.93001e-05 0.91 0 0 0 0.000393276 -0.00035306 3.50274e-05 
15 -0.584499 -1.93823 -0.585913 0.91 0 0 0 1.00085 2.53066 1.00154 
229 4.78691e-05 -3.68085e-05 -0.000102258 0.91 0 0 0 0.000392237 -0.0003809 0.00330578 
328 4.78198e-05 -3.68559e-05 5.94307e-06 0.91 0 0 0 0.000392657 -0.000374189 -0.00321783 
249 6.72413e-05 2.02249e-06 -8.59615e-05 0.91 0 0 0 -0.000743774 -0.00265639 0.00228065 
279 4.78283e-05 -3.86268e-05 -4.7213e-05 0.91 0 0 0 0.000393239 -0.000345743 9.41385e-06 
295 4.5733e-05 -3.68117e-05 -4.93138e-05 0.91 0 0 0 0.000418632 -0.000378608 3.50194e-05 
21 -1.93542 -0.586851 -0.584125 0.91 0 0 0 2.52982 1.00383 1.00105 
274 4.7833e-05 -3.68111e-05 -4.72089e-05 0.91 0 0 0 0.000393141 -0.000378621 9.32018e-06 
245 4.65347e-05 -3.8137e-05 -4.45925e-05 0.91 0 0 0 0.000218758 -0.000553063 0.000359556 
200 4.78231e-05 -3.47204e-05 -4.93162e-05 0.91 0 0 0 0.000393268 -0.00040412 3.51105e-05 
93 -0.0133683 -4.27049e-05 -3.30154e-05 0.91 0 0 0 2.87708 -0.00065804 0.000205964 
89 4.91426e-05 -3.9451e-05 -4.58783e-05 0.91 0 0 0 0.000566514 -0.000726883 0.000183319 
32 -0.952912 -0.298391 -0.000546327 0.91 0 0 0 13.7549 4.38977 0.0085621 
79 -0.929831 0.000284129 -0.288598 0.91 0 0 0 13.9017 -0.00626442 4.39603 
262 4.52403e-05 -3.81358e-05 -4.59053e-05 0.91 0 0 0 4.2272e-05 -0.00055403 0.000184498 
315 6.20357e-05 -3.68354e-05 -3.30566e-05 0.91 0 0 0 -0.000915243 -0.00037596 -0.0012974 
96 4.96487e-05 -3.68141e-05 -4.7207e-05 0.91 0 0 0 0.000360312 -0.000378582 9.2998e-06 
294 4.78286e-05 -3.68021e-05 -4.90145e-05 0.91 0 0 0 0.000393233 -0.000378792 4.22038e-05 
142 -0.000137072 -0.283015 -0.906668 0.91 0 0 0 0.0022818 4.45307 14.0171 
193 4.79787e-05 -0.000160333 -5.75054e-06 0.91 0 0 0 0.000387367 0.0048956 -0.0017624 
183 4.5586e-05 -3.23123e-05 -4.72302e-05 0.91 0 0 0 0.000319579 -0.000231631 9.37346e-06 
98 -7.87916e-05 6.12573e-06 -4.70421e-05 0.91 0 0 0 0.00573718 -0.00219083 4.37957e-06 
111 4.9925e-05 -3.68079e-05 -4.93039e-05 0.91 0 0 0 0.000367679 -0.000378697 3.49782e-05 
196 4.78281e-05 -3.23219e-05 -4.94745e-05 0.91 0 0 0 0.000392999 -0.000228636 -6.54752e-05 
176 2.21961e-05 -0.0128455 -6.40589e-05 0.91 0 0 0 9.35083e-05 2.84453 0.00328441 
162 -0.000484343 -0.906489 -0.281529 0.91 0 0 0 0.00648776 14.0242 4.43313 
34 5.23146e-05 -3.4559e-05 -4.72149e-05 0.91 0 0 0 0.000543191 -0.000303856 9.33074e-06 
61 -1.83521 -0.000402833 -1.83177 0.91 0 0 0 -0.536766 -0.00931924 -0.5177 
59 -0.297848 0.000548084 -0.952625 0.91 0 0 0 4.3889 -0.0100276 13.7621 
144 -0.00197052 -1.82699 -1.82387 0.91 0 0 0 -0.0240909 -0.457134 -0.442308 
202 4.52219e-05 -3.54866e-05 -4.85411e-05 0.91 0 0 0 4.3909e-05 -0.000203328 -0.000164103 
304 4.78301e-05 -4.13e-05 -4.94693e-05 0.91 0 0 0 0.000393359 -0.000527222 -6.51734e-05 
317 4.78219e-05 -3.90545e-05 -5.16956e-05 0.91 0 0 0 0.000393157 -0.000454823 -0.000142796 
305 4.65159e-05 -3.94474e-05 -4.85285e-05 0.91 0 0 0 0.0002197 -0.00072755 -0.000164028 
300 4.54922e-05 -3.91558e-05 -4.95473e-05 0.91 0 0 0 0.000402887 -0.000368836 1.92226e-05 
285 4.55925e-05 -4.1306e-05 -4.72166e-05 0.91 0 0 0 0.000318253 -0.000528872 9.20311e-06 
301 4.5178e-05 -3.81492e-05 -4.855e-05 0.91 0 0 0 4.71712e-05 -0.000550895 -0.00016227 
318 4.65385e-05 -3.81046e-05 -4.97936e-05 0.91 0 0 0 0.000216693 -0.000555687 -0.000344264 
201 4.54942e-05 -3.44721e-05 -4.95454e-05 0.91 0 0 0 0.000402985 -0.000388539 1.94346e-05 
188 4.33538e-05 -3.45551e-05 -4.72287e-05 0.91 0 0 0 0.000243671 -0.000303708 9.39246e-06 
186 4.78352e-05 -3.501e-05 -4.72188e-05 0.91 0 0 0 0.000393093 -0.000411373 9.52773e-06 
213 4.64837e-05 -3.5458e-05 -4.99178e-05 0.91 0 0 0 0.000222268 -0.000208293 -0.000332641 
314 4.55866e-05 -3.68097e-05 -5.16932e-05 0.91 0 0 0 0.000316019 -0.000378731 -0.000144466 
114 5.04153e-05 -3.81067e-05 -4.85114e-05 0.91 0 0 0 0.000745718 -0.00055381 -0.000166466 
280 4.57366e-05 -3.88937e-05 -4.72195e-05 0.91 0 0 0 0.000418756 -0.000353121 9.50882e-06 
212 4.78194e-05 -3.45663e-05 -5.17098e-05 0.91 0 0 0 0.000392916 -0.000303693 -0.000141292 
35 4.99153e-05 -3.47293e-05 -4.7218e-05 0.91 0 0 0 0.000367585 -0.000404245 9.48328e-06 
182 4.78326e-05 -3.19077e-05 -4.72198e-05 0.91 0 0 0 0.000393084 -0.000337282 9.53082e-06 
45 5.01545e-05 -3.44843e-05 -4.95346e-05 0.91 0 0 0 0.000382948 -0.000389007 1.97803e-05 
197 4.6482e-05 -3.41016e-05 -4.85815e-05 0.91 0 0 0 0.000222887 -3.75621e-05 -0.000159923 
124 5.007e-05 -3.68012e-05 -5.16949e-05 0.91 0 0 0 0.000469803 -0.000378629 -0.000143301 
115 5.01657e-05 -3.91367e-05 -4.9556e-05 0.91 0 0 0 0.000383419 -0.000368816 1.93312e-05 
26 -1.83625 -1.8397 -0.000739451 0.91 0 0 0 -0.545429 -0.541438 -0.00819139 
288 4.7775e-05 1.55439e-05 -4.71866e-05 0.91 0 0 0 0.000395849 -0.00357651 9.59873e-06 
306 8.50996e-05 3.56529e-07 -2.87172e-05 0.91 0 0 0 -0.00182608 -0.00259371 -0.00109346 
286 6.1701e-05 -2.29537e-05 -4.72051e-05 0.91 0 0 0 -0.000898133 -0.0016719 8.84151e-06 
321 4.77807e-05 -2.31341e-05 -3.35429e-05 0.91 0 0 0 0.000396449 -0.00166188 -0.00127288 
187 4.57483e-05 -3.47295e-05 -4.72068e-05 0.91 0 0 0 0.000418695 -0.000404193 9.3753e-06 
322 6.74937e-05 2.51937e-06 -7.90583e-06 0.91 0 0 0 -0.000754655 -0.00267135 -0.00228166 
319 8.62956e-05 -1.75587e-05 -8.77332e-06 0.91 0 0 0 -0.00186779 -0.00151169 -0.00225164 
275 4.60224e-05 -3.68074e-05 -4.72126e-05 0.91 0 0 0 0.00042594 -0.000378675 9.41819e-06 
100 4.99232e-05 -3.89016e-05 -4.72065e-05 0.91 0 0 0 0.000367683 -0.000353092 9.30725e-06 
277 0.000100701 -3.68912e-05 -4.72071e-05 0.91 0 0 0 -0.00282149 -0.000374884 7.60531e-06 
281 4.33486e-05 -3.90735e-05 -4.72157e-05 0.91 0 0 0 0.000244694 -0.000452756 9.51706e-06 
214 8.59891e-05 -5.58575e-05 -9.24487e-06 0.91 0 0 0 -0.00185797 0.000747555 -0.00223399 
284 4.7835e-05 -4.171e-05 -4.72009e-05 0.91 0 0 0 0.00039324 -0.000419245 9.41823e-06 
276 4.29446e-05 -3.68204e-05 -4.72067e-05 0.91 0 0 0 0.000353 -0.000378582 9.62291e-06 
99 5.23117e-05 -3.90574e-05 -4.71987e-05 0.91 0 0 0 0.000544009 -0.000453763 9.52534e-06 
118 4.91449e-05 -3.94458e-05 -4.85226e-05 0.91 0 0 0 0.000567588 -0.000726936 -0.000163812 
127 4.91189e-05 -3.80966e-05 -4.97915e-05 0.91 0 0 0 0.00057069 -0.000554788 -0.000344089 
44 5.04958e-05 -3.54646e-05 -4.85528e-05 0.91 0 0 0 0.000738021 -0.000207362 -0.000161761 
53 4.91521e-05 -3.54693e-05 -4.98575e-05 0.91 0 0 0 0.000567224 -0.000204722 -0.000336976 
95 5.27159e-05 -3.68025e-05 -4.72167e-05 0.91 0 0 0 0.000432756 -0.000378615 9.29025e-06 
282 0.000175742 6.1303e-06 -4.71499e-05 0.91 0 0 0 -0.00498495 -0.00218646 5.78206e-06 
110 5.2301e-05 -3.68149e-05 -4.94607e-05 0.91 0 0 0 0.00054619 -0.00037902 -6.70507e-05 
289 8.99139e-05 8.78447e-05 -4.71974e-05 0.91 0 0 0 -0.00139508 -0.00567982 1.0393e-05 
31 5.00841e-05 -3.23177e-05 -4.72065e-05 0.91 0 0 0 0.000467523 -0.000230135 9.90624e-06 
41 4.9126e-05 -3.42244e-05 -4.85232e-05 0.91 0 0 0 0.00057002 -2.59686e-05 -0.000167244 
332 4.80005e-05 6.43928e-06 8.17151e-05 0.91 0 0 0 0.000384215 -0.00218941 -0.00539619 
167 4.78378e-05 -3.2337e-05 -4.49718e-05 0.91 0 0 0 0.000393068 -0.000224875 8.63867e-05 
308 4.76429e-05 9.20171e-05 -3.60369e-06 0.91 0 0 0 0.000399429 -0.00578011 -0.0018159 
241 4.55939e-05 -3.68242e-05 -4.27433e-05 0.91 0 0 0 0.000315173 -0.000378599 0.000164384 
302 0.000313744 5.31165e-05 4.27106e-05 0.91 0 0 0 -0.0068479 -0.00282476 -0.00243667 
333 0.000135961 5.1452e-05 0.000214863 0.91 0 0 0 -0.00203414 -0.00280642 -0.00722408 
309 0.000138047 0.000229538 4.27132e-05 0.91 0 0 0 -0.00205611 -0.00762734 -0.00242899 
82 4.99196e-05 -3.68182e-05 -4.51132e-05 0.91 0 0 0 0.000367731 -0.000378539 -1.62678e-05 
256 4.57392e-05 -3.68128e-05 -4.51319e-05 0.91 0 0 0 0.00041871 -0.000378574 -1.6101e-05 
255 4.78401e-05 -3.68083e-05 -4.54032e-05 0.91 0 0 0 0.000393009 -0.000378674 -2.3453e-05 
172 4.55012e-05 -3.44674e-05 -4.48772e-05 0.91 0 0 0 0.000402763 -0.000388373 -3.49425e-07 
81 5.23079e-05 -3.68023e-05 -4.49542e-05 0.91 0 0 0 0.000544352 -0.000378258 8.49629e-05 
171 4.78424e-05 -3.47197e-05 -4.51371e-05 0.91 0 0 0 0.000393003 -0.000404296 -1.61156e-05 
260 4.78391e-05 -3.89029e-05 -4.51235e-05 0.91 0 0 0 0.000393066 -0.000353035 -1.6188e-05 
257 4.33519e-05 -3.68094e-05 -4.49794e-05 0.91 0 0 0 0.00024136 -0.000378161 8.46774e-05 
86 5.01775e-05 -3.91596e-05 -4.48613e-05 0.91 0 0 0 0.000383784 -0.000369147 -1.61377e-07 
240 4.78297e-05 -3.6826e-05 -4.23246e-05 0.91 0 0 0 0.000393012 -0.000378598 4.85083e-05 
261 4.54904e-05 -3.91616e-05 -4.48743e-05 0.91 0 0 0 0.000402646 -0.000368935 -2.01876e-07 
329 9.01001e-05 -3.66492e-05 7.7651e-05 0.91 0 0 0 -0.00140202 -0.000383857 -0.00529594 
24 5.01644e-05 -3.44792e-05 -4.4888e-05 0.91 0 0 0 0.000383105 -0.000388699 -6.86269e-07 
297 0.000173415 -3.68546e-05 -4.99226e-06 0.91 0 0 0 -0.00492801 -0.000377477 -0.00178188 
225 8.97346e-05 -8.96294e-06 -0.0167081 0.91 0 0 0 -0.00483821 -0.00410613 3.04399 
135 4.17216e-06 -3.6916e-05 8.22629e-05 0.91 0 0 0 0.00221661 -0.00037167 -0.00540857 
123 3.44217e-05 -3.6808e-05 -3.38348e-05 0.91 0 0 0 0.00166225 -0.00037715 -0.00125928 
94 -5.81365e-06 -3.68302e-05 -4.71353e-05 0.91 0 0 0 0.00363637 -0.000376814 5.75768e-06 
102 3.42694e-05 -2.33344e-05 -4.71877e-05 0.91 0 0 0 0.00167096 -0.00165115 9.18969e-06 
52 9.97306e-06 -5.56221e-05 -9.25124e-06 0.91 0 0 0 0.00263029 0.000737197 -0.00223668 
106 5.31946e-06 8.88339e-05 -4.7001e-05 0.91 0 0 0 0.00219147 -0.00570311 3.23157e-06 
117 9.11507e-06 1.84156e-06 -2.79145e-05 0.91 0 0 0 0.00266267 -0.00264676 -0.00112238 
126 9.56982e-06 -1.77539e-05 -9.01443e-06 0.91 0 0 0 0.00264639 -0.00150195 -0.00224204 
130 2.89479e-05 1.07928e-06 -9.29501e-06 0.91 0 0 0 0.00150902 -0.00261934 -0.00223243 
209 6.66318e-05 -7.43754e-05 -9.67818e-06 0.91 0 0 0 -0.000722722 0.00185159 -0.00221989 
184 6.12314e-05 -5.01415e-05 -4.72395e-05 0.91 0 0 0 -0.000876478 0.000886999 9.40126e-06 
30 3.40624e-05 -5.05992e-05 -4.72432e-05 0.91 0 0 0 0.00167918 0.000911568 1.14681e-05 
50 2.8384e-05 -7.58799e-05 -8.12554e-06 0.91 0 0 0 0.00152947 0.00190641 -0.00227621 
40 1.01695e-05 -7.44297e-05 -2.84911e-05 0.91 0 0 0 0.00262504 0.00185416 -0.00110295 
198 8.59902e-05 -7.49257e-05 -2.82624e-05 0.91 0 0 0 -0.00185662 0.00187119 -0.00111243 
203 0.000310131 -0.000125587 4.16411e-05 0.91 0 0 0 -0.00682812 0.00206095 -0.00243681 
221 0.000137971 -0.000127193 0.000220424 0.91 0 0 0 -0.00204445 0.00206843 -0.00725097 
208 4.78342e-05 -5.04899e-05 -3.35089e-05 0.91 0 0 0 0.000392578 0.000904825 -0.00127675 
220 4.79781e-05 -7.88079e-05 7.76802e-05 0.91 0 0 0 0.00038587 0.00140731 -0.00529831 
178 4.78575e-05 -9.08992e-05 -4.72644e-05 0.91 0 0 0 0.00039235 0.00288314 1.04433e-05 
189 0.000175423 -7.97608e-05 -4.71563e-05 0.91 0 0 0 -0.00497637 0.00142865 4.66247e-06 
20 4.92012e-05 -3.40807e-05 -4.58492e-05 0.91 0 0 0 0.000561804 -4.0293e-05 0.000178069 
154 4.78194e-05 -5.05591e-05 -6.09302e-05 0.91 0 0 0 0.00039578 0.000908438 0.00129342 
168 4.64967e-05 -3.41268e-05 -4.58771e-05 0.91 0 0 0 0.000221848 -3.55318e-05 0.000180395 
85 5.04283e-05 -3.81225e-05 -4.58979e-05 0.91 0 0 0 0.000744699 -0.000553724 0.000184 
14 4.9159e-05 -3.55016e-05 -4.45797e-05 0.91 0 0 0 0.000567574 -0.000205265 0.000357647 
169 8.53647e-05 -7.4321e-05 -6.59584e-05 0.91 0 0 0 -0.00183326 0.00184867 0.00112184 
19 9.70891e-06 -7.4855e-05 -6.61395e-05 0.91 0 0 0 0.00264313 0.00186818 0.00112761 
73 4.91853e-05 -3.81765e-05 -4.45118e-05 0.91 0 0 0 0.000564018 -0.000549381 0.000350518 
323 0.000339414 0.000255243 0.000244786 0.91 0 0 0 -0.000100499 -0.00087749 -0.000491871 
23 5.04983e-05 -3.54712e-05 -4.5871e-05 0.91 0 0 0 0.000737603 -0.000206906 0.000180928 
69 3.46719e-05 -3.67995e-05 -6.03644e-05 0.91 0 0 0 0.00165044 -0.000380843 0.00126795 
248 4.78574e-05 -2.34069e-05 -6.06637e-05 0.91 0 0 0 0.000391204 -0.00164882 0.00128313 
70 5.00944e-05 -3.68155e-05 -4.27234e-05 0.91 0 0 0 0.00046791 -0.000378465 0.000157885 
88 1.01246e-05 7.62107e-07 -6.59417e-05 0.91 0 0 0 0.00262753 -0.00260796 0.00112336 
266 4.65235e-05 -3.94497e-05 -4.58916e-05 0.91 0 0 0 0.000219255 -0.000727601 0.000183163 
158 4.78433e-05 -3.45602e-05 -4.27193e-05 0.91 0 0 0 0.000393191 -0.00030463 0.000156876 
244 4.783e-05 -3.90694e-05 -4.27319e-05 0.91 0 0 0 0.000392873 -0.000454857 0.000161671 
267 8.64068e-05 1.74098e-06 -6.6404e-05 0.91 0 0 0 -0.00187124 -0.00264568 0.00113832 
242 6.09035e-05 -3.68219e-05 -6.02525e-05 0.91 0 0 0 -0.000859452 -0.000379879 0.00126134 
173 4.52081e-05 -3.54952e-05 -4.58959e-05 0.91 0 0 0 4.50196e-05 -0.000205184 0.000183163 
159 4.65053e-05 -3.5479e-05 -4.45458e-05 0.91 0 0 0 0.000220959 -0.000206358 0.000353696 
109 -8.00461e-05 -3.67549e-05 -3.97315e-06 0.91 0 0 0 0.00576824 -0.000379276 -0.00180771 
120 -4.18003e-05 0.00022793 4.23393e-05 0.91 0 0 0 0.0028335 -0.00761765 -0.00242902 
33 -8.06549e-05 -8.03088e-05 -4.72448e-05 0.91 0 0 0 0.00578311 0.0014478 1.12816e-05 
43 -0.000218886 -0.000127173 4.23515e-05 0.91 0 0 0 0.00763832 0.00207503 -0.00241922 
57 -4.00684e-05 -0.000124814 0.000213826 0.91 0 0 0 0.00281693 0.00205548 -0.00721824 
113 -0.000212833 5.11364e-05 4.06967e-05 0.91 0 0 0 0.00760786 -0.00280722 -0.00241734 
137 -4.15676e-05 5.30521e-05 0.000218622 0.91 0 0 0 0.00282 -0.00281917 -0.00723854 
179 9.0678e-05 -0.000163641 -4.74286e-05 0.91 0 0 0 -0.00141242 0.00497515 1.57186e-05 
28 4.83883e-06 -0.000163535 -4.71877e-05 0.91 0 0 0 0.00220692 0.00497196 6.44821e-06 
287 -1.39609e-05 -8.38055e-05 -4.69546e-05 0.91 0 0 0 0.046536 0.0312855 2.28018e-06 
38 -4.05026e-05 -0.000299385 4.09698e-05 0.91 0 0 0 0.00282021 0.00686007 -0.00241803 
290 9.40642e-06 -8.38375e-05 -4.7181e-05 0.91 0 0 0 0.0315204 0.0448975 2.57847e-05 
194 0.000138378 -0.000304812 4.3299e-05 0.91 0 0 0 -0.00204931 0.00687889 -0.00243945 
25 -0.272595 -0.87532 0.000524633 0.91 0 0 0 4.48554 14.1622 -0.00946608 
335 4.81576e-05 -8.00472e-05 -0.00010185 0.91 0 0 0 0.000437711 0.0311169 0.0457082 
325 4.81576e-05 -9.86685e-05 -9.52822e-05 0.91 0 0 0 0.00033203 0.0457831 0.0317564 
165 0.000137336 -0.000301597 -0.000136859 0.91 0 0 0 -0.00204386 0.00686078 0.00245093 
17 -4.0332e-05 -0.000298812 -0.000136161 0.91 0 0 0 0.00281935 0.00684908 0.00245509 
164 4.78758e-05 -0.000165812 -9.07082e-05 0.91 0 0 0 0.00039275 0.00502798 0.00182944 
330 2.66878e-05 -3.70946e-05 -6.90884e-05 0.91 0 0 0 0.0304585 -0.000450006 0.0437767 
316 -8.60154e-05 -3.71846e-05 -0.000143271 0.91 0 0 0 0.0508052 -0.000318391 0.0346058 
22 -0.000213308 -0.00012463 -0.000135121 0.91 0 0 0 0.00761574 0.00204696 0.00243836 
148 4.7661e-05 -8.04829e-05 -0.000176313 0.91 0 0 0 0.000402275 0.00144815 0.00541724 
84 -0.000214933 5.21511e-05 -0.000135999 0.91 0 0 0 0.00761765 -0.00282068 0.00245018 
91 -4.21007e-05 0.000231172 -0.000137343 0.91 0 0 0 0.00282116 -0.00764299 0.00244965 
174 0.000304601 -0.000123198 -0.000133631 0.91 0 0 0 -0.00680268 0.00203673 0.00242501 
160 8.65429e-05 -5.61049e-05 -8.58409e-05 0.91 0 0 0 -0.00187638 0.000753471 0.00227591 
11 2.86939e-05 -7.52314e-05 -8.5596e-05 0.91 0 0 0 0.00152085 0.00188191 0.00226762 
80 -7.88427e-05 -3.70171e-05 -8.97103e-05 0.91 0 0 0 0.00574141 -0.000369811 0.00180564 
155 6.69966e-05 -7.52632e-05 -8.5742e-05 0.91 0 0 0 -0.000732687 0.0018818 0.00227393 
246 8.64524e-05 -1.75395e-05 -8.57599e-05 0.91 0 0 0 -0.00187271 -0.0015141 0.00227348 
258 0.000173877 -3.69897e-05 -8.96021e-05 0.91 0 0 0 -0.0049388 -0.000373158 0.00180186 
233 4.79976e-05 6.21432e-06 -0.000174624 0.91 0 0 0 0.00038746 -0.00219317 0.00537728 
230 9.07693e-05 -3.6785e-05 -0.000174728 0.91 0 0 0 -0.00141181 -0.000382511 0.0053801 
63 5.67745e-06 -3.70528e-05 -0.000171677 0.91 0 0 0 0.00218606 -0.000370336 0.00530458 
76 2.89252e-05 1.21584e-06 -8.52095e-05 0.91 0 0 0 0.00151041 -0.00262669 0.00225549 
269 4.77046e-05 8.83227e-05 -8.94856e-05 0.91 0 0 0 0.000398077 -0.00569156 0.00180509 
129 -0.000242506 0.000254402 0.000244052 0.91 0 0 0 0.00105505 -0.00105413 -0.000663775 
105 7.97555e-05 -7.46118e-05 -4.77721e-05 0.91 0 0 0 -0.0303843 0.0443089 -6.52521e-06 
134 0.000130948 -3.73347e-05 -0.000158722 0.91 0 0 0 -0.0334038 -0.00032866 0.0491266 
217 4.83775e-05 5.86969e-06 -0.000101445 0.91 0 0 0 0.000312078 -0.0318554 0.0457117 
210 0.000337156 -0.000326898 0.000242926 0.91 0 0 0 -0.00055147 0.000579912 -0.000961114 
49 -0.000243722 -0.000328933 0.000244735 0.91 0 0 0 0.000875188 0.000127508 -0.000493703 
185 -1.36898e-06 1.66602e-06 -4.64797e-05 0.91 0 0 0 0.0458002 -0.0314989 -5.24945e-06 
29 8.88074e-05 -4.07169e-06 -4.74314e-05 0.91 0 0 0 -0.0444974 -0.0311753 -2.41389e-06 
6 -4.08503e-05 -0.000125927 -0.00031056 0.91 0 0 0 0.002825 0.00206184 0.00724588 
149 0.000138898 -0.000127301 -0.000316567 0.91 0 0 0 -0.0020514 0.00205218 0.0072729 
336 -0.00183817 -0.00384765 -0.0055692 0.91 0 0 0 0.0783368 0.157187 0.229031 
307 -0.00645347 -0.00452836 -0.00227602 0.91 0 0 0 0.248629 0.170665 0.084908 
10 -0.000242973 -0.000328147 -0.000337579 0.91 0 0 0 0.00112922 0.000361234 0.000751589 
334 -0.0043183 -0.00219569 -0.00635926 0.91 0 0 0 0.169246 0.0830188 0.244829 
310 -0.00383163 -0.00565094 -0.00196988 0.91 0 0 0 0.159446 0.230484 0.0788434 
326 -0.00188381 -0.00567054 -0.00392829 0.91 0 0 0 0.0794398 0.230994 0.158994 
320 -0.00565382 -0.00198702 -0.00398248 0.91 0 0 0 0.233133 0.0789193 0.160287 
156 0.000339036 -0.000328695 -0.000338767 0.91 0 0 0 -0.00012653 0.000152397 0.000540038 
65 -3.96927e-05 5.01958e-05 -0.00030603 0.91 0 0 0 0.00282675 -0.00280095 0.00722422 
250 0.00033666 0.000253099 -0.000336422 0.91 0 0 0 -0.000629987 -0.00142755 0.00104591 
75 -0.000242672 0.000253127 -0.000338085 0.91 0 0 0 0.00122102 -0.00121577 0.000853652 
234 0.000137224 5.22832e-05 -0.000312942 0.91 0 0 0 -0.00203665 -0.00280893 0.00726276 
122 0.000135347 -3.71591e-05 -0.000112205 0.91 0 0 0 -0.0473108 -0.000357922 0.032705 
132 0.00215341 -0.00618853 -0.00429243 0.91 0 0 0 -0.0820852 0.241418 0.166412 
116 0.00595379 -0.00410952 -0.00206258 0.91 0 0 0 -0.236572 0.162623 0.0805725 
125 0.00602459 -0.00207508 -0.00416716 0.91 0 0 0 -0.237997 0.0806835 0.163888 
136 0.00396375 -0.00198714 -0.00572772 0.91 0 0 0 -0.159272 0.0791325 0.232339 
119 0.00395398 -0.00569923 -0.00199482 0.91 0 0 0 -0.159132 0.231547 0.0794811 
139 0.00197309 -0.0038915 -0.00563984 0.91 0 0 0 -0.0786434 0.158036 0.230483 
101 0.000158341 -0.000117629 -4.79459e-05 0.91 0 0 0 -0.0486504 0.0333111 3.47863e-05 
27 0.000125097 6.65336e-05 -4.72156e-05 0.91 0 0 0 -0.0331006 -0.0490127 4.98742e-05 
55 0.00201815 0.00395206 -0.00580878 0.91 0 0 0 -0.07923 -0.161931 0.233927 
205 4.81238e-05 -9.03795e-06 -7.11827e-05 0.91 0 0 0 0.000360489 -0.0444847 0.0303097 
39 0.00553729 0.00375448 -0.00191862 0.91 0 0 0 -0.227828 -0.157631 0.0775351 
51 0.00583961 0.00193379 -0.00404505 0.91 0 0 0 -0.234215 -0.0799778 0.161519 
180 -5.30317e-05 0.000100716 -4.62191e-05 0.91 0 0 0 0.0352684 -0.0510037 -6.77947e-05 
56 0.00447483 0.00215214 -0.00645604 0.91 0 0 0 -0.169435 -0.0843793 0.24664 
222 -0.00427697 0.00210797 -0.00630658 0.91 0 0 0 0.168413 -0.0837312 0.243869 
215 -0.00560935 0.00189099 -0.00394126 0.91 0 0 0 0.232345 -0.0792381 0.159315 
218 -0.00197882 0.00406694 -0.00598798 0.91 0 0 0 0.0812565 -0.164166 0.237694 
199 -0.0062169 0.00428749 -0.00218702 0.91 0 0 0 0.244353 -0.168416 0.0831696 
145 4.72521e-05 5.51817e-05 7.82003e-05 0.91 0 0 0 0.000394913 -0.0347292 -0.049913 
62 0.000124682 -3.66339e-05 5.63657e-05 0.91 0 0 0 -0.0330781 -0.000378867 -0.0486476 
170 -0.00633889 0.00436831 0.00213826 0.91 0 0 0 0.246637 -0.169844 -0.0839222 
68 8.80533e-05 -3.67683e-05 -1.50016e-05 0.91 0 0 0 -0.0444593 -0.000344229 -0.0307664 
18 0.00582499 0.00395067 0.00193247 0.91 0 0 0 -0.23388 -0.16167 -0.0800467 
236 4.74322e-05 -8.89364e-05 2.10617e-05 0.91 0 0 0 0.000340672 0.0316284 -0.0465447 
252 4.74195e-05 -8.29456e-05 -1.00492e-05 0.91 0 0 0 0.000434886 0.0447939 -0.0311514 
231 7.65957e-06 -3.64887e-05 2.19252e-06 0.91 0 0 0 0.0315933 -0.000354374 -0.0454211 
243 5.76386e-06 -3.6395e-05 -1.34131e-05 0.91 0 0 0 0.0452965 -0.000484052 -0.030894 
151 4.74821e-05 3.57699e-05 8.19992e-06 0.91 0 0 0 0.000351914 -0.0471712 -0.0321957 
90 0.0041431 -0.00596769 0.0019861 0.91 0 0 0 -0.163094 0.237023 -0.0811419 
268 -0.00587266 -0.00411609 0.00197069 0.91 0 0 0 0.23766 0.162681 -0.0806061 
271 -0.00410499 -0.00603499 0.00201594 0.91 0 0 0 0.165092 0.238231 -0.0818036 
87 0.00609261 -0.0042147 0.00201123 0.91 0 0 0 -0.239282 0.164842 -0.0813871 
161 -0.00613195 0.00208098 0.00422124 0.91 0 0 0 0.242639 -0.083166 -0.16687 
140 -0.286939 0.00140704 0.924079 0.91 0 0 0 4.4057 -0.0206324 -13.9351 
339 4.11845e-05 -4.03318e-05 0.00924423 0.91 0 0 0 0.000569153 0.00272717 -2.65784 
4 0.00213082 0.00417681 0.00605387 0.91 0 0 0 -0.0815738 -0.166239 -0.2408 
58 -0.586936 -0.589095 1.94406 0.91 0 0 0 0.981128 0.991929 -2.46846 
150 -0.00394041 0.00194553 0.00573223 0.91 0 0 0 0.161616 -0.0804962 -0.234349 
12 0.00616675 0.00204868 0.00418607 0.91 0 0 0 -0.240685 -0.0822822 -0.166372 
146 -0.00212899 0.00434276 0.00628649 0.91 0 0 0 0.0843304 -0.16945 -0.245123 
54 -0.938062 -0.940002 1.38529 0.91 0 0 0 2.53982 2.54832 -3.63264 
191 -0.000981281 -0.952731 0.297624 0.91 0 0 0 0.0155095 13.7599 -4.38235 
216 0.00179699 -1.8289 1.82911 0.91 0 0 0 0.0103325 -0.508467 0.487022 
36 -0.579106 -1.92139 0.579661 0.91 0 0 0 1.05648 2.70513 -1.04936 
5 0.00440309 0.00211467 0.00625101 0.91 0 0 0 -0.16825 -0.0836312 -0.244534 
108 -0.889271 -2.77555e-05 0.278276 0.91 0 0 0 14.0916 -0.000401382 -4.48485 
67 0.00199478 -0.00398497 0.00565555 0.91 0 0 0 -0.0788153 0.160274 -0.232708 
133 -1.83338 -0.000192784 1.82988 0.91 0 0 0 -0.523159 -0.00239293 0.498814 
46 -0.955743 -1.40757 0.951306 0.91 0 0 0 2.38727 3.38735 -2.37438 
42 -1.914 -0.577185 0.579072 0.91 0 0 0 2.76693 1.07059 -1.06948 
223 0.000602754 -0.284968 0.916131 0.91 0 0 0 -0.0101412 4.42481 -13.9761 
48 -1.39937 -0.944106 0.948536 0.91 0 0 0 3.4884 2.44395 -2.45202 
235 -0.00371519 -0.00189871 0.00540885 0.91 0 0 0 0.156851 0.0770312 -0.227607 
237 -0.00183648 -0.00383607 0.00545417 0.91 0 0 0 0.0783261 0.156978 -0.228513 
253 -0.00187412 -0.00565611 0.00382761 0.91 0 0 0 0.0790964 0.23068 -0.158902 
71 0.00609124 -0.00210541 0.00411872 0.91 0 0 0 -0.239309 0.0814108 -0.16482 
78 0.00213344 -0.00612602 0.00416486 0.91 0 0 0 -0.081737 0.240089 -0.165913 
247 -0.00598976 -0.00210665 0.0041097 0.91 0 0 0 0.239962 0.0814987 -0.164536 
64 0.00400829 -0.00200546 0.00569246 0.91 0 0 0 -0.160313 0.0794614 -0.23355 
83 -1.90953 0.576361 -0.578327 0.91 0 0 0 2.8096 -1.07952 1.08964 
60 -0.57995 0.585384 -1.93273 0.91 0 0 0 1.02055 -1.02872 2.59541 
227 0.000794628 0.28173 -0.902397 0.91 0 0 0 -0.00811945 -4.46074 14.0362 
92 -0.578027 1.91649 -0.576859 0.91 0 0 0 1.06235 -2.76519 1.0712 
239 0.00027006 1.83706 -1.83586 0.91 0 0 0 0.00150494 0.503725 -0.511036 
37 0.00446886 0.00636601 -0.002244 0.91 0 0 0 -0.169269 -0.246922 0.0843064 
47 0.00208009 0.00587153 -0.00411979 0.91 0 0 0 -0.0807546 -0.237436 0.162942 
66 -0.950963 0.950164 -1.40534 0.91 0 0 0 2.40721 -2.40579 3.43179 
77 -0.950285 1.40304 -0.948534 0.91 0 0 0 2.4212 -3.44779 2.42344 
74 -1.3948 0.942558 -0.942716 0.91 0 0 0 3.54522 -2.48338 2.48908 
97 -0.911079 0.282559 0.000596106 0.91 0 0 0 14.0012 -4.42163 -0.00766102 
292 5.16771e-05 0.00909947 -5.73074e-05 0.91 0 0 0 0.00146861 -2.64944 0.00315218 
195 -0.00393639 0.00573829 -0.0020116 0.91 0 0 0 0.161633 -0.234807 0.0795481 
272 -0.00115687 0.889056 -0.27698 0.91 0 0 0 0.019793 -14.1043 4.46939 
104 -1.83368 1.83223 -0.000602085 0.91 0 0 0 -0.540937 0.529091 0.00520047 
107 -0.292186 0.935288 0.000731944 0.91 0 0 0 4.41242 -13.863 -0.00938057 
206 -0.00183888 0.00546275 -0.00383843 0.91 0 0 0 0.0785697 -0.22896 0.157154 
16 0.00395075 0.0056143 0.00189052 0.91 0 0 0 -0.159128 -0.232074 -0.0791711 
166 -0.00408529 0.00594291 0.00200306 0.91 0 0 0 0.164679 -0.238797 -0.0813764 
311 0.00026841 0.891204 0.278616 0.91 0 0 0 -0.00318513 -14.0869 -4.47718 
141 -0.5765 0.574623 1.91227 0.91 0 0 0 1.08398 -1.07862 -2.81954 
121 -0.578845 1.91837 0.581144 0.91 0 0 0 1.05396 -2.72837 -1.06166 
8 0.00190965 0.00541747 0.00371698 0.91 0 0 0 -0.0770111 -0.227939 -0.156574 
138 -0.96407 0.963953 1.42305 0.91 0 0 0 2.26888 -2.26949 -3.2196 
112 -1.91617 0.580862 0.577474 0.91 0 0 0 2.73963 -1.06677 -1.06037 
341 -0.000598021 0.286435 0.919035 0.91 0 0 0 0.00924617 -4.42596 -13.9559 
128 -1.38496 0.936825 0.937016 0.91 0 0 0 3.64462 -2.55422 -2.55676 
131 -0.946596 1.39599 0.945727 0.91 0 0 0 2.46499 -3.50945 -2.46632 
338 0.00120422 1.82454 1.82421 0.91 0 0 0 0.00975784 0.470951 0.465645 
152 -0.0019179 0.00568287 0.00391207 0.91 0 0 0 0.080177 -0.233422 -0.160803 
175 1.9164 -0.579028 -0.578451 0.91 0 0 0 -2.76363 1.06697 1.06317 
143 0.587719 -0.586761 -1.94476 0.91 0 0 0 -0.99613 1.00161 2.4842 
278 0.0146906 -3.56545e-05 -6.13521e-05 0.91 0 0 0 -2.94074 0.00327415 0.00147494 
163 0.579641 -1.92544 -0.581408 0.91 0 0 0 -1.04361 2.67163 1.0517 
177 0.284094 -0.914806 0.000577122 0.91 0 0 0 -4.42165 13.9811 -0.00747477 
147 0.959037 -0.95666 -1.41563 0.91 0 0 0 -2.3402 2.34102 3.33005 
259 0.891705 -0.000544998 -0.279206 0.91 0 0 0 -14.086 0.00917288 4.4812 
232 1.82127 0.00227108 -1.82113 0.91 0 0 0 0.446113 0.0160585 -0.43763 
190 0.93478 -0.29146 -0.000287639 0.91 0 0 0 -13.8737 4.40448 0.00213542 
226 0.274552 0.00149976 -0.877347 0.91 0 0 0 -4.49967 -0.0223188 14.1484 
157 1.39188 -0.942028 -0.940271 0.91 0 0 0 -3.58332 2.51878 2.51269 
153 0.951983 -1.40794 -0.951913 0.91 0 0 0 -2.39533 3.41172 2.40025 
224 0.591511 -0.584807 1.94962 0.91 0 0 0 -0.979568 0.964331 -2.43008 
298 0.886082 0.000938451 0.277155 0.91 0 0 0 -14.1148 -0.0150817 -4.49031 
192 0.578211 -1.91263 0.579698 0.91 0 0 0 -1.0683 2.77451 -1.06826 
331 1.8403 0.000219681 1.84083 0.91 0 0 0 0.517082 -0.00730623 0.513755 
219 0.943632 -0.941945 1.3906 0.91 0 0 0 -2.5043 2.49377 -3.57546 
181 1.83113 -1.83321 0.00388154 0.91 0 0 0 0.517415 -0.522947 0.0175487 
211 1.37762 -0.932571 0.934287 0.91 0 0 0 -3.72221 2.59148 -2.6033 
204 1.94672 -0.585981 0.589011 0.91 0 0 0 -2.44725 0.966628 -0.980378 
340 0.2715 -0.00045691 0.87325 0.91 0 0 0 -4.48227 0.00911324 -14.1781 
207 0.943044 -1.39156 0.944937 0.91 0 0 0 -2.48551 3.54154 -2.49066 
254 0.943177 1.39263 -0.945059 0.91 0 0 0 -2.48332 -3.55621 2.48799 
238 0.953472 0.951442 -1.40821 0.91 0 0 0 -2.38229 -2.38657 3.39275 
291 1.83249 1.83277 -0.00102895 0.91 0 0 0 0.511839 0.510938 0.00602406 
228 0.578291 0.579104 -1.91453 0.91 0 0 0 -1.06858 -1.07418 2.78478 
283 0.948688 0.296002 -0.00061013 0.91 0 0 0 -13.7931 -4.38384 0.00637164 
293 0.29738 0.953315 5.45862e-05 0.91 0 0 0 -4.37503 -13.7631 0.000928181 
251 1.37234 0.93079 -0.931576 0.91 0 0 0 -3.7684 -2.63914 2.63097 
273 0.585328 1.94814 -0.592039 0.91 0 0 0 -0.968929 -2.42928 0.981288 
264 1.9489 0.590119 -0.590137 0.91 0 0 0 -2.4114 -0.971309 0.961055 
342 0.584512 0.586348 1.93754 0.91 0 0 0 -1.01169 -1.00236 -2.54796 
337 0.949584 0.950636 1.40075 0.91 0 0 0 -2.42992 -2.42236 -3.45707 
324 1.39361 0.94597 0.943212 0.91 0 0 0 -3.54493 -2.47973 -2.47728 
327 0.928223 1.37338 0.932102 0.91 0 0 0 -2.62955 -3.76877 -2.63557 
312 0.588003 1.94416 0.585701 0.91 0 0 0 -0.984285 -2.46484 -0.971518 
303 1.93765 0.586327 0.585856 0.91 0 0 0 -2.54051 -1.0006 -1.00278 
