ITEM: TIMESTEP
0
ITEM: NUMBER OF ATOMS
300
ITEM: BOX BOUNDS ss ss ss
2.2525988847660891e-04 1.8023265812476534e+01
5.6796418853726745e-03 1.8026625854264179e+01
4.0729728303775393e-02 1.7912341292945666e+01
ITEM: ATOMS id type fx fy fz x y z 
1 1 1.24495e-06 -1.37987e-07 -3.5381e-06 2.88448 2.66067 1.31089 
2 1 -2.47218e-07 6.2801e-07 3.21525e-07 6.49319 4.88056 7.282 
3 1 9.23121e-07 1.28318e-06 2.472e-06 2.91209 5.40905 6.73406 
4 1 -4.66343e-07 1.32748e-06 1.51525e-06 7.41842 5.30149 3.82747 
5 1 1.48426e-06 -5.56682e-07 3.37474e-07 6.01172 2.48361 2.17781 
6 1 1.16281e-06 1.75254e-06 2.81526e-06 2.27817 5.73698 5.48077 
7 1 -2.00747e-07 5.90241e-07 5.9566e-07 6.81475 4.51807 6.74204 
8 1 -3.35161e-06 6.42309e-07 -4.74529e-07 1.22399 8.94106 1.79774 
9 1 -1.34847e-08 -5.20232e-06 1.14864e-06 8.5617 0.38035 6.82808 
10 1 -8.98977e-07 1.51532e-06 -6.68375e-07 8.93452 7.58272 2.92038 
11 1 -1.59397e-06 -3.39149e-06 3.6512e-07 1.59786 1.12701 3.30642 
12 1 -3.74828e-07 1.02748e-06 -1.02639e-07 7.01571 8.61894 6.83719 
13 1 1.45892e-06 2.00602e-06 1.51545e-06 2.10778 6.26806 3.6884 
14 1 1.93338e-06 -1.08398e-06 1.14182e-06 2.74325 1.89273 3.38069 
15 1 -4.61427e-07 -1.2374e-06 -3.85273e-06 8.63272 2.32802 0.0677434 
16 1 1.72862e-06 1.31311e-06 1.45311e-06 4.33245 5.84369 6.35902 
17 1 -4.74158e-06 -6.95459e-07 2.26623e-06 0.225286 2.40713 5.54671 
18 1 -1.0772e-06 5.97991e-07 9.14153e-08 8.23658 6.00691 7.36947 
19 1 -2.90699e-06 -4.38474e-06 -2.9138e-07 0.337604 0.174735 8.06369 
20 1 -8.73257e-07 1.63327e-06 4.56221e-07 8.01211 5.22369 2.46648 
21 1 8.04962e-07 2.02158e-06 1.33826e-06 1.97254 6.9422 3.36098 
22 1 -2.16349e-07 -4.79124e-07 9.73119e-07 7.48449 2.83299 6.65707 
23 1 -6.40545e-06 1.84351e-06 6.66448e-07 0.0602058 6.19013 3.59367 
151 2 -5.98832e-06 9.08567e-07 1.82955e-06 0.0997624 8.16717 8.46842 
152 2 1.03603e-06 -5.1647e-06 1.37766e-06 6.27362 0.0452071 5.50807 
153 2 -6.0852e-07 1.32352e-07 -1.04229e-07 6.56877 4.61506 8.67031 
154 2 -7.54485e-07 2.35262e-06 2.47079e-06 1.64825 7.51259 4.1432 
155 2 9.88797e-07 -1.49904e-06 1.97683e-06 5.56402 1.75071 6.65692 
156 2 1.11915e-06 1.90058e-06 -1.90607e-06 6.01354 4.75097 1.31056 
157 2 2.66033e-06 2.00809e-06 -1.20673e-06 4.66232 5.01709 1.79178 
158 2 -2.1178e-06 8.44154e-07 3.0656e-06 1.0184 3.61799 6.32486 
159 2 6.15518e-07 -2.9308e-06 3.0976e-06 2.17543 1.19355 5.38266 
160 2 1.24471e-06 -2.48484e-06 1.4762e-06 2.51938 1.34502 3.68846 
161 2 -3.2182e-06 -4.43833e-06 -4.3853e-06 1.36065 0.787928 1.27663 
162 2 -5.17233e-06 1.1814e-06 2.57862e-06 0.14298 4.32703 5.36995 
163 2 1.1628e-06 -4.02625e-06 -2.72176e-06 5.48867 1.09694 1.12722 
164 2 2.11497e-06 2.27701e-09 -3.8897e-06 2.82078 8.54357 0.722564 
165 2 6.20087e-07 9.35106e-07 -4.39019e-06 2.52726 3.74796 1.03057 
166 2 -3.11321e-06 6.42777e-07 -5.3464e-06 1.26298 4.41764 0.829069 
167 2 6.19338e-07 1.07023e-06 1.30774e-06 3.92417 7.74873 7.15698 
168 2 7.79728e-08 2.72828e-06 -5.37062e-06 7.32777 5.97318 0.256487 
169 2 1.80269e-06 -3.74321e-06 1.45152e-06 5.52024 0.580161 4.73483 
170 2 -7.62752e-07 3.9292e-07 -4.76883e-06 1.82985 7.43962 0.652901 
171 2 -9.47416e-07 1.79756e-06 1.08417e-06 1.38216 5.87111 3.56213 
245 2 -9.30934e-07 1.03295e-06 -6.45186e-07 8.93066 8.22948 3.1131 
24 1 -2.25496e-06 -3.28929e-06 -3.02599e-06 0.980868 1.35122 12.2885 
25 1 -2.27984e-06 -2.83997e-06 -2.98793e-06 0.782987 1.53702 13.5904 
26 1 -7.06047e-07 -9.43594e-07 -1.29045e-06 8.61394 3.49211 13.3919 
27 1 1.14072e-06 2.9553e-07 -2.07574e-06 2.82088 2.95855 12.083 
28 1 2.13001e-06 1.25858e-06 3.62462e-06 4.31503 5.35039 16.3034 
29 1 1.60771e-06 -5.3011e-07 1.79227e-06 6.07048 3.97959 15.617 
30 1 4.47338e-07 -1.3412e-06 -3.87862e-07 5.4415 3.07522 9.80479 
31 1 6.10308e-07 7.06188e-07 4.33222e-07 6.10568 6.48006 14.6112 
32 1 1.82647e-06 -1.05139e-07 -1.27116e-06 4.2918 3.48071 12.1269 
33 1 3.77552e-07 1.72493e-06 7.76532e-07 8.9249 6.68357 14.0224 
34 1 -1.43702e-06 1.02027e-06 3.33805e-06 0.539941 2.45388 17.4829 
35 1 3.59744e-06 1.68728e-06 5.29647e-06 2.25981 3.31804 17.6193 
36 1 6.56012e-07 -3.1321e-06 -2.85389e-07 6.30144 2.30721 10.5795 
37 1 2.09038e-07 1.28636e-06 2.00553e-07 8.26347 5.85451 13.6985 
38 1 -5.59249e-07 1.50433e-06 -4.34929e-08 8.73673 7.90353 10.0569 
39 1 -4.06964e-06 3.24022e-06 -1.9064e-07 1.28677 5.22729 10.9513 
40 1 -1.17905e-06 6.60682e-07 -4.39589e-07 6.92801 5.80403 9.89932 
41 1 -8.93278e-07 -3.63066e-06 1.4201e-06 0.520694 1.49832 16.8824 
42 1 -2.964e-06 1.71855e-06 -1.40877e-06 2.81706 7.46002 14.6804 
43 1 -1.27591e-06 3.2389e-06 -1.99618e-06 3.16233 5.97468 13.5649 
44 1 -4.95047e-07 4.6783e-07 -1.93153e-07 8.89334 6.25321 9.58181 
45 1 -9.02764e-07 8.70618e-07 -2.72835e-07 8.3131 6.83553 9.27228 
172 2 -3.06175e-07 -5.38189e-08 -6.23789e-07 8.86651 4.79349 11.496 
173 2 2.81506e-06 -7.29214e-06 3.353e-07 4.85295 0.633707 14.1382 
174 2 2.95237e-09 8.57067e-07 3.34036e-06 3.98297 7.0308 16.2649 
175 2 9.55133e-08 -5.01683e-06 3.75911e-07 7.21167 1.31266 10.2825 
176 2 -3.88149e-07 -1.19242e-06 4.41062e-06 0.632616 2.00419 17.8321 
177 2 -2.43679e-06 2.48569e-06 -2.55129e-06 1.54645 3.3678 11.8167 
178 2 2.38378e-07 1.55757e-06 -1.3463e-06 4.83577 5.7925 13.3747 
179 2 -1.44371e-06 -3.67289e-06 -4.01732e-07 8.11404 1.94964 15.394 
180 2 -2.11301e-06 -2.36596e-06 3.39094e-06 8.84587 1.99661 17.1479 
181 2 1.39106e-06 -3.98466e-06 -2.12072e-06 2.47118 1.43364 11.6116 
182 2 9.32003e-07 5.5446e-07 2.13466e-06 7.67434 7.68874 15.3294 
183 2 2.14767e-06 1.34411e-06 -1.23227e-06 2.25352 3.10123 14.509 
184 2 -4.08169e-06 6.97906e-07 -1.13047e-06 0.154357 2.28701 15.9231 
185 2 -9.04781e-07 1.29836e-06 -5.74697e-07 7.42649 7.17531 11.954 
186 2 -7.13303e-07 9.88746e-07 -9.70363e-07 6.35501 5.94023 12.0055 
187 2 -5.02717e-07 1.34927e-06 5.87154e-07 3.82321 5.62416 9.12809 
188 2 6.93217e-08 -4.14837e-07 -1.7506e-06 1.20284 2.25741 14.9444 
189 2 -7.57056e-07 4.45864e-07 3.82163e-06 7.99587 3.47007 17.032 
190 2 -3.94003e-06 4.42808e-06 4.52219e-07 1.62487 6.18632 15.6381 
116 1 -2.2231e-07 4.43641e-07 -3.8102e-07 8.97506 5.44532 11.3609 
46 1 2.32926e-07 6.89518e-07 -2.44545e-07 6.96454 10.2265 8.76911 
47 1 1.11067e-07 3.54013e-07 4.54515e-07 7.00984 9.52511 4.77164 
48 1 2.25813e-06 2.66988e-06 3.71966e-07 6.21364 17.0786 7.33626 
49 1 -6.42708e-07 -9.92931e-07 9.8005e-07 2.63176 14.7222 3.68909 
50 1 7.71965e-08 6.54613e-06 -1.06061e-06 3.51613 17.9863 4.81656 
51 1 3.53239e-06 -8.74408e-07 -3.64905e-06 4.48075 12.5134 1.18458 
52 1 -4.88511e-07 1.017e-06 1.2018e-07 8.77514 9.69681 7.38113 
53 1 -2.19725e-06 6.01295e-07 1.66496e-06 1.9251 9.37767 7.09387 
54 1 7.1019e-07 -3.23904e-07 3.08869e-07 4.32052 10.2685 7.31506 
55 1 2.07203e-06 1.33319e-07 -2.82342e-07 6.02004 9.35696 2.79652 
56 1 -9.49683e-07 2.20384e-06 -3.22235e-06 2.75574 15.5106 2.12065 
57 1 -1.00841e-07 -8.82278e-07 6.51369e-07 8.8922 15.3525 7.82334 
58 1 -1.20057e-06 -7.56744e-07 -1.81083e-06 8.76531 10.4899 2.45732 
59 1 1.13208e-06 -9.34984e-07 2.18896e-06 2.83563 11.0174 2.83589 
191 2 3.11142e-07 -7.27802e-08 1.66757e-07 4.65972 9.82333 8.02858 
192 2 5.44048e-07 -7.87381e-07 2.34989e-07 3.30572 16.0322 6.91248 
193 2 1.13402e-07 3.80781e-07 -5.93895e-06 2.47179 11.5072 0.112295 
210 2 1.02041e-06 -1.71633e-06 8.10423e-07 7.46153 15.1337 6.75153 
195 2 3.10473e-07 -8.31015e-07 -5.7911e-07 2.70674 12.7323 1.94916 
196 2 -5.37169e-06 2.16311e-07 -3.06531e-07 1.14765 12.0194 1.81804 
197 2 1.53252e-06 -4.61935e-07 1.78622e-07 6.65385 15.425 3.74119 
198 2 -1.89304e-06 -3.71847e-06 1.26859e-07 2.54433 13.622 8.32524 
199 2 2.53211e-06 -1.44705e-07 1.44059e-07 4.7849 16.3007 7.25322 
200 2 1.00161e-06 4.31494e-06 -4.25715e-06 4.02214 16.7369 1.99231 
201 2 2.53022e-06 -2.40478e-06 1.23063e-06 5.51946 13.1882 3.94755 
202 2 -4.28089e-06 -3.32892e-07 8.62058e-07 1.66344 14.8609 3.86058 
203 2 -4.78899e-06 1.86202e-06 -2.52728e-08 1.47731 16.4936 5.97883 
204 2 5.74568e-08 -7.80484e-07 7.1534e-07 7.62847 11.4636 6.11699 
205 2 1.19057e-06 -2.78378e-06 -1.18189e-07 4.23777 12.8585 8.30391 
206 2 -4.56502e-07 1.8191e-07 2.92822e-07 8.91565 11.1068 7.98239 
207 2 2.42724e-07 4.72905e-06 5.13076e-07 8.75363 17.6651 5.48838 
208 2 -2.00604e-06 -2.76715e-06 2.15352e-06 2.23817 14.0444 5.20765 
209 2 6.72379e-07 -4.12888e-07 -2.32579e-06 7.14094 14.8532 2.15259 
60 1 2.07295e-06 -1.74889e-06 -1.75674e-06 5.03968 14.0086 11.9356 
61 1 6.71634e-08 -1.67409e-06 -2.02565e-06 5.25132 11.8902 11.832 
62 1 -3.65228e-06 -2.53549e-06 4.35497e-06 0.00202379 12.9568 17.483 
63 1 -9.58923e-08 5.30514e-06 -1.55903e-07 2.45145 18.0248 10.5429 
64 1 -3.00361e-06 -3.12862e-06 -2.85454e-07 1.72653 11.0334 16.081 
65 1 7.19607e-07 -1.59415e-06 -2.88541e-06 5.19326 12.7352 13.9662 
66 1 6.16448e-07 -1.69099e-06 2.85183e-07 4.16271 12.7651 16.0034 
67 1 2.20027e-07 -1.07843e-06 1.90063e-06 1.95355 13.9166 16.5749 
68 1 1.29943e-06 -4.04954e-07 6.96251e-07 8.57785 10.9621 15.0592 
69 1 -8.37747e-08 3.72885e-06 -1.47802e-07 8.33795 16.3443 13.7848 
70 1 2.45411e-06 -1.32699e-06 -1.58788e-07 4.08611 15.8817 9.82554 
71 1 3.4461e-07 -4.13392e-07 -2.08835e-06 6.76805 10.6751 13.5935 
72 1 1.18091e-06 -3.93125e-08 -2.31531e-07 3.08246 16.4069 11.2083 
73 1 -4.23732e-06 -3.11408e-06 -2.30573e-06 0.0906079 13.4779 15.5598 
74 1 -8.82718e-07 1.31447e-07 -1.00504e-06 6.12081 9.48573 11.126 
75 1 -2.67441e-06 3.8431e-06 -4.05834e-07 1.45652 17.7121 11.1974 
76 1 -6.18662e-07 -1.46813e-06 2.10965e-07 4.85735 10.2301 15.6665 
77 1 1.6153e-07 -1.43409e-06 -4.44228e-07 4.69228 11.286 9.66532 
78 1 2.29282e-06 2.48782e-06 3.81207e-06 2.87075 15.5731 16.9347 
79 1 2.07474e-06 -8.04734e-07 6.81531e-06 5.73293 12.6949 17.9105 
80 1 -4.39079e-06 -1.44065e-06 -2.64211e-06 0.0652286 14.8081 14.7876 
211 2 2.2785e-06 3.67246e-07 -1.32745e-06 6.67495 13.7138 14.6533 
212 2 -1.68215e-06 4.78298e-06 2.99372e-06 0.430138 17.802 17.08 
213 2 -4.90942e-06 6.69446e-07 -1.79345e-06 0.236361 16.4295 13.1205 
214 2 9.99768e-07 2.98692e-06 4.53112e-06 7.17299 16.3774 17.891 
215 2 2.79662e-06 4.67897e-06 2.40797e-07 4.34267 17.696 9.1175 
216 2 3.48183e-06 6.08351e-06 1.04673e-06 3.52581 17.3213 14.9895 
217 2 -7.21835e-06 -1.51839e-06 -1.19374e-06 0.242945 16.0445 9.1151 
218 2 1.81415e-06 -9.64834e-07 4.0046e-06 7.25711 10.2196 16.5189 
219 2 2.28704e-06 -9.38808e-08 1.01036e-06 5.82557 13.2345 16.0594 
220 2 1.97353e-06 -4.31205e-07 -1.01071e-06 3.64337 15.5317 12.793 
221 2 6.90927e-07 -4.33798e-08 -1.52177e-06 7.74681 11.5388 11.7171 
222 2 1.47935e-06 -1.19985e-06 -6.51076e-07 3.39062 15.7581 11.7485 
223 2 -3.0978e-06 -2.02309e-06 -7.04493e-08 2.70119 10.822 10.5869 
224 2 2.23329e-06 1.71431e-07 -1.61691e-06 4.64487 14.4488 14.4807 
225 2 -4.33628e-06 -1.98802e-06 6.19564e-07 1.67504 11.4274 9.32728 
226 2 -7.47674e-07 -1.58386e-06 2.45203e-06 4.31005 10.0695 16.4027 
194 2 1.64623e-06 1.2736e-06 8.70015e-07 7.30423 16.3027 8.99838 
81 1 -1.04363e-07 1.89855e-06 -3.87795e-06 10.0033 7.27455 1.16145 
82 1 -1.08543e-06 -1.7266e-06 1.57664e-07 13.5342 1.95749 6.35928 
83 1 1.75776e-06 8.80717e-07 -1.03293e-07 15.3885 7.57041 7.89077 
84 1 -1.36341e-07 -2.65911e-06 -3.79074e-06 9.0517 1.76584 0.0425283 
85 1 8.50662e-08 1.13072e-06 5.4642e-08 10.5942 7.75434 8.86554 
86 1 3.65692e-07 -4.48225e-06 -6.02076e-07 10.9113 1.09758 1.88021 
87 1 -1.16668e-06 -3.19811e-06 1.02273e-06 10.1546 1.62565 6.97629 
88 1 -4.54886e-07 -4.32793e-06 3.33159e-07 12.2569 0.963823 3.83146 
89 1 -1.6996e-07 1.40029e-06 -2.60901e-08 9.77188 8.51723 8.85743 
90 1 2.15067e-07 5.19916e-07 2.62396e-07 12.278 8.47562 7.52332 
91 1 3.31979e-06 -2.34699e-06 -8.64439e-07 16.7705 8.29681 3.6344 
92 1 -8.36464e-07 -3.00546e-06 1.4487e-06 10.4804 1.69954 3.33912 
93 1 8.71629e-07 -1.25778e-06 -4.47502e-06 13.8986 8.22128 0.183044 
94 1 4.58155e-06 2.12191e-06 -1.78769e-06 16.627 3.33456 6.27393 
95 1 1.31052e-07 1.67538e-06 -2.21809e-07 12.8824 5.32201 7.47761 
96 1 1.36844e-06 1.28654e-06 -5.78505e-07 13.3433 6.39197 5.88135 
227 2 3.00893e-06 1.56833e-06 -4.94117e-06 12.0443 4.75949 0.0432961 
228 2 -5.76936e-07 1.24932e-06 9.37002e-07 10.0548 6.25762 4.78002 
229 2 -2.66351e-07 6.73538e-07 9.86446e-07 11.078 5.04345 5.82703 
230 2 -2.24239e-06 -2.82514e-06 4.54357e-07 13.0478 1.84505 7.59414 
231 2 3.8747e-06 1.74713e-08 -3.01561e-06 13.0959 2.63833 1.64631 
232 2 2.02856e-06 1.78145e-06 -5.93172e-07 11.5538 5.8705 2.90988 
233 2 2.90528e-06 -4.16358e-06 -1.65243e-06 16.2087 0.00747817 4.20395 
234 2 4.7238e-06 -2.77715e-07 -7.72551e-08 17.6861 6.7496 5.71386 
235 2 1.37701e-09 2.06816e-06 -6.72955e-07 13.5288 5.36104 8.4312 
236 2 4.01796e-06 3.85767e-07 3.08098e-07 16.5897 8.76205 8.94162 
237 2 5.90561e-07 1.3617e-06 -1.40783e-06 10.4777 4.12127 1.45795 
238 2 3.05318e-07 1.20144e-06 3.30112e-07 11.4909 6.6788 6.72057 
239 2 7.16773e-07 1.32371e-06 3.57352e-07 11.8011 5.89227 5.83239 
240 2 1.027e-06 -1.41814e-06 -6.49876e-07 15.3799 1.83756 7.79475 
241 2 -1.06662e-06 3.32689e-08 1.72805e-06 10.0039 4.06586 4.30637 
242 2 2.71356e-06 1.05488e-06 -2.26055e-06 15.3193 2.15437 4.45544 
243 2 2.05669e-07 1.44707e-06 6.55778e-07 10.6155 6.14423 4.26075 
244 2 -1.51814e-06 -6.20827e-07 6.68296e-07 12.1467 2.97855 6.923 
246 2 5.72823e-07 1.12022e-06 8.01299e-07 11.0585 4.99194 4.06721 
97 1 2.03952e-06 -4.02892e-06 -7.20135e-07 16.1042 1.16291 9.59602 
98 1 -1.7789e-06 1.52684e-06 -1.44803e-06 11.345 4.00572 13.193 
99 1 -2.36201e-07 -2.83586e-06 -6.21888e-07 15.2137 1.62627 9.25866 
100 1 -6.22213e-07 1.45355e-06 5.11847e-06 13.7623 5.73391 17.1988 
101 1 4.87676e-06 -5.95315e-06 6.11188e-07 16.3309 0.0203377 15.22 
102 1 -4.42011e-07 4.16408e-06 6.28169e-07 13.8795 4.00807 15.0433 
103 1 2.38755e-06 -2.19366e-06 -1.31395e-06 15.7409 1.69438 13.4004 
104 1 -2.1631e-06 -9.63023e-08 -2.10795e-06 11.348 3.31489 12.8658 
105 1 -3.09737e-06 -2.32693e-06 -3.05556e-06 12.664 2.26636 13.005 
106 1 -9.6641e-08 1.86155e-06 -5.07159e-07 13.5945 7.5915 11.1406 
107 1 -1.71946e-06 1.82537e-06 -1.56857e-06 13.6929 4.10638 11.8563 
108 1 6.11945e-06 -1.04129e-06 2.59646e-06 17.5344 5.48374 16.2269 
109 1 -1.94461e-06 -2.28312e-06 -3.20304e-07 11.0671 2.62061 9.87253 
110 1 2.94333e-06 -4.6994e-06 -7.88354e-07 16.4383 0.961256 11.6851 
111 1 5.92624e-07 8.82643e-07 1.395e-06 9.27773 8.45437 14.7262 
112 1 -9.23904e-07 -1.97691e-06 1.35314e-06 13.4732 1.4087 16.2625 
113 1 -3.85384e-08 2.68357e-06 -1.25296e-06 14.484 5.14824 10.9403 
114 1 -2.17091e-06 -2.73505e-07 1.36884e-06 10.6345 2.20628 16.4825 
115 1 3.59863e-07 1.74622e-06 -1.05112e-06 14.5983 7.74497 12.7504 
270 2 -8.3704e-07 1.34573e-06 3.84625e-08 11.8509 8.48852 13.1542 
117 1 5.16768e-06 -7.44189e-07 -2.02888e-06 17.0263 8.7925 15.084 
118 1 -2.88072e-06 -6.93488e-06 -1.2561e-06 10.415 0.569024 15.7605 
119 1 3.11664e-07 4.41546e-07 -6.9169e-07 14.374 2.2812 14.9665 
247 2 -3.16249e-07 1.66121e-06 -2.06334e-07 12.5512 7.44668 10.8079 
248 2 -1.40806e-07 -1.34447e-06 2.89023e-06 13.6832 1.46534 16.6511 
249 2 3.83735e-08 -3.12346e-06 5.11423e-06 13.5502 0.917631 17.3995 
250 2 -1.18964e-06 2.45028e-06 -1.47134e-06 14.0184 4.18086 12.5487 
251 2 -2.04439e-07 3.83211e-06 1.26609e-06 13.8577 3.41309 15.5543 
252 2 -1.80585e-07 9.44562e-07 -5.48686e-10 9.45478 6.90849 10.0724 
253 2 2.83292e-07 1.19508e-06 1.6209e-07 9.68108 8.84936 13.2775 
254 2 -1.01011e-06 -4.3932e-06 5.48984e-07 9.7681 1.45532 9.29586 
255 2 -2.93776e-08 1.3868e-06 1.29108e-07 10.2391 8.96953 9.73301 
256 2 -2.06481e-06 -4.35612e-06 -2.15747e-06 10.638 1.92402 12.1924 
257 2 -1.52522e-06 1.45706e-06 3.8646e-06 10.8065 2.61781 17.2052 
258 2 -1.11732e-08 3.197e-06 6.37033e-06 9.22765 5.2045 17.8974 
259 2 -7.07121e-07 -1.55036e-08 -1.46666e-06 14.9098 2.80511 11.0884 
260 2 2.48283e-06 1.96199e-06 -9.17638e-07 15.6325 7.43365 10.8084 
261 2 -4.82548e-07 -5.75599e-07 -7.97234e-07 14.0191 1.96556 15.1924 
262 2 1.32601e-07 1.97111e-06 -8.50008e-07 14.5508 7.16911 13.3808 
263 2 8.96437e-07 3.60748e-06 -1.60597e-07 14.7915 4.55886 13.9865 
264 2 -7.97393e-07 -8.4709e-07 -9.44316e-07 14.9023 2.37514 9.78442 
265 2 3.286e-06 -4.38298e-07 2.58338e-06 15.1008 1.67361 16.1657 
266 2 -9.86485e-07 -8.77278e-07 -1.51894e-06 9.21997 3.43598 13.0839 
267 2 5.53786e-06 2.83839e-06 -5.96879e-07 17.0242 4.90352 11.8802 
268 2 -2.07013e-06 1.04104e-06 2.53231e-06 12.2865 7.28517 16.1668 
269 2 7.48655e-06 1.66533e-06 -5.63714e-07 17.9001 3.55207 11.2211 
120 1 -2.04591e-06 -1.58568e-06 -6.77892e-06 10.6032 12.4713 0.394218 
121 1 -1.11584e-06 -4.35546e-07 6.69226e-07 9.94263 9.91448 4.36562 
122 1 1.29324e-06 -2.17132e-06 2.40251e-06 15.5163 11.0162 3.95249 
123 1 8.34094e-07 -3.40836e-06 8.1312e-07 15.5401 10.2831 3.08457 
124 1 1.06067e-07 8.24235e-07 -1.27328e-06 15.9668 16.5241 2.02589 
125 1 -1.70823e-06 -5.56896e-07 1.27798e-06 12.488 12.9377 3.18956 
126 1 8.75083e-07 -8.97811e-07 2.23948e-06 14.5944 11.1098 6.21218 
127 1 -1.34528e-06 -3.62941e-07 -1.66842e-06 13.3152 13.1094 2.019 
128 1 -2.14932e-06 -1.53123e-06 -3.96356e-06 10.998 12.8325 1.32314 
129 1 -9.68694e-07 4.32258e-06 -2.42365e-06 9.33066 17.106 1.86217 
130 1 -1.71692e-06 -1.18312e-06 1.90296e-06 12.3557 12.2107 3.87141 
131 1 -2.03811e-06 -8.16283e-07 1.67302e-06 10.67 13.3789 3.49301 
132 1 -5.41527e-07 1.74387e-06 2.72446e-06 14.001 14.4832 3.77144 
133 1 -1.62451e-06 -8.67997e-07 2.10299e-06 11.424 12.0705 4.78609 
134 1 -1.45435e-06 -1.30468e-06 2.73321e-07 11.5051 13.0237 8.41692 
135 1 3.77616e-06 3.71319e-07 3.24713e-06 16.5066 13.6499 4.7171 
271 2 -1.2735e-07 3.76987e-06 1.06278e-06 10.463 17.2618 5.48756 
272 2 -2.90473e-07 -1.23404e-06 6.71088e-07 13.2157 12.1167 8.35207 
273 2 -2.07576e-06 -7.34843e-07 1.27912e-06 10.7126 13.509 3.19667 
274 2 -1.42607e-06 3.03558e-06 -5.13647e-06 14.4611 17.2697 0.501918 
275 2 -1.29133e-06 2.27949e-06 -2.72624e-06 12.5987 15.9044 1.21029 
276 2 -1.4515e-06 2.50979e-06 -2.36209e-06 10.5335 16.118 1.53588 
277 2 3.23319e-06 -4.50093e-07 -1.43363e-08 15.8658 14.4468 8.71617 
278 2 2.64576e-07 5.12226e-06 4.21099e-07 13.8396 17.8716 8.07079 
279 2 -1.30379e-06 -2.59332e-06 -3.00744e-07 14.2295 11.3579 2.59158 
280 2 1.82233e-07 2.86369e-06 2.02342e-06 16.7096 17.7415 3.11782 
281 2 4.09162e-06 1.71845e-06 4.8045e-07 18.0215 17.8688 2.81328 
282 2 4.20463e-06 -1.09167e-07 -3.45192e-06 17.3207 12.4166 0.620076 
283 2 3.38455e-06 -1.92551e-06 -2.30165e-06 16.9618 11.5878 1.05067 
284 2 -3.61102e-07 2.80846e-06 1.07607e-06 12.4728 16.7563 6.06219 
285 2 5.45295e-06 -1.20126e-07 3.30038e-06 17.0967 13.2155 4.77876 
286 2 -2.40335e-07 -9.88918e-07 2.73796e-06 14.3875 11.983 4.34496 
287 2 -7.82056e-07 -1.79379e-06 -5.66516e-06 15.4975 11.6146 0.232237 
288 2 -1.84195e-07 -1.10245e-06 1.08438e-06 13.4473 12.3723 7.76313 
136 1 -1.39364e-06 6.92933e-07 -1.21474e-07 10.6604 15.6385 10.0058 
137 1 3.45196e-06 -1.15939e-06 -1.32212e-06 16.5898 11.2165 11.2325 
138 1 -2.25252e-06 -8.42572e-07 1.51108e-08 14.4342 9.78662 16.3193 
139 1 -1.89109e-06 -1.41616e-06 7.8923e-07 11.5415 14.5114 14.7719 
140 1 -1.77677e-06 6.49864e-07 5.19652e-07 12.2684 15.6579 14.7238 
141 1 3.46779e-07 -9.96323e-07 3.24704e-06 9.44253 12.3573 16.1681 
142 1 -6.8878e-07 -1.42894e-06 2.59495e-06 15.1934 9.78046 17.3181 
143 1 4.84262e-06 -8.69853e-07 1.86668e-06 16.7556 10.328 17.301 
144 1 2.83006e-06 1.85857e-06 -1.36429e-06 16.1567 15.2358 14.1093 
145 1 1.26193e-06 3.9341e-06 3.51964e-06 15.1112 16.3208 16.8026 
146 1 -1.29663e-06 -1.87726e-06 -8.38126e-07 12.2354 12.3187 12.4392 
147 1 4.08723e-06 -1.27024e-06 -1.8259e-06 16.9625 12.7994 12.4919 
148 1 -8.32178e-07 -9.14346e-07 -3.44774e-07 12.3372 11.0458 11.6713 
149 1 -9.51039e-07 -2.14095e-07 3.67765e-06 15.1787 11.1529 17.7175 
150 1 -1.08213e-06 2.05659e-06 1.84583e-07 10.3354 16.1898 9.94206 
289 2 3.28037e-06 4.16156e-06 4.09638e-07 15.8168 17.2729 9.62416 
290 2 -5.50442e-07 2.01268e-07 -1.2844e-08 10.6575 10.5951 10.4696 
291 2 -1.07329e-06 1.11721e-06 -1.89705e-07 12.4067 15.9119 9.3333 
292 2 -1.8788e-06 -9.40615e-07 -1.146e-07 12.0746 14.9127 14.2975 
293 2 -7.11041e-07 4.65073e-07 3.69732e-06 14.937 13.9282 17.2745 
294 2 3.65171e-06 5.87488e-07 -1.09702e-06 16.5027 14.5349 14.6578 
295 2 2.04187e-06 -5.90523e-07 -1.20602e-06 15.7817 14.3599 10.9436 
296 2 -1.06604e-06 5.83215e-07 -5.50025e-07 12.7932 15.4793 10.6526 
297 2 -7.62874e-07 -1.85947e-06 -1.67882e-07 13.1234 13.0617 9.77613 
298 2 -9.58585e-07 -6.42221e-08 -9.31811e-07 9.98902 14.894 12.9984 
299 2 -1.11903e-06 6.40271e-06 1.04771e-06 11.5191 17.8256 14.9929 
300 2 -3.19472e-06 -8.0223e-07 1.2523e-06 14.047 9.97342 16.6658 
