ITEM: TIMESTEP
0
ITEM: NUMBER OF ATOMS
6
ITEM: BOX BOUNDS pp pp pp
0.0000000000000000e+00 4.8819591223992003e+00
0.0000000000000000e+00 4.8819591223992003e+00
0.0000000000000000e+00 4.8819591223992003e+00
ITEM: ATOMS id type fx fy fz x y z rho_SPH width_SPH omega_SPH u_SPH vx vy vz 
6 2 -0.0000004184949843 -0.0000022161988315 0.0000000607487572 1.6803260007827143 0.0926757709304676 1.4016820283688107 0.0000073050525843 2.4334076523829138 0.1749345890651927 -0.0000000008702775 19.7288938238435279 8.9879964165938731 9.1348017172813787 
2 1 0.0000007011306495 0.0000026772082678 0.0000006228355684 2.7270022481356526 1.9337257802056282 0.3127937079036167 0.0000046892824161 2.5802734325657219 0.1593086493101226 -0.0000000072954605 -2.5250965399113796 18.4043898106453376 22.2301179053807410 
4 2 -0.0000003470485081 -0.0000020763061825 -0.0000029074169469 4.8246916802983826 2.2215343300295416 2.3036231637675928 0.0000055913850840 2.4852189523659689 0.1209544906438746 0.0000000070951429 -17.6376385787995602 8.0681325750669100 0.5451862594732318 
5 2 -0.0000014021017666 0.0000019164860496 0.0000003831847582 3.3769858722209922 2.1199918628495138 2.9399105237482557 0.0000076078884260 2.4102145732405100 0.1657263164348528 0.0000000004685987 -2.0912552450439792 -17.0561289916607848 -9.6799879767546102 
3 1 0.0000005625149266 0.0000011245249567 0.0000012609172814 1.3575415502453905 3.8120573883794564 3.2139034336416543 0.0000077406976408 2.4029623962590216 0.1619613582291494 0.0000000007424334 1.5013905072240303 -5.4753306214433772 -7.1077894978816714 
1 1 0.0000009039996830 -0.0000014257142601 0.0000005797305817 2.8485877161109334 4.3637470124772992 2.7984897841120846 0.0000080790169295 2.3822611618685947 0.1522346956600662 0.0000000014232677 1.0237060326873391 -12.9290591892019506 -15.1223284074990811 
ITEM: TIMESTEP
1
ITEM: NUMBER OF ATOMS
6
ITEM: BOX BOUNDS pp pp pp
0.0000000000000000e+00 4.8819591223992003e+00
0.0000000000000000e+00 4.8819591223992003e+00
0.0000000000000000e+00 4.8819591223992003e+00
ITEM: ATOMS id type fx fy fz x y z rho_SPH width_SPH omega_SPH u_SPH vx vy vz 
6 2 0.0000000155204171 -0.0000016177556654 0.0000017020517963 1.6822988901615223 0.0935745705531884 1.4025955085410580 0.0000025118097822 3.6537083791575946 0.0834667021847504 -0.0000000030442653 19.7288937894071523 8.9879960889615536 9.1348018679222989 
2 1 0.0000004195011301 0.0000010019855910 -0.0000003412830151 2.7267497384876531 1.9355662192095711 0.3150167196994772 0.0000013686563510 4.0915340128044493 0.0702072784844683 -0.0000000107521722 -2.5250964441472830 18.4043901250525153 22.2301179294409437 
4 2 -0.0000006046735182 -0.0000009862001224 -0.0000009857904070 4.8229279164375365 2.2223411432693050 2.3036776823686949 0.0000016328959020 3.8893501933377008 0.0542961970161532 0.0000000102042330 -17.6376386601293973 8.0681323133590439 0.5451859267774321 
5 2 -0.0000006557826319 0.0000019142003622 0.0000002426615382 3.3767767466845062 2.1182862499667250 2.9389425249538546 0.0000026132954202 3.6105849631810565 0.0804640252936693 0.0000000029252530 -2.0912554209014238 -17.0561286643077388 -9.6799879232726322 
3 1 0.0000012672242587 0.0000014981943222 -0.0000005509383775 1.3576916893009199 3.8115098553269218 3.2131926547026413 0.0000026611328779 3.5936571447406362 0.0781201009927060 0.0000000007191927 1.5013906635852219 -5.4753303973177117 -7.1077894372101023 
1 1 -0.0000004417896558 -0.0000018104244875 -0.0000000667015349 2.8486900867219274 4.3624541065461955 2.7969775512762887 0.0000027792989092 3.5506900767977516 0.0734596445729464 0.0000000013882690 1.0237060721857065 -12.9290594657476561 -15.1223283636579513 
ITEM: TIMESTEP
2
ITEM: NUMBER OF ATOMS
6
ITEM: BOX BOUNDS pp pp pp
0.0000000000000000e+00 4.8819591223992003e+00
0.0000000000000000e+00 4.8819591223992003e+00
0.0000000000000000e+00 4.8819591223992003e+00
ITEM: ATOMS id type fx fy fz x y z rho_SPH width_SPH omega_SPH u_SPH vx vy vz 
6 2 0.0000001328420362 -0.0000009697826977 0.0000014055712308 1.6842717795405957 0.0944733701482599 1.4035089887423950 0.0000008685043475 5.3236092236491217 0.0404042343130605 -0.0000000048324344 19.7288938020855298 8.9879958678422902 9.1348021334856337 
2 1 0.0000002387278545 0.0000003182123675 -0.0000005282525120 2.7264972288468234 1.9374066582306388 0.3172397314895049 0.0000004008975069 6.2890283623314609 0.0307938545603507 -0.0000000124352651 -2.5250963878980266 18.4043902378706292 22.2301178551343916 
4 2 -0.0000004649512014 -0.0000004086476958 -0.0000002656739897 4.8211641525663564 2.2231479564922134 2.3037322009529486 0.0000004786414383 5.9484440410993731 0.0240442886544998 0.0000000116859209 -17.6376387515346629 8.0681321941616915 0.5451858198329745 
5 2 -0.0000003238437671 0.0000014078828262 0.0000003454417638 3.3765676211368119 2.1165806371166522 2.9379745261636008 0.0000009034112498 5.2568731792424970 0.0392794857555613 0.0000000052894100 -2.0912555046158419 -17.0561283804176114 -9.6799878730159978 
3 1 0.0000008955836833 0.0000010428376579 -0.0000008015201680 1.3578418283781075 3.8109623222999929 3.2124818757542122 0.0000009203025515 5.2279873188844732 0.0380288113664567 0.0000000005463350 1.5013908484089551 -5.4753301801726710 -7.1077895527850607 
1 1 -0.0000004783586055 -0.0000013905024582 -0.0000001555663249 2.8487924573253705 4.3611612005841494 2.7954653184393528 0.0000009615807332 5.1579892600685957 0.0357872355989794 0.0000000012359214 1.0237059935540196 -12.9290597392843196 -15.1223283826519523 
