ITEM: TIMESTEP
0
ITEM: NUMBER OF ATOMS
300
ITEM: BOX BOUNDS pp pp pp
0.0000000000000000e+00 1.7985291181993400e+01
0.0000000000000000e+00 1.7985291181993400e+01
0.0000000000000000e+00 1.7985291181993400e+01
ITEM: ATOMS id type fx fy fz x y z 
1 1 3.79468e-05 -8.5593e-05 8.80465e-06 2.92259 2.69211 1.19422 
2 1 -0.000345315 0.00026967 0.000379535 6.45698 4.88646 7.36588 
3 1 9.73292e-06 -4.22646e-06 1.59423e-05 2.83655 5.40493 6.55307 
4 1 -1.42397e-05 5.37882e-06 3.24538e-05 7.56579 5.31971 3.73522 
5 1 4.38703e-09 1.2043e-08 9.11512e-09 5.99002 2.45069 2.09565 
6 1 -1.01866e-05 4.04721e-06 -1.5851e-05 2.15159 5.67755 5.48475 
7 1 0.000342512 -0.000260642 -0.000406064 6.87812 4.56778 6.85861 
8 1 -3.68512e-09 7.39147e-09 6.57329e-09 1.18995 8.91367 1.86699 
9 1 6.03466e-08 8.00182e-07 1.121e-06 8.7012 0.386965 6.86823 
171 2 -0.000382362 -0.000188857 -9.25156e-05 1.40044 5.87305 3.53112 
11 1 -2.28313e-05 -7.8387e-06 -1.07429e-05 1.46383 1.02179 3.15876 
12 1 -1.4722e-08 -1.1535e-08 -5.12014e-09 7.20879 8.55251 6.77253 
13 1 0.000487784 -0.000281582 0.000361165 2.16482 6.18114 3.7407 
14 1 0.000512396 0.000806932 -0.000104385 2.81438 1.93307 3.54982 
170 2 -6.08488e-07 -7.03999e-07 6.12071e-08 1.76467 7.50238 0.704244 
16 1 4.52307e-07 1.70945e-07 -5.51506e-08 4.35328 5.97924 6.37278 
17 1 -5.63535e-07 -1.12233e-06 -6.5176e-07 0.314887 2.44436 5.65241 
18 1 2.72295e-09 -3.39188e-09 -8.96594e-09 8.27257 5.90079 7.43079 
19 1 8.62696e-13 5.4277e-12 -2.3126e-12 0.512845 0.196761 8.21643 
20 1 1.42397e-05 -5.37882e-06 -3.24538e-05 8.05455 5.13509 2.62128 
21 1 -9.13152e-05 0.000444989 -0.000300917 1.98016 6.8297 3.35017 
22 1 1.60797e-08 -4.42767e-08 -3.88143e-09 7.57309 2.93916 6.55178 
23 1 -6.0168e-06 1.5571e-06 1.56308e-07 0.0240746 6.12262 3.52569 
151 2 8.47546e-08 -3.0896e-08 -2.69988e-08 0.0858491 8.10073 8.4864 
169 2 -7.34094e-06 5.44224e-06 -7.73342e-06 5.40803 0.565925 4.6239 
153 2 2.7292e-06 -9.15455e-06 2.63497e-05 6.49948 4.56574 8.56908 
154 2 -8.08785e-06 2.39e-05 3.20746e-05 1.74184 7.55961 4.28927 
155 2 -5.16105e-11 8.52093e-11 7.03197e-11 5.61139 1.78794 6.53945 
156 2 7.31229e-05 -1.50099e-05 -3.13779e-05 5.84715 4.79894 1.36644 
157 2 -7.31231e-05 1.50098e-05 3.13781e-05 4.82518 5.00872 1.80498 
158 2 1.67299e-06 1.01839e-07 2.15248e-06 0.932245 3.66675 6.36531 
159 2 -8.25505e-08 5.09694e-08 1.2415e-07 2.25181 1.16314 5.30232 
160 2 -0.000489547 -0.000799073 0.00011505 2.52529 1.48509 3.60473 
161 2 8.88056e-10 -2.5674e-09 -1.16097e-08 1.41157 0.892485 1.27198 
162 2 -1.10856e-06 1.02013e-06 -1.50116e-06 0.145131 4.38849 5.29973 
163 2 -4.38699e-09 -1.20439e-08 -9.11487e-09 5.46415 1.00699 1.00305 
164 2 6.12173e-07 6.96608e-07 -6.77804e-08 2.80358 8.68613 0.590044 
165 2 -3.26304e-05 8.30348e-05 -6.1402e-06 2.47285 3.70344 1.09018 
166 2 -5.11492e-06 2.8936e-06 -1.71473e-06 1.30479 4.38677 0.693127 
167 2 -2.27988e-10 7.37861e-10 3.14844e-10 3.79108 7.8176 7.1559 
168 2 -1.50432e-09 8.87041e-10 2.12416e-10 7.22807 5.96875 0.231899 
50 1 6.81313e-08 -6.5809e-08 -3.1293e-08 3.47379 0.0351301 4.74686 
84 1 0.000303384 -0.00105199 0.000336918 8.93243 1.87976 0.0967411 
24 1 -7.16265e-07 -1.05335e-06 -8.12133e-06 1.04465 1.48084 12.1976 
25 1 -2.21141e-06 8.70136e-07 9.04826e-06 0.72928 1.61584 13.5242 
26 1 -0.000225096 -8.25011e-06 6.97656e-05 8.45015 3.45023 13.4349 
27 1 1.6875e-06 -4.4596e-08 1.38847e-06 2.84849 2.95826 12.1711 
28 1 7.63003e-10 -4.76073e-09 3.11444e-10 4.4071 5.27802 16.4924 
29 1 3.26325e-13 -5.58891e-13 -9.73361e-13 6.15406 3.91173 15.4685 
30 1 -1.68914e-06 1.39228e-06 -1.12822e-06 5.36181 3.04985 9.75942 
31 1 2.22777e-09 4.7978e-11 3.68924e-09 6.09177 6.54373 14.6276 
32 1 1.34381e-06 4.34687e-07 -2.33539e-08 4.3173 3.4329 12.1463 
33 1 2.00094e-05 2.26699e-05 1.20018e-05 8.94207 6.674 14.1656 
34 1 -0.000327716 0.000645134 -0.000383405 0.410287 2.39535 17.4365 
35 1 -1.87456e-07 -3.27345e-07 -9.49388e-07 2.1491 3.16825 17.6284 
36 1 -3.42781e-05 4.43082e-05 1.26548e-05 6.3888 2.19637 10.43 
37 1 -2.00124e-05 -2.26897e-05 -1.20085e-05 8.17893 5.80875 13.7077 
38 1 -1.27627e-06 2.26316e-06 3.59833e-07 8.69872 7.99705 10.1605 
39 1 -9.34742e-11 1.54502e-09 -5.10738e-10 1.26351 5.25825 11.025 
40 1 3.77221e-08 1.54167e-07 1.90966e-07 6.86724 5.67712 9.77759 
41 1 -1.37013e-05 -0.000153475 -0.000173489 0.519319 1.43249 16.8956 
42 1 2.94174e-09 1.41893e-08 2.03159e-09 2.80392 7.37931 14.5869 
43 1 -1.48745e-07 -1.34832e-08 1.68442e-09 3.047 5.82577 13.5071 
44 1 -0.000234332 -0.000319648 -0.000119864 8.90717 6.20944 9.72336 
45 1 -5.4649e-05 4.94635e-05 -4.69476e-05 8.18264 6.80064 9.11282 
172 2 -0.000261981 -0.000905792 0.000236586 8.87679 4.80415 11.4906 
173 2 3.666e-11 3.34091e-11 -1.80058e-11 4.95448 0.811831 14.1494 
174 2 -7.07465e-10 4.75421e-09 -2.33216e-10 4.09655 7.21362 16.366 
175 2 3.59672e-05 -4.57005e-05 -1.15265e-05 7.0994 1.2938 10.203 
176 2 0.000343966 -0.000496921 0.000563937 0.662058 1.93768 17.7655 
177 2 -2.56941e-06 7.62034e-07 -9.3792e-07 1.50587 3.34575 11.6861 
178 2 1.43305e-07 7.81798e-10 -1.4251e-08 4.76699 5.87416 13.4141 
179 2 -3.14372e-08 8.10854e-09 -8.28615e-08 8.24017 2.05998 15.3855 
180 2 -9.37506e-06 -4.94762e-05 -0.000237735 8.82326 1.92348 17.0359 
181 2 2.54683e-06 -1.03077e-06 -1.4344e-06 2.43009 1.5419 11.693 
182 2 2.79084e-09 2.90106e-09 3.37892e-09 7.52011 7.60379 15.4213 
183 2 1.04235e-05 6.00038e-06 -4.59707e-06 2.23807 2.99013 14.5376 
184 2 -1.05572e-05 5.01551e-06 -8.50179e-08 0.130892 2.31499 15.9104 
185 2 1.34725e-07 1.61288e-07 -4.82117e-09 7.40829 7.31846 11.8418 
186 2 -1.34697e-07 -1.61284e-07 4.88108e-09 6.32011 6.01594 11.8811 
187 2 1.83467e-15 2.56916e-16 7.1505e-15 3.81827 5.61711 9.06624 
188 2 -2.38907e-06 -5.55132e-06 -2.26141e-06 1.15349 2.36785 15.0177 
189 2 -2.63978e-07 4.5998e-07 -1.78054e-07 8.08516 3.39923 16.9214 
190 2 -4.42086e-09 -4.91717e-09 4.31978e-09 1.71934 6.1784 15.6419 
15 1 -0.000293735 0.00110099 -9.89159e-05 8.80686 2.33028 17.9844 
46 1 -5.2475e-11 1.03709e-12 3.77084e-11 7.02669 10.2502 8.73855 
47 1 1.40235e-10 3.17562e-12 2.46245e-10 6.96958 9.70414 4.76668 
48 1 4.57654e-06 2.80842e-06 5.32321e-07 6.04276 17.0564 7.41381 
49 1 0.000163044 -2.17088e-05 -4.44223e-05 2.48162 14.7639 3.63263 
210 2 -9.17862e-09 -1.01001e-09 -7.51805e-09 7.45888 15.1729 6.61925 
51 1 -1.6988e-08 -8.06419e-09 3.25647e-08 4.31906 12.632 1.02243 
52 1 -1.2833e-07 -6.13107e-07 -2.63811e-07 8.62917 9.66514 7.26759 
53 1 -1.38193e-12 1.154e-12 -5.5742e-14 1.96736 9.41534 7.09359 
54 1 -0.000146655 0.000249522 -0.000369787 4.40064 10.2735 7.38845 
55 1 -1.57042e-10 -3.56283e-11 -2.88156e-10 5.95498 9.47395 2.90499 
56 1 1.80944e-08 2.26513e-07 -7.64447e-07 2.78398 15.4003 2.2142 
57 1 9.18659e-09 1.00491e-09 7.51268e-09 8.92683 15.3343 7.82156 
58 1 -1.6229e-10 8.19456e-11 -2.53477e-10 8.86967 10.5509 2.54753 
59 1 -6.8432e-11 -5.39588e-09 2.64645e-09 2.78999 10.989 2.86053 
191 2 0.000146655 -0.000249522 0.000369787 4.65479 9.84112 8.02928 
192 2 -3.89218e-06 -8.92179e-07 -1.09109e-06 3.4725 16.0027 6.89145 
193 2 -2.59596e-12 -1.14118e-10 -1.78298e-10 2.60751 11.5457 0.176537 
194 2 5.38051e-10 -3.11176e-10 7.45384e-10 7.20385 16.3863 8.98667 
195 2 -6.20443e-08 1.90234e-08 5.35993e-08 2.87775 12.7491 2.02139 
196 2 -1.57986e-08 -7.24665e-09 -2.0871e-09 1.19246 11.95 1.79645 
197 2 -7.34775e-09 1.07425e-08 2.50034e-08 6.5142 15.4333 3.76288 
198 2 -3.25341e-07 1.34046e-07 2.70259e-08 2.61346 13.5936 8.31409 
199 2 -6.84913e-07 -1.91611e-06 5.58378e-07 4.83448 16.316 7.2728 
200 2 1.30031e-07 1.2637e-07 -1.16488e-08 4.00689 16.5889 2.10434 
201 2 -9.68808e-14 -2.13227e-13 2.69444e-14 5.475 13.1457 4.0516 
202 2 -0.000163227 2.14385e-05 4.50184e-05 1.50108 14.8924 3.90373 
203 2 -2.273e-11 5.9729e-12 -1.00644e-11 1.44436 16.532 5.99219 
204 2 -6.63608e-11 8.29087e-11 -7.29228e-11 7.64053 11.3416 6.14101 
205 2 3.25336e-07 -1.34032e-07 -2.70377e-08 4.14144 12.964 8.18716 
206 2 1.43083e-07 6.24698e-07 2.68867e-07 8.95904 11.1062 7.88765 
207 2 -7.91281e-08 -8.03524e-07 -1.12165e-06 8.62627 17.472 5.61402 
208 2 3.487e-08 -8.25945e-08 1.79989e-07 2.34259 14.1328 5.24906 
209 2 7.34784e-09 -1.07423e-08 -2.50034e-08 6.99513 14.7302 2.12636 
152 2 7.34331e-06 -5.44153e-06 7.73284e-06 6.23426 17.9389 5.49402 
281 2 4.05395e-06 4.70774e-07 -1.16305e-06 0.0532778 17.7168 2.84382 
60 1 4.53199e-11 -3.5009e-11 -3.47882e-11 4.89724 14.0049 11.9619 
61 1 8.64335e-12 -2.01195e-11 1.20741e-11 5.25502 11.7453 11.8384 
226 2 -0.000274722 -0.000153055 0.000315359 4.42072 10.0636 16.2549 
63 1 3.5999e-05 3.25156e-06 -2.5859e-05 2.43589 17.9505 10.5751 
64 1 -1.08326e-11 -6.11506e-12 -2.29459e-11 1.66133 11.0116 16.1576 
65 1 -1.0027e-09 -1.97783e-07 -7.31192e-08 5.1368 12.7718 13.9393 
66 1 -2.99365e-07 -9.27405e-08 -3.61341e-08 4.15317 12.7059 15.982 
67 1 -1.62402e-08 -2.97076e-08 -4.09484e-09 2.07077 13.8931 16.7151 
68 1 -5.81309e-10 -1.13574e-09 -8.83247e-10 8.53908 10.9544 14.9885 
69 1 -1.24385e-13 1.07153e-13 5.85389e-14 8.31258 16.4244 13.8426 
70 1 2.06328e-09 -1.23745e-07 2.43055e-08 4.07191 16.0203 9.78596 
71 1 -9.63975e-11 -1.75788e-11 -6.86723e-11 6.81772 10.6641 13.6621 
72 1 -0.000139333 0.000328385 -0.000210948 3.14236 16.4231 11.312 
73 1 -8.3007e-09 -3.31923e-07 1.19785e-07 0.0124711 13.4436 15.5714 
74 1 4.86622e-14 -3.76401e-13 -9.71633e-14 6.16206 9.52326 11.1088 
75 1 -3.60086e-05 -3.25091e-06 2.5837e-05 1.45906 17.8627 11.2762 
76 1 0.000274722 0.000153055 -0.000315359 4.93226 10.3486 15.6677 
77 1 6.85802e-11 9.09792e-11 5.15503e-11 4.70818 11.2928 9.66163 
78 1 1.62507e-08 2.97118e-08 4.09405e-09 2.94329 15.4884 16.9349 
79 1 8.76877e-08 -2.77695e-08 4.81733e-09 5.60158 12.6563 17.8394 
80 1 4.24499e-07 4.75229e-07 -1.57438e-07 0.15948 14.9163 14.8344 
211 2 7.81971e-08 3.45551e-08 -1.81294e-08 6.5117 13.7108 14.623 
212 2 -4.27416e-09 -1.44492e-07 2.3106e-08 0.470585 17.7092 17.1036 
213 2 -3.50268e-13 5.03762e-14 1.14466e-14 0.249118 16.5555 12.9841 
214 2 4.65451e-17 3.45997e-16 -5.18701e-16 7.20864 16.2881 17.7817 
215 2 1.5117e-08 1.16186e-07 -5.2274e-08 4.27643 17.5916 9.07869 
216 2 -3.66604e-11 -3.34047e-11 1.80095e-11 3.39825 17.3789 14.9138 
217 2 -6.42652e-13 -5.55134e-12 2.27978e-12 0.171263 16.0329 9.13213 
218 2 -1.28118e-11 -8.85205e-12 1.74077e-11 7.15982 10.1157 16.6062 
219 2 2.86463e-07 1.08935e-07 -1.49262e-08 5.73432 13.1958 16.173 
220 2 7.33303e-06 -3.71972e-06 4.64006e-05 3.63848 15.5777 12.906 
221 2 2.19833e-12 1.67842e-12 -4.11226e-12 7.76692 11.4647 11.6408 
222 2 0.000131993 -0.00032468 0.000164586 3.42567 15.7597 11.7522 
223 2 3.91449e-08 -2.39307e-08 4.89948e-08 2.7831 10.7761 10.6337 
224 2 -5.70056e-08 1.76575e-07 5.10366e-08 4.7661 14.3643 14.4347 
225 2 -3.92126e-08 2.39125e-08 -4.89606e-08 1.74162 11.4112 9.3333 
81 1 3.60826e-10 -1.66467e-10 -7.14587e-10 9.9481 7.35798 1.16494 
82 1 4.62035e-06 -1.04746e-06 -1.00285e-05 13.6421 1.83173 6.39342 
83 1 -2.81323e-08 -3.01626e-08 -2.74975e-08 15.4643 7.57938 7.98932 
246 2 8.27107e-06 -2.73313e-06 -1.53574e-06 11.083 4.85318 4.12369 
85 1 5.27354e-05 -4.81851e-05 9.59093e-06 10.603 7.81308 8.93616 
86 1 7.2207e-08 -6.26529e-08 -1.58955e-07 10.9679 1.04973 1.93946 
87 1 6.7201e-09 5.16154e-09 7.89634e-10 10.2169 1.55811 7.07928 
88 1 1.03197e-10 -3.67733e-11 3.53792e-11 12.3311 0.83532 3.75697 
89 1 -8.68561e-05 9.02619e-06 -8.4797e-05 9.74794 8.55839 8.74519 
90 1 6.74868e-11 1.35763e-10 4.82695e-11 12.3293 8.54394 7.45218 
91 1 5.7692e-13 -4.18049e-13 8.05324e-13 16.8501 8.23331 3.58239 
92 1 -7.23101e-08 6.26898e-08 1.5892e-07 10.3031 1.62647 3.40245 
93 1 -7.36515e-12 -1.04296e-11 7.75169e-12 13.8826 8.32256 0.288117 
94 1 -9.00764e-10 3.61353e-10 4.38361e-10 16.5991 3.30427 6.4475 
95 1 -4.87197e-05 5.46779e-06 -5.19397e-05 12.8333 5.38053 7.53068 
96 1 4.46428e-08 1.79886e-08 1.29625e-09 13.5185 6.45438 5.92391 
227 2 -2.93246e-10 -1.62657e-10 1.41963e-10 12.0747 4.8789 0.0863196 
228 2 -0.000340365 0.000113684 0.000488106 10.2124 6.29575 4.86682 
229 2 -3.97719e-05 -3.35908e-05 -3.64063e-06 10.9388 5.0231 5.73823 
230 2 -3.29848e-06 -7.47092e-07 1.10678e-05 13.0783 1.95893 7.61872 
231 2 1.3148e-14 1.01008e-14 -1.61277e-15 13.0968 2.63168 1.737 
232 2 3.48899e-07 1.56185e-07 -5.59225e-07 11.5674 5.97614 2.98455 
233 2 -2.42775e-05 3.26562e-05 5.39693e-05 16.2443 0.137305 4.17338 
234 2 -7.17758e-13 1.95314e-12 2.73654e-12 17.613 6.71242 5.82475 
235 2 4.87211e-05 -5.46962e-06 5.19432e-05 13.6162 5.29264 8.3654 
236 2 -5.66219e-08 6.10594e-08 5.44951e-08 16.4886 8.6776 8.9905 
237 2 -8.60788e-11 -3.47728e-11 8.18976e-11 10.4917 4.29999 1.48628 
238 2 -3.57346e-06 7.78468e-06 7.97171e-06 11.4365 6.68589 6.7542 
239 2 4.33436e-05 2.56953e-05 -3.73135e-06 11.8428 5.7852 5.83564 
240 2 1.58844e-06 9.71193e-07 -2.77578e-05 15.4416 1.67612 7.8691 
241 2 -6.30945e-06 -3.99344e-06 9.22302e-07 9.9156 4.11328 4.29491 
242 2 -5.55334e-11 1.27557e-10 2.17695e-11 15.3805 2.10747 4.54041 
243 2 0.00033801 -0.000107019 -0.000487538 10.6199 6.15836 4.28288 
244 2 -1.32194e-06 1.79468e-06 -1.03936e-06 12.2763 3.04983 6.98261 
245 2 8.04735e-05 0.000979066 -0.000108822 9.06426 8.23301 2.93858 
10 1 -8.04739e-05 -0.000979066 0.000108823 9.02114 7.70836 2.99689 
97 1 0.00013945 -9.10989e-05 0.000101803 16.1093 1.15722 9.64074 
98 1 7.43453e-05 0.000301788 0.000227759 11.465 3.943 13.336 
99 1 -0.000108822 2.72475e-05 -0.000127738 15.3945 1.62978 9.12155 
100 1 4.05698e-10 1.68833e-10 -2.03343e-10 13.7457 5.7323 17.107 
101 1 1.94703e-11 -2.77215e-11 -1.09847e-11 16.2035 0.124587 15.0945 
102 1 2.08481e-06 0.000344272 -0.000130352 13.8214 4.09466 15.1181 
103 1 -1.58093e-10 2.60017e-10 5.95493e-10 15.801 1.7392 13.4242 
104 1 -7.4273e-05 -0.000301371 -0.000227631 11.2975 3.26337 12.8231 
105 1 1.14742e-07 -6.72447e-08 1.32967e-08 12.7692 2.36537 12.9709 
106 1 0.000230789 2.63996e-05 6.97678e-05 13.6075 7.5274 11.0817 
107 1 -0.000117847 -0.000114869 -0.000364954 13.7396 4.10552 11.8225 
108 1 -2.59856e-11 -6.45456e-12 6.08937e-12 17.5499 5.64318 16.1469 
109 1 1.84369e-08 1.28258e-08 9.50146e-09 11.0712 2.55735 9.91414 
110 1 7.1583e-10 -6.05653e-10 3.71224e-09 16.3916 0.971579 11.5794 
111 1 -3.24773e-07 -2.9497e-07 1.06279e-06 9.25349 8.41892 14.7457 
112 1 -0.000444635 -0.000152409 -0.000572577 13.3381 1.35214 16.2239 
113 1 1.68756e-06 2.19266e-06 -1.76852e-06 14.4834 5.07461 11.0082 
114 1 -0.000224858 -0.000488043 -0.000656709 10.6003 2.22432 16.5885 
115 1 1.55762e-05 0.000274835 -0.000375605 14.6194 7.74167 12.7332 
116 1 0.000261982 0.000905784 -0.000236571 9.02132 5.30386 11.3601 
117 1 4.65409e-15 -2.02102e-14 -3.10883e-14 17.0623 8.73537 15.0114 
118 1 -5.03233e-07 3.48405e-07 3.33029e-07 10.5104 0.707352 15.7741 
119 1 0.000604288 0.00112262 -0.000342965 14.3187 2.24176 14.9873 
247 2 -0.000230793 -2.64005e-05 -6.97721e-05 12.6887 7.4223 10.8039 
248 2 0.000649769 0.000453022 0.00019182 13.6355 1.40744 16.7396 
249 2 -0.000207993 -0.000301349 0.000382147 13.4401 1.0415 17.3341 
250 2 0.000115217 0.000112487 0.000364797 13.988 4.34611 12.607 
251 2 -1.71618e-05 -0.00032097 0.000145809 13.8171 3.27546 15.425 
252 2 0.000290239 0.000267926 0.000166468 9.47668 6.72706 10.0542 
253 2 3.29536e-07 3.1526e-07 -1.05687e-06 9.70056 8.84649 13.3123 
254 2 -1.84726e-08 -1.28238e-08 -9.364e-09 9.66869 1.58173 9.19126 
270 2 8.18141e-11 -1.1156e-11 -6.15141e-12 11.8883 8.54826 13.1473 
256 2 -1.82353e-07 -3.50532e-07 -1.41999e-07 10.6328 1.90222 12.2162 
257 2 0.000224881 0.000488151 0.000656748 10.7566 2.56378 17.0451 
258 2 1.72343e-09 -6.64087e-10 -3.54375e-10 9.05724 5.19893 17.8133 
259 2 3.73631e-07 4.81249e-06 1.32164e-05 14.9989 2.89285 11.0308 
260 2 8.57218e-10 -1.14126e-10 -3.09143e-10 15.6766 7.4074 10.9053 
261 2 -0.000597643 -0.00114309 0.000318885 14.1803 1.97224 15.0638 
262 2 -1.55736e-05 -0.000274834 0.00037561 14.5921 7.25992 13.3916 
263 2 2.67292e-06 9.1924e-07 -5.58014e-07 14.6096 4.51956 13.9533 
264 2 -3.25823e-05 5.80759e-05 4.04706e-05 14.9783 2.42257 9.78881 
265 2 9.55372e-06 -2.8261e-06 9.72016e-06 14.9592 1.70431 16.1382 
266 2 0.000225091 8.25062e-06 -6.97647e-05 9.37685 3.48419 13.1476 
267 2 -3.00333e-07 4.39725e-07 1.91994e-07 16.9787 4.85741 11.7638 
268 2 -2.35216e-11 2.63992e-11 -1.72029e-11 12.3958 7.24741 16.1197 
269 2 1.82287e-07 -4.21779e-07 -2.25639e-07 17.8381 3.59916 11.2144 
120 1 -1.13126e-05 -3.88499e-06 -2.89173e-05 10.6579 12.6325 0.232043 
121 1 1.62e-10 -7.70479e-11 2.53493e-10 9.98494 10.0163 4.28963 
122 1 5.71149e-07 6.77728e-06 8.01651e-06 15.5528 11.0523 4.04097 
123 1 -1.18087e-07 -7.14809e-06 -8.11841e-06 15.5373 10.1559 3.02197 
124 1 -2.71696e-08 -3.71573e-08 -4.78086e-08 15.9491 16.5653 1.9581 
125 1 -1.90739e-05 0.000122093 -9.74882e-05 12.3893 12.93 3.23558 
126 1 3.1416e-11 -2.84176e-10 5.37927e-10 14.4266 11.0946 6.18857 
127 1 5.46628e-07 1.84585e-07 -7.89494e-07 13.2447 13.2617 1.9583 
128 1 1.13145e-05 3.88057e-06 2.89077e-05 11.1082 12.7871 1.38313 
129 1 -1.03753e-05 8.86985e-06 2.39434e-06 9.46205 17.0155 1.76259 
130 1 1.95029e-05 -0.000122204 9.74823e-05 12.5111 12.1271 3.88115 
131 1 -0.00055775 -0.0003407 0.00109838 10.5565 13.3811 3.44613 
132 1 1.58023e-11 2.08877e-11 1.39791e-11 13.8754 14.6061 3.74215 
133 1 -9.09267e-07 -1.005e-07 7.96366e-07 11.3593 11.9724 4.91511 
134 1 -5.38111e-09 1.167e-09 -1.54196e-09 11.5126 13.0847 8.52067 
135 1 -0.000370229 0.000589329 -6.64358e-05 16.6614 13.6403 4.77586 
271 2 1.07751e-08 -1.51453e-09 -5.67854e-10 10.5071 17.1888 5.5714 
272 2 -0.00015658 -0.000431122 0.00101553 13.3277 12.3025 8.2255 
273 2 0.000557662 0.000340731 -0.00109837 10.731 13.4877 3.10246 
274 2 -3.52842e-09 4.07157e-09 7.1078e-09 14.3528 17.0993 0.501133 
275 2 1.10612e-09 -1.30128e-10 -1.83442e-10 12.4751 15.935 1.19359 
276 2 1.03742e-05 -8.86973e-06 -2.39415e-06 10.4595 16.1627 1.53241 
277 2 1.17245e-12 -2.44267e-13 -2.3696e-11 15.9162 14.351 8.75073 
278 2 4.52312e-11 -1.34771e-10 2.09681e-11 13.836 17.9207 7.93196 
279 2 -7.1438e-09 3.97113e-09 -6.40881e-09 14.121 11.3484 2.4998 
280 2 2.02457e-05 -3.30947e-05 -5.27596e-05 16.66 17.5651 3.25154 
288 2 0.000156618 0.000430967 -0.00101578 13.3949 12.4874 7.78956 
282 2 6.56679e-05 0.000103308 -5.69324e-05 17.3098 12.3892 0.630088 
283 2 -6.50185e-05 -0.000103673 5.82988e-05 16.7939 11.5794 1.0802 
284 2 1.32345e-09 -3.06803e-10 2.93906e-10 12.4536 16.7376 6.00369 
285 2 0.000370229 -0.000589329 6.64358e-05 17.0153 13.0769 4.83937 
286 2 -4.26598e-07 3.66513e-07 1.124e-07 14.3234 12.0612 4.33215 
287 2 0.000263957 0.000380478 0.000280063 15.5818 11.5236 0.124518 
136 1 0.000372297 -0.000480578 -5.42083e-05 10.8102 15.6514 9.95544 
137 1 -2.7022e-10 -1.45312e-09 -1.30723e-09 16.5834 11.2863 11.2041 
138 1 0.000743109 -0.000386229 -0.000423239 14.4107 9.83159 16.3971 
139 1 -0.000333484 -0.000229892 0.000350976 11.6019 14.4882 14.7158 
140 1 4.50298e-05 0.000216828 0.000117127 12.2778 15.6748 14.6426 
141 1 6.8931e-10 1.16023e-09 9.38109e-10 9.39239 12.3893 16.1501 
142 1 2.31194e-05 -3.52477e-05 8.51685e-06 15.2975 9.87037 17.2722 
143 1 3.30056e-06 6.1686e-07 -2.21537e-07 16.7357 10.1522 17.1908 
144 1 -2.26585e-05 3.96069e-05 -2.37025e-05 16.0772 15.2677 14.2519 
145 1 3.49232e-09 -4.04731e-09 -7.15533e-09 15.1048 16.2272 16.9455 
146 1 -2.10261e-06 1.11052e-05 6.74174e-06 12.1436 12.2254 12.4209 
147 1 2.70794e-10 1.45225e-09 1.30805e-09 16.8603 12.7755 12.5438 
148 1 2.10262e-06 -1.11052e-05 -6.74174e-06 12.3573 11.0968 11.7357 
149 1 -0.000271107 -0.000344646 -0.000268167 15.218 10.9846 17.7169 
150 1 -0.000372534 0.000480538 5.43116e-05 10.369 16.2204 10.0198 
289 2 -1.24083e-09 -1.37229e-08 -1.52863e-09 15.9756 17.2633 9.45865 
290 2 2.2266e-08 1.08202e-07 4.17584e-08 10.5291 10.5936 10.3062 
291 2 -4.73637e-06 2.18743e-06 -1.91134e-05 12.3422 15.7581 9.29051 
292 2 0.000288454 1.30648e-05 -0.000468103 12.0809 14.8375 14.2285 
293 2 -1.19844e-13 -2.44145e-12 1.28553e-13 15.0103 13.8271 17.1016 
294 2 2.22432e-05 -3.97357e-05 2.36811e-05 16.6008 14.3524 14.7997 
295 2 -1.74649e-12 1.11185e-12 2.2876e-11 15.8033 14.3745 11.0329 
296 2 4.97334e-06 -2.14734e-06 1.901e-05 12.6678 15.6173 10.5365 
297 2 -3.21315e-08 1.53569e-07 2.5052e-07 13.1203 13.0497 9.68773 
298 2 -2.20358e-11 3.15831e-12 -1.98539e-11 10.1282 14.8604 12.9881 
299 2 5.02415e-07 -4.52707e-07 -3.78135e-07 11.544 17.7611 14.9961 
300 2 -0.000763338 0.00038511 0.000402309 13.9676 10.0542 16.6279 
62 1 3.08949e-07 2.69063e-07 -5.68431e-07 17.9725 13.0166 17.3098 
255 2 3.41336e-05 3.90738e-05 7.51338e-05 10.1913 9.01137 9.66681 
