ITEM: TIMESTEP
0
ITEM: NUMBER OF ATOMS
6
ITEM: BOX BOUNDS pp pp pp
0.0000000000000000e+00 4.8819591223992003e+00
0.0000000000000000e+00 4.8819591223992003e+00
0.0000000000000000e+00 4.8819591223992003e+00
ITEM: ATOMS id type fx fy fz x y z rho_SPH width_SPH omega_SPH u_SPH vx vy vz 
1 1 0.0000002001892270 -0.0000001606877583 -0.0000000236668604 2.8485877161109334 4.3637470124772992 2.7984897841120846 0.0000196354247723 2.2319471184784732 0.4637515937347344 -0.0000000429037551 1.0237060326873391 -12.9290591892019506 -15.1223284074990811 
2 1 0.0000001306511382 -0.0000000250923154 -0.0000001201222966 2.7270022481356526 1.9337257802056282 0.3127937079036167 0.0000178758688092 2.3177700642245904 0.5161641173597805 0.0000000063589904 -2.5250965399113796 18.4043898106453376 22.2301179053807410 
3 1 -0.0000000816036444 -0.0000000564357030 0.0000000521401088 1.3575415502453905 3.8120573883794564 3.2139034336416543 0.0000184563326045 2.2576680758437604 0.4737625396145679 -0.0000000072001869 1.5013905072240303 -5.4753306214433772 -7.1077894978816714 
4 2 -0.0000002071680829 0.0000001199828220 0.0000000437005077 4.8246916802983826 2.2215343300295416 2.3036231637675928 0.0000184965634076 2.2796096069423064 0.5069639105441768 0.0000000124722554 -17.6376385787995602 8.0681325750669100 0.5451862594732318 
5 2 0.0000006386337160 -0.0000001166189972 0.0000003813599416 3.3769858722209922 2.1199918628495138 2.9399105237482557 0.0000184433588498 2.2348453679047409 0.4133340165612167 0.0000000027263566 -2.0912552450439792 -17.0561289916607848 -9.6799879767546102 
6 2 -0.0000006807023539 0.0000002388519518 -0.0000003334114011 1.6803260007827143 0.0926757709304676 1.4016820283688107 0.0000160964133825 2.2989534952083077 0.4419441292529859 -0.0000001498994536 19.7288938238435279 8.9879964165938731 9.1348017172813787 
ITEM: TIMESTEP
1
ITEM: NUMBER OF ATOMS
6
ITEM: BOX BOUNDS pp pp pp
0.0000000000000000e+00 4.8819591223992003e+00
0.0000000000000000e+00 4.8819591223992003e+00
0.0000000000000000e+00 4.8819591223992003e+00
ITEM: ATOMS id type fx fy fz x y z rho_SPH width_SPH omega_SPH u_SPH vx vy vz 
1 1 0.0000000343205191 -0.0000000588267653 -0.0000000332044291 2.8588247935450681 4.2344564068536341 2.6472664980146314 0.0000120672258034 2.9103682862455997 0.3018940907105458 -0.0000000523932259 1.0237080367010079 -12.9290610650732649 -15.1223288934952649 
2 1 0.0000000260096967 -0.0000000537365637 -0.0000000704894592 2.7017512939013910 2.1177696761678062 0.5350948766923187 0.0000108422379871 3.0253043705458129 0.3072350811125268 -0.0000000120796112 -2.5250952011591115 18.4043891370095771 22.2301162764993379 
3 1 -0.0000001834388773 0.0000001363863644 0.0000000203902322 1.3725554483441544 3.7573040773422841 3.1428255431184944 0.0000112170894325 2.9658399952665668 0.3147214321658514 -0.0000000204493677 1.5013882422911435 -5.4753299382213747 -7.1077888780703535 
4 2 -0.0000000494771982 0.0000000470805899 0.0000000256497650 4.6483152768067448 2.3022156660333972 2.3090750300967717 0.0000124272997680 2.9519614236001614 0.3443361478951165 0.0000000730636836 -17.6376407719734480 8.0681340027148725 0.5451868521091315 
5 2 0.0000004072536618 -0.0000001599770522 0.0000001761761561 3.3560733743452862 1.9494305629671766 2.8431106765699963 0.0000107330820119 2.9446562669378116 0.2612359494186897 -0.0000000352865453 -2.0912463073659686 -17.0561313553248652 -9.6799832123046077 
6 2 -0.0000002346678022 0.0000000890734269 -0.0000001185222649 1.8776148808514213 0.1825557555076082 1.4930300170498021 0.0000107045781816 3.0154996760000570 0.3119913991744231 -0.0000001990722828 19.7288860015063534 8.9879992188950659 9.1347978552617430 
ITEM: TIMESTEP
2
ITEM: NUMBER OF ATOMS
6
ITEM: BOX BOUNDS pp pp pp
0.0000000000000000e+00 4.8819591223992003e+00
0.0000000000000000e+00 4.8819591223992003e+00
0.0000000000000000e+00 4.8819591223992003e+00
ITEM: ATOMS id type fx fy fz x y z rho_SPH width_SPH omega_SPH u_SPH vx vy vz 
1 1 0.0000000054163332 -0.0000000165581112 0.0000000060629918 2.8690618768449538 4.1051657911758337 2.4960432062421791 0.0000064872167519 3.6547788940157111 0.1750548889096567 -0.0000000467780881 1.0237083762740815 -12.9290617092781446 -15.1223291254336480 
2 1 0.0000000264498026 -0.0000000394038048 -0.0000000452944983 2.6765003441124704 2.3018135629458194 0.7573960334336034 0.0000063577901197 3.7596215858016921 0.1885926171598318 -0.0000000263718864 -2.5250947528640819 18.4043883410743341 22.2301152870622758 
3 1 -0.0000000880961533 0.0000000189615617 -0.0000000032284967 1.3875693150912134 3.7025507896150289 3.0717476560802472 0.0000064774408102 3.7090314264404065 0.2008427071234415 -0.0000000218549183 1.5013859218762273 -5.4753286106886279 -7.1077887314139643 
4 2 -0.0000000245810512 0.0000000787558716 0.0000000156394184 4.4719388648589140 2.3828970100838389 2.3145269008097755 0.0000076349284378 3.6309986231556373 0.2267687655214728 0.0000001806356084 -17.6376414048415775 8.0681350780560610 0.5451872049477199 
5 2 0.0000001920598337 -0.0000001234971247 0.0000000640187698 3.3351609460736729 1.7788692357430165 2.7463108595021635 0.0000062872518574 3.6958337136405279 0.1741478735844767 -0.0000000547286790 -2.0912411859053179 -17.0561337777662949 -9.6799811597079763 
6 2 -0.0000001112487651 0.0000000817416073 -0.0000000371981850 2.0749037208128414 0.2724357553083689 1.5843779854740456 0.0000062225848963 3.7645059402673198 0.1965339239138441 -0.0000002402848090 19.7288830454606448 8.9880006786026865 9.1347965245455764 
