ITEM: TIMESTEP
0
ITEM: NUMBER OF ATOMS
600
ITEM: BOX BOUNDS pp pp pp
0.0000000000000000e+00 2.2660046948682201e+01
0.0000000000000000e+00 2.2660046948682201e+01
0.0000000000000000e+00 2.2660046948682201e+01
ITEM: ATOMS id type fx fy fz x y z rho_SPH width_SPH omega_SPH 
6 1 2.23716e-06 8.43209e-06 5.35819e-07 3.76922 3.40802 1.49151 4.80951e-05 3.3835 0.894884 
13 1 1.79889e-06 7.82464e-06 -2.89912e-06 3.52614 6.86599 8.45531 3.00751e-05 2.99851 0.80141 
16 1 1.99469e-06 8.04466e-06 3.71252e-06 7.41966 3.01396 2.80404 3.97753e-05 3.36419 0.904359 
18 1 -1.00751e-06 4.51983e-06 2.20281e-06 2.71587 7.16388 6.97923 2.97723e-05 2.97564 0.7997 
20 1 1.18673e-07 -2.64699e-06 -1.94677e-06 4.40914 0.0449887 6.10686 4.92884e-05 3.15738 0.899436 
35 1 2.37005e-06 1.90612e-06 9.84327e-07 1.97507 1.45425 4.15407 4.65635e-05 3.29618 0.890255 
40 1 2.68696e-06 1.30727e-05 5.32651e-06 3.37201 2.50269 4.37021 3.99547e-05 3.08916 0.826289 
44 1 -3.95378e-07 6.53926e-06 -2.43933e-06 5.52402 7.53476 8.03331 2.85703e-05 3.0571 0.871827 
46 1 2.52755e-06 1.00994e-05 -4.82655e-06 0.316759 2.93547 6.99769 3.21724e-05 3.21669 0.902581 
55 1 2.2213e-06 -3.23634e-06 -3.99834e-06 0.436767 0.218135 10.2283 6.36051e-05 4.12947 0.974973 
84 1 -9.79312e-07 1.48464e-06 3.60699e-06 1.52516 4.85245 3.56391 3.50013e-05 3.23014 0.839174 
86 1 5.54281e-06 1.66963e-05 -9.65977e-06 7.44545 1.62867 9.34039 5.04224e-05 3.02795 0.864076 
92 1 2.45788e-06 6.23865e-06 -2.35384e-06 1.34571 6.501 8.9149 2.93901e-05 3.10714 0.810137 
100 1 3.20278e-06 9.58989e-06 -4.06179e-06 1.77076 7.40249 10.2215 2.83935e-05 3.12243 0.835976 
101 1 -7.64522e-07 1.50346e-06 1.01049e-06 7.32386 7.50161 6.96775 2.73621e-05 3.09845 0.929748 
108 1 -2.37506e-05 -4.26825e-05 1.98891e-05 0.260208 2.8218 2.55383 4.60069e-05 3.73348 0.934951 
110 1 -8.00855e-07 4.73655e-06 2.22896e-06 1.26988 2.43857 7.81068 3.90459e-05 3.31751 0.876508 
113 1 2.62514e-06 4.78255e-06 3.98132e-09 3.20479 4.4658 1.22679 4.78477e-05 3.43711 0.90774 
114 1 2.90919e-06 2.06382e-06 3.01391e-07 3.02305 4.6823 4.71384 3.30731e-05 3.08661 0.813474 
115 1 4.794e-06 -1.63308e-06 -6.02673e-06 2.59894 0.782628 6.40548 4.32021e-05 3.12696 0.888672 
117 1 4.33021e-06 2.38208e-06 -3.63664e-06 3.25852 4.52182 8.33887 3.25493e-05 3.06505 0.823984 
121 1 1.50124e-05 5.60783e-05 2.15444e-05 5.40242 2.20733 3.52664 4.16179e-05 3.22909 0.868629 
133 1 6.58732e-07 4.98938e-06 2.18008e-06 1.57049 7.12693 7.06436 2.94282e-05 2.98668 0.790698 
140 1 1.13833e-06 3.24689e-06 1.58366e-06 6.04864 1.63327 0.917478 4.96641e-05 3.70331 0.932443 
141 1 -6.06152e-07 7.86648e-07 1.66778e-07 7.3189 6.77448 6.55903 2.77509e-05 3.11128 0.931663 
316 2 3.13964e-06 2.91579e-06 -1.07643e-06 7.06214 2.18303 8.29615 4.42682e-05 2.99172 0.842582 
326 2 -4.31993e-07 1.17397e-06 -7.86452e-07 7.5394 5.9984 1.66514 3.99868e-05 3.59447 0.949413 
328 2 3.24753e-06 3.17731e-06 2.91536e-06 5.90731 6.41649 2.23701 3.45563e-05 3.53684 0.931665 
330 2 1.31808e-06 2.13094e-06 -1.06496e-06 1.3186 4.72244 8.05192 3.14798e-05 3.14463 0.810578 
332 2 -1.30235e-07 1.5557e-05 8.54599e-06 2.80278 1.45701 6.57434 3.95878e-05 3.0514 0.861199 
334 2 7.76968e-07 -6.47836e-06 -2.75772e-06 3.12924 1.77193 4.55109 4.32332e-05 3.12114 0.849451 
339 2 -1.59173e-06 -5.5582e-06 2.44558e-06 1.65792 1.07478 1.4562 5.99867e-05 3.96601 0.953473 
341 2 1.44638e-06 4.2751e-06 1.01096e-06 0.172036 5.50311 6.651 2.86841e-05 3.16423 0.867597 
348 2 -2.54894e-07 1.52496e-05 -5.2918e-06 6.8023 1.2899 1.3635 4.85783e-05 3.6664 0.935826 
362 2 2.88924e-06 4.19995e-06 -1.81102e-07 3.23914 4.67376 1.37944 4.60023e-05 3.40996 0.901774 
365 2 2.73152e-06 2.51926e-06 -6.32998e-07 1.73436 5.38821 0.980047 4.7215e-05 3.63719 0.929324 
371 2 2.61417e-07 -4.42932e-06 -5.77248e-07 6.91238 0.692035 5.79373 5.04778e-05 3.10039 0.900153 
377 2 2.71491e-06 3.99402e-06 2.98177e-06 1.82438 7.34134 4.54772 3.01465e-05 3.08775 0.813643 
397 2 7.29917e-06 2.87733e-06 8.90563e-07 5.59381 1.83335 11.2796 4.7018e-05 3.21679 0.922839 
399 2 4.12417e-06 1.84003e-06 -2.99208e-06 3.20801 3.89415 8.30623 3.38313e-05 3.09231 0.833012 
400 2 -5.61977e-08 1.18117e-05 4.62893e-06 3.61723 0.819516 7.37987 4.01236e-05 3.05054 0.877516 
437 2 -2.98841e-06 3.96398e-06 6.18589e-06 6.61431 1.36655 7.37745 4.21594e-05 2.91936 0.838722 
439 2 2.2078e-06 -6.70306e-06 -1.5361e-06 7.44044 0.144676 7.09499 5.14897e-05 2.98216 0.87078 
7 1 -1.30194e-05 -4.02224e-06 2.54184e-05 8.26675 6.19986 9.17914 3.53313e-05 2.96981 0.865722 
15 1 5.51961e-08 1.46701e-07 -1.84303e-06 9.38346 6.8462 4.7783 2.76612e-05 3.28911 0.945436 
17 1 -2.89578e-06 1.10219e-05 -2.44698e-06 11.281 2.34737 0.0670919 6.57095e-05 3.69292 0.945072 
21 1 1.96612e-06 -2.21207e-06 -3.96098e-06 8.69686 5.65643 8.51325 3.3877e-05 2.96857 0.856609 
27 1 8.84131e-07 -1.31647e-05 1.09654e-05 10.7713 0.451504 8.72923 5.55947e-05 3.36609 0.930443 
29 1 2.18301e-06 -1.18615e-06 1.56237e-06 13.8427 1.47535 2.48152 5.39513e-05 3.41193 0.919778 
33 1 -2.2959e-06 1.56265e-06 -1.95887e-06 12.9465 2.00989 8.78913 3.95165e-05 3.34165 0.939667 
41 1 -8.14026e-07 5.35e-06 -5.74388e-07 11.0377 3.15204 0.0806266 6.69989e-05 3.63132 0.94332 
49 1 -3.89918e-06 -2.85364e-06 -5.20354e-07 10.4777 7.48069 9.22806 3.16749e-05 3.00207 0.876422 
51 1 1.93768e-06 -2.49388e-06 -1.72198e-06 13.1478 2.10777 4.19701 4.38113e-05 3.35723 0.929041 
62 1 2.10762e-07 7.69177e-08 -2.04299e-06 9.98731 6.46887 3.26218 3.23076e-05 3.38962 0.924805 
66 1 2.07953e-06 -2.80956e-06 -1.98171e-06 9.36316 3.68403 8.28701 3.67959e-05 3.03353 0.85708 
75 1 -7.0087e-06 1.67464e-05 1.18835e-05 7.60388 1.13706 7.13821 4.54598e-05 2.93588 0.851334 
81 1 -1.20531e-05 4.03571e-05 4.6706e-06 12.7956 2.78042 4.14472 3.99639e-05 3.30369 0.912834 
87 1 5.70782e-07 -2.31885e-06 1.96326e-06 14.8604 6.23775 1.10036 4.56933e-05 3.30832 0.894946 
88 1 3.77814e-06 -7.37553e-06 -7.52565e-06 14.5043 7.12358 8.65791 3.00155e-05 2.99088 0.858024 
89 1 9.34709e-07 -1.02484e-06 -1.33031e-06 13.7604 1.83009 3.9857 4.56388e-05 3.37255 0.931241 
106 1 -6.90191e-07 9.60799e-07 1.32128e-06 7.57928 6.67214 7.36271 2.90244e-05 3.02241 0.903125 
130 1 -5.27723e-06 -3.25732e-06 -3.78817e-06 11.7206 1.17463 11.2963 4.5953e-05 3.26205 0.931662 
138 1 -2.16907e-06 -5.91717e-06 -5.97206e-07 11.8191 4.23782 8.25802 3.20774e-05 3.16706 0.916448 
144 1 -2.39152e-05 -1.58057e-05 3.74481e-05 10.1078 2.42291 10.5829 4.37918e-05 3.10731 0.884953 
302 2 1.50745e-06 -4.31383e-06 -3.7263e-07 7.85061 0.0109835 6.79984 5.43045e-05 3.05082 0.89694 
306 2 -1.26301e-07 -4.53451e-06 -2.81633e-06 13.8063 6.30059 7.18426 2.91167e-05 3.0462 0.881584 
312 2 -8.52679e-08 -3.16712e-06 1.20764e-06 8.35184 5.7698 10.7773 3.97843e-05 3.04083 0.905764 
324 2 -1.59647e-06 -8.48431e-07 -1.19365e-06 14.4721 7.46994 3.6114 3.04278e-05 3.12515 0.842283 
340 2 1.57491e-06 -1.95613e-06 3.37919e-06 13.1492 5.41409 1.88684 4.41713e-05 3.26873 0.868464 
343 2 1.34941e-06 -5.10603e-06 -4.49511e-06 14.928 7.26189 7.48691 2.91578e-05 2.99106 0.847736 
353 2 6.20369e-07 -1.58083e-06 -2.84788e-06 12.6197 5.04064 5.41985 3.02222e-05 3.17983 0.892984 
368 2 2.98886e-07 9.74842e-07 -7.07136e-07 9.12438 7.42511 0.319068 4.858e-05 3.9632 0.969272 
379 2 3.12458e-07 -1.57897e-06 -2.24879e-06 14.0599 6.1677 5.05482 2.92341e-05 3.09718 0.8483 
384 2 -4.97446e-07 3.65956e-06 2.37353e-07 9.27198 3.88955 0.551164 5.76468e-05 3.61217 0.945825 
389 2 -2.06411e-06 -3.99137e-06 -9.29849e-07 10.0498 6.58473 8.99224 3.22392e-05 2.98802 0.87445 
392 2 4.72846e-06 -1.65024e-05 -3.4714e-06 8.37987 1.25117 6.80398 4.60831e-05 3.01634 0.88575 
394 2 -1.14576e-05 -7.79412e-06 -3.62539e-06 14.938 1.30684 10.9836 4.1547e-05 3.38514 0.955243 
406 2 1.5836e-06 -6.08896e-06 5.43899e-07 10.7832 0.320263 9.45505 5.68155e-05 3.36266 0.933534 
424 2 4.30228e-06 -2.53471e-06 -4.62408e-06 8.48293 4.17892 8.15144 3.61267e-05 3.00966 0.851609 
428 2 4.91691e-06 4.27153e-06 -2.60921e-06 8.47331 0.107719 10.8323 6.81822e-05 3.41172 0.948407 
443 2 -2.18094e-06 8.61408e-06 -6.19361e-07 11.2095 2.73742 0.901286 5.92895e-05 3.50443 0.927271 
453 2 1.60413e-05 -4.28381e-06 5.33645e-06 8.54224 1.72224 2.28831 4.71935e-05 3.53348 0.932973 
3 1 -8.48587e-06 -1.09376e-05 -5.68898e-06 17.1049 2.50511 8.07178 3.76108e-05 3.42139 0.927575 
34 1 -2.06827e-06 3.25001e-06 -3.61392e-06 15.4383 1.08362 4.72076 4.82449e-05 3.59516 0.96591 
61 1 -3.47452e-06 5.10384e-06 -5.26625e-06 21.0162 4.24136 7.97119 2.91894e-05 3.56702 0.912878 
67 1 7.20362e-06 -1.08146e-05 -1.4173e-05 16.1582 6.75162 9.41056 2.95224e-05 3.04983 0.863994 
73 1 -5.70633e-07 -1.86165e-06 -4.26594e-07 15.4515 6.99844 1.93651 3.76657e-05 3.26341 0.887046 
77 1 1.17165e-06 2.31778e-07 -3.35488e-06 21.7609 5.30517 1.33498 4.27929e-05 3.4626 0.921654 
78 1 -1.66584e-06 5.23448e-06 -4.88694e-06 17.2712 4.6304 1.17846 4.86835e-05 3.41288 0.915226 
95 1 -4.04851e-06 1.21274e-07 -4.40236e-06 15.9794 1.71587 1.88292 5.7802e-05 3.4397 0.917865 
97 1 -4.90975e-07 5.49944e-07 6.59478e-07 20.5567 6.28069 4.76176 2.74718e-05 3.29507 0.930448 
102 1 -1.75212e-06 -2.13441e-06 3.13597e-06 20.663 6.84251 3.28756 3.07948e-05 3.31734 0.911585 
105 1 1.87163e-06 -1.96929e-06 -3.77992e-06 16.8368 7.14797 6.57 2.64371e-05 3.16037 0.918502 
129 1 -7.02853e-06 -7.94021e-06 -8.30264e-06 16.1031 0.611422 0.256934 7.91679e-05 3.93377 0.96191 
131 1 -1.68053e-06 5.05785e-06 -2.04211e-06 15.3198 4.04832 0.23412 6.35054e-05 3.43719 0.915086 
303 2 -1.73017e-06 2.01608e-06 -2.15518e-06 15.2355 6.15572 0.151402 5.45851e-05 3.51126 0.927141 
307 2 -3.94949e-05 -4.33825e-05 -6.23375e-06 16.427 2.30553 9.68062 4.09299e-05 3.34054 0.935358 
318 2 1.15456e-05 -6.08105e-06 2.73215e-05 16.3911 3.20026 2.02313 4.73389e-05 3.31168 0.882869 
327 2 -7.5224e-06 1.81296e-05 -2.22404e-05 20.4277 0.151113 5.30736 5.11814e-05 3.75821 0.977239 
336 2 1.1502e-05 -1.36373e-05 -2.02756e-05 17.2376 6.75742 10.6885 2.88631e-05 3.11419 0.897153 
352 2 -9.27582e-06 -5.62607e-06 -1.59098e-05 19.4812 2.25409 9.76546 4.03966e-05 3.33451 0.911995 
354 2 -4.86431e-06 2.00757e-05 -9.14618e-06 19.4209 2.80572 5.73199 3.30054e-05 3.47638 0.955084 
360 2 4.04867e-06 -6.43552e-06 -9.24658e-06 15.4423 3.69099 8.86538 3.37846e-05 3.2885 0.926404 
415 2 -4.83245e-06 -7.07493e-06 -6.80317e-06 15.1485 0.723548 0.0857285 7.5258e-05 3.88685 0.95615 
417 2 1.26737e-05 -6.4343e-06 -1.86881e-05 18.2192 7.18658 10.2085 2.68625e-05 3.16377 0.906261 
421 2 -2.26051e-06 -3.22953e-06 3.95018e-06 21.594 4.96262 0.637595 4.89057e-05 3.63164 0.939628 
426 2 2.67449e-07 1.6162e-05 -5.68976e-06 17.7546 3.57439 1.24663 5.28861e-05 3.47422 0.925162 
431 2 -1.45885e-06 -1.22643e-07 -7.51689e-06 18.05 1.12105 9.05196 4.99354e-05 3.51932 0.947678 
433 2 -1.41484e-05 1.55507e-06 2.71665e-05 19.9339 3.89476 2.18302 4.10626e-05 3.48545 0.930512 
435 2 -5.62649e-07 -9.76374e-06 -6.97851e-06 21.0254 0.0538732 9.94684 6.05634e-05 3.73465 0.960183 
436 2 -1.62874e-05 -1.68154e-06 1.0407e-05 21.0163 1.79007 3.60076 4.71205e-05 3.57967 0.94977 
440 2 6.46254e-06 -1.19984e-05 -1.47471e-05 17.3717 5.23788 9.89168 2.93598e-05 3.18386 0.903007 
22 1 1.43606e-06 2.75046e-06 6.95541e-06 1.63926 11.1847 2.44452 3.35992e-05 3.39238 0.865713 
31 1 -1.9969e-05 -9.41937e-06 1.58582e-05 2.38422 11.8048 8.86884 2.40671e-05 3.58143 0.922069 
36 1 -1.41666e-06 -4.62435e-06 -4.91291e-07 5.43723 12.8566 9.3791 2.30391e-05 3.36791 0.960885 
38 1 -1.30626e-06 7.47805e-07 -9.07365e-08 7.54241 11.8443 3.47987 2.54039e-05 3.41727 0.921561 
39 1 1.42509e-06 3.29922e-06 1.44053e-06 2.78993 7.96372 4.62151 2.85226e-05 3.16538 0.814206 
63 1 1.19106e-06 -2.01317e-06 2.83206e-06 3.5682 13.9408 3.70548 2.64584e-05 3.35584 0.875853 
64 1 6.97615e-07 2.95167e-06 1.90866e-06 2.48853 8.7411 4.27259 2.83792e-05 3.21814 0.82614 
69 1 7.55309e-07 3.05096e-06 4.66404e-06 0.138206 7.79117 4.55258 2.88401e-05 3.4268 0.874093 
79 1 -9.36595e-07 1.22045e-06 -4.81605e-08 6.0798 11.1425 4.06883 2.42383e-05 3.44539 0.923616 
80 1 5.24161e-06 1.09043e-05 -6.3464e-06 3.64942 8.49946 8.76095 3.14596e-05 3.14717 0.839252 
90 1 -2.57521e-07 3.72298e-06 1.11137e-05 0.0692933 10.028 2.49049 3.50317e-05 3.59414 0.90948 
93 1 -1.10361e-06 -1.16791e-06 1.42822e-06 7.04474 14.6885 3.36632 2.8248e-05 3.24855 0.859872 
98 1 -7.98222e-07 1.04885e-06 2.4901e-06 6.88517 8.4132 11.2365 4.26851e-05 3.31002 0.958495 
112 1 2.03592e-07 9.51109e-07 -3.14729e-06 1.58259 8.65939 11.0861 3.60884e-05 3.47073 0.929284 
116 1 6.42842e-06 4.78738e-06 -1.74909e-06 1.31763 7.85057 9.79178 3.45674e-05 3.32836 0.882678 
128 1 2.23979e-05 -3.29916e-05 -1.0717e-05 0.153107 14.7872 11.0422 2.62986e-05 3.45663 0.930554 
301 2 8.06235e-06 9.7626e-08 -9.45085e-06 0.166619 10.3213 10.6959 3.50172e-05 3.74262 0.955502 
304 2 -1.32818e-06 -4.80803e-06 -7.53091e-07 5.91004 12.3208 10.0445 2.43163e-05 3.2971 0.936961 
310 2 3.85968e-06 -2.6524e-06 3.84818e-06 3.14595 14.4131 0.197908 4.51905e-05 3.72722 0.922278 
315 2 -4.76111e-07 2.63319e-06 1.07399e-06 2.26257 9.37966 5.23591 2.6834e-05 3.26372 0.85418 
351 2 -6.8376e-07 -3.54753e-06 -1.29768e-05 3.5279 10.8468 0.945593 3.8108e-05 3.58496 0.897458 
367 2 1.87224e-06 3.42775e-06 -3.22237e-06 4.88055 9.76052 9.10308 2.84719e-05 3.25764 0.896097 
376 2 4.00902e-06 8.04432e-07 -8.32273e-07 2.13892 9.49103 0.774712 4.19571e-05 3.63478 0.910306 
381 2 6.32683e-07 -6.23325e-07 -2.0497e-06 5.97486 12.4203 0.390267 4.27419e-05 3.75392 0.936187 
390 2 -2.30546e-07 -5.36714e-06 1.48866e-06 4.27317 10.1592 11.2395 3.02021e-05 3.34012 0.919826 
401 2 5.18525e-07 -4.71026e-07 2.84044e-06 3.65318 12.99 3.45828 2.69034e-05 3.34851 0.860587 
405 2 8.67064e-06 -2.63716e-06 5.95449e-06 0.329183 14.1654 3.84681 2.96804e-05 3.59238 0.927044 
416 2 -1.03052e-06 -6.14243e-07 1.29073e-06 6.42608 13.4699 3.11314 2.73202e-05 3.28966 0.863584 
420 2 -9.37715e-06 -6.39227e-07 -1.32359e-05 1.02911 10.6044 0.49647 4.65226e-05 3.7474 0.927314 
425 2 -4.19496e-07 -8.516e-07 3.35044e-06 5.68231 13.7475 1.61041 3.4634e-05 3.36414 0.874419 
448 2 8.12653e-08 4.06588e-06 1.33147e-05 0.267611 10.2951 2.2736 3.6126e-05 3.56585 0.906911 
1 1 -6.47868e-07 -1.62966e-06 1.24265e-06 12.601 9.23763 1.42524 3.66259e-05 3.57861 0.943079 
2 1 1.29759e-06 -3.64418e-06 8.83453e-07 8.73693 12.8399 11.1208 3.39933e-05 3.3298 0.957471 
5 1 4.31563e-07 1.44801e-06 4.59434e-07 12.5339 12.606 5.4168 2.78831e-05 3.1279 0.890765 
8 1 -4.14934e-07 1.21391e-06 3.07978e-07 8.79848 12.0985 5.95306 2.39473e-05 3.30695 0.954734 
23 1 -7.61651e-06 2.32076e-07 -2.95078e-07 13.1877 9.82447 11.2312 3.46063e-05 2.90127 0.786148 
25 1 2.60689e-07 -1.10739e-07 3.46603e-06 10.9243 12.1531 9.18469 2.84864e-05 3.14275 0.900103 
32 1 -2.98811e-07 -2.58184e-07 -3.94678e-07 11.2493 9.66493 3.78888 2.71902e-05 3.29084 0.913036 
37 1 -2.55496e-07 -2.02135e-06 2.80558e-06 9.00543 10.8219 8.64737 2.84764e-05 3.26286 0.918829 
42 1 -6.21501e-06 2.3017e-06 2.33243e-06 12.4029 10.6357 10.961 3.31938e-05 2.92133 0.792618 
59 1 -4.25162e-07 4.70373e-07 1.60563e-06 11.136 13.3165 3.2856 3.04634e-05 3.28082 0.899181 
76 1 -7.03861e-07 -7.72343e-07 -5.43731e-08 14.4731 8.29619 1.88557 3.60547e-05 3.32753 0.909451 
119 1 9.72066e-07 1.52005e-06 2.48352e-06 14.7235 13.4811 3.89407 3.39134e-05 3.10339 0.869276 
135 1 7.23027e-07 1.29762e-07 -5.22488e-07 13.7083 10.0963 4.84583 2.81426e-05 3.14776 0.882944 
136 1 -3.33653e-07 1.01454e-06 6.01702e-07 10.4127 12.5687 4.74058 2.60865e-05 3.21767 0.907579 
143 1 -2.23447e-06 2.62474e-06 1.93291e-06 8.50242 8.056 8.27917 3.19522e-05 3.08308 0.880016 
305 2 1.40866e-07 -9.50709e-07 -1.46081e-06 12.8011 8.09295 6.0581 2.86427e-05 3.06177 0.860376 
342 2 2.24046e-06 -2.81951e-06 -6.00228e-06 14.5475 8.52523 8.42541 3.08388e-05 2.97075 0.808033 
358 2 1.83396e-07 -8.72927e-07 -1.42428e-06 13.2766 7.85016 5.37173 2.87295e-05 3.05495 0.845134 
363 2 3.1121e-06 -6.52352e-07 1.46752e-06 9.78541 14.4525 7.7896 2.62986e-05 3.26563 0.955734 
366 2 2.85165e-06 5.92239e-07 2.47849e-06 11.3029 13.8237 9.91483 2.741e-05 3.19364 0.936027 
370 2 -3.20417e-07 2.38794e-07 -9.91351e-08 11.2899 10.257 3.78032 2.70375e-05 3.29166 0.914287 
404 2 2.23798e-07 5.03926e-07 2.70438e-06 11.5978 14.7258 3.25819 3.3255e-05 3.20385 0.877246 
409 2 -1.16331e-06 5.85528e-06 1.51699e-06 13.15 11.9806 10.5602 2.93701e-05 3.0157 0.846131 
430 2 1.38584e-06 3.07124e-06 2.0583e-06 11.9992 13.4118 11.0054 2.77261e-05 3.14171 0.911646 
455 2 1.49798e-06 1.55399e-06 -2.44529e-08 14.5732 12.3087 5.48641 2.86835e-05 3.14185 0.907795 
449 2 5.34987e-07 1.29036e-06 3.73614e-07 11.36 13.7154 6.339 2.66394e-05 3.15724 0.920177 
450 2 2.72403e-06 2.72765e-07 -5.71271e-06 14.4551 10.2546 9.35704 3.02708e-05 2.99416 0.834854 
549 2 -9.20641e-06 -2.31459e-06 -6.22535e-07 13.0833 9.39029 11.312 3.56047e-05 2.91592 0.800333 
9 1 8.23132e-07 -1.72697e-06 1.68124e-06 19.692 13.8831 5.03627 3.0661e-05 3.05348 0.851747 
10 1 1.063e-06 -3.18929e-07 6.09633e-06 19.7118 12.9004 3.74169 3.62071e-05 2.95567 0.793243 
14 1 1.21767e-05 4.00648e-06 -1.47604e-05 19.4811 9.56342 10.0003 2.62636e-05 3.33832 0.901756 
28 1 3.52554e-06 1.41377e-06 -2.0669e-06 18.3198 13.936 7.8256 2.604e-05 3.28226 0.941716 
47 1 2.15523e-06 4.06972e-06 -7.0258e-06 15.5005 10.692 9.3714 3.48745e-05 3.19586 0.91748 
48 1 -2.86906e-07 3.18753e-06 3.60842e-06 21.2288 10.48 4.51397 2.96717e-05 3.14185 0.842283 
54 1 -2.2952e-06 1.90202e-07 -3.39424e-07 17.523 10.4503 0.272784 5.69881e-05 3.76867 0.958319 
68 1 4.70151e-06 -3.05978e-06 -6.00994e-06 16.868 8.18281 7.48763 2.69368e-05 3.09449 0.892953 
126 1 -7.79848e-06 -5.92207e-06 -2.89894e-05 17.9964 14.5433 1.86842 4.92566e-05 3.02757 0.850985 
132 1 1.0753e-06 1.67203e-06 1.39456e-05 19.9103 11.6308 2.67987 4.13414e-05 3.017 0.822678 
137 1 8.88336e-07 1.98685e-06 1.33794e-05 21.9906 12.0601 2.23954 4.26962e-05 2.95957 0.770483 
148 1 2.01685e-06 1.76179e-06 9.26886e-07 19.0144 9.34298 4.5886 2.82656e-05 3.29059 0.91943 
150 1 4.2566e-06 2.16151e-06 1.94923e-05 22.2877 12.8112 1.80425 4.53811e-05 2.99353 0.795774 
333 2 2.17056e-07 4.532e-06 -2.50982e-06 22.2592 8.44435 7.40649 2.55177e-05 3.3725 0.927538 
335 2 1.01063e-06 -7.1859e-07 4.77314e-06 17.9387 14.2035 3.27167 3.92244e-05 2.9592 0.812544 
457 2 6.81067e-07 2.86012e-07 3.16045e-07 16.5267 8.91723 3.59167 3.05441e-05 3.29545 0.914602 
347 2 -3.13239e-06 -2.08905e-06 -2.48355e-06 21.1948 14.5906 1.2013 5.10755e-05 3.0949 0.864304 
369 2 -1.99385e-06 -1.41014e-06 -7.4366e-08 19.5027 14.4795 0.143992 6.38531e-05 3.31292 0.923694 
382 2 -2.54501e-06 -6.56867e-07 -4.61191e-07 19.3387 11.5632 1.24387 5.36218e-05 3.23244 0.901908 
387 2 5.43429e-08 1.54648e-06 2.08009e-06 22.1748 12.162 5.06749 2.79439e-05 3.1708 0.859155 
402 2 2.46512e-06 1.87595e-06 -9.33479e-07 15.6987 12.6796 6.30604 2.78042e-05 3.17508 0.933468 
403 2 2.36913e-06 9.70249e-07 1.56586e-05 21.3894 13.0215 2.39731 4.37262e-05 2.91965 0.768051 
418 2 2.30356e-07 -3.6055e-06 1.24937e-05 18.2411 14.5283 2.3552 4.5385e-05 2.97452 0.824895 
446 2 1.2092e-05 -1.48028e-06 -1.29983e-05 17.2058 9.25292 9.22919 3.02542e-05 3.16976 0.872062 
447 2 1.40966e-06 -8.47959e-07 1.00055e-05 18.98 13.4839 2.81891 4.28006e-05 2.93787 0.801548 
452 2 5.03673e-06 1.50144e-06 -4.34538e-06 19.1038 9.7455 6.80705 2.51163e-05 3.31534 0.966506 
19 1 -1.209e-06 -6.61542e-06 2.48993e-06 3.18149 18.5733 4.6612 2.73359e-05 3.30497 0.898911 
24 1 -1.86716e-06 -4.70148e-06 8.7591e-06 5.49638 15.8736 1.30058 3.89479e-05 3.41296 0.88585 
43 1 -2.7147e-06 -7.15669e-06 1.009e-06 3.59348 19.4606 2.84849 3.11003e-05 3.37316 0.883244 
71 1 2.65151e-06 -7.53799e-06 -3.26057e-06 0.86574 21.2609 0.787577 4.81551e-05 3.91203 0.959107 
85 1 -1.03346e-06 -1.20665e-05 -3.45507e-06 4.88519 22.2518 0.58398 4.13554e-05 3.6256 0.930912 
99 1 8.4395e-07 -9.10321e-07 -4.97281e-07 5.81574 17.7876 0.244213 4.74594e-05 3.73951 0.94559 
111 1 1.59961e-05 -1.18523e-05 -1.28383e-05 0.249566 20.5912 2.35562 3.56944e-05 3.74868 0.946406 
118 1 4.34112e-07 1.07924e-06 -6.49985e-06 7.34469 20.9976 10.1335 4.15464e-05 2.9752 0.856734 
120 1 1.62799e-07 -3.46677e-06 -6.9261e-07 7.4563 19.1997 7.05425 3.07294e-05 3.00037 0.872146 
309 2 -6.36207e-06 -1.12346e-06 -5.89807e-06 4.19025 20.2867 8.62919 3.9745e-05 3.26591 0.90855 
317 2 5.10111e-07 -3.63393e-06 4.18377e-06 3.43573 16.1927 2.58524 3.06805e-05 3.44864 0.869595 
321 2 5.09416e-06 -4.40523e-06 1.87531e-05 1.4208 15.1303 2.40299 3.2841e-05 3.75419 0.910225 
329 2 -7.65006e-06 -9.96586e-06 -6.88772e-06 3.39174 17.115 10.5409 3.12219e-05 3.48458 0.932961 
344 2 -2.43832e-06 -8.69018e-07 -2.67614e-06 6.02822 20.6193 9.27534 4.2741e-05 3.08717 0.892171 
345 2 -1.13675e-05 -7.84392e-06 5.86772e-06 0.0077108 22.3165 3.43926 3.31025e-05 3.4388 0.911857 
349 2 -3.20018e-06 -8.81323e-06 -2.94333e-06 4.9777 21.0629 2.55553 3.25704e-05 3.28748 0.876221 
350 2 -2.13553e-07 -2.09126e-06 1.15013e-06 6.92081 16.5801 4.97641 2.66295e-05 3.20906 0.878309 
355 2 9.26293e-07 -5.79756e-06 1.05869e-06 1.98742 18.7909 4.93223 2.74321e-05 3.3963 0.929237 
357 2 -1.22334e-06 -7.19775e-06 -2.05824e-06 1.94736 20.6253 7.67886 4.00101e-05 3.52175 0.931853 
364 2 -3.60967e-06 -4.18234e-06 -5.60953e-06 5.20529 16.3335 10.2992 3.21074e-05 3.44328 0.945384 
373 2 1.37271e-06 -4.17379e-06 -2.11107e-06 3.02382 17.6897 6.48448 2.53453e-05 3.39706 0.965918 
393 2 1.43928e-06 -8.64939e-06 8.76905e-07 5.87407 20.0943 10.9582 3.41268e-05 3.04546 0.853603 
398 2 3.90851e-06 -8.8293e-08 -5.91522e-06 7.44466 17.1512 10.9147 3.20819e-05 3.32084 0.935093 
414 2 -2.5046e-06 -1.75259e-05 -1.08121e-05 1.22911 20.6568 10.4463 3.74957e-05 3.33834 0.911211 
427 2 -5.69339e-06 -1.05419e-05 -5.92233e-07 3.15392 21.7217 4.7402 3.1385e-05 3.06325 0.837217 
444 2 -1.19062e-06 -6.69786e-06 -1.37031e-06 2.9889 19.9261 6.01581 2.87414e-05 3.16873 0.903466 
445 2 -9.26729e-07 -1.78707e-05 -1.64054e-05 0.36137 21.6176 10.254 3.98923e-05 3.36086 0.923731 
451 2 -4.15018e-06 -5.18996e-06 -4.64836e-06 4.30545 16.9874 9.55805 2.92388e-05 3.43792 0.927011 
454 2 8.69878e-07 -6.59034e-07 -6.57545e-07 6.87405 16.8044 0.389967 4.74355e-05 3.63899 0.941323 
4 1 -3.53e-07 -1.00284e-06 -1.23741e-06 13.386 15.7489 0.440494 5.73739e-05 3.47889 0.95049 
12 1 1.27973e-05 2.27302e-06 -8.98883e-06 7.79986 21.5367 9.25055 5.34569e-05 3.05759 0.892024 
45 1 -7.53806e-06 -8.26583e-06 -2.6786e-05 13.9293 16.0224 1.71999 4.7124e-05 3.15607 0.892181 
50 1 2.72587e-06 -4.18127e-06 2.55835e-06 11.7743 21.5929 2.1651 3.62601e-05 3.21816 0.907682 
52 1 4.70787e-06 -1.70396e-06 -1.62961e-06 11.1672 19.1995 9.95743 2.96829e-05 3.14219 0.898244 
56 1 4.51762e-07 -1.55578e-06 2.81058e-06 13.2893 16.6606 4.32964 3.19241e-05 3.05627 0.861045 
58 1 7.33168e-07 5.69523e-07 6.52845e-07 14.273 15.2265 6.03485 2.90339e-05 3.07101 0.889212 
60 1 -2.35111e-06 -6.09947e-06 -5.76163e-06 14.4055 16.5474 10.7827 2.81679e-05 3.2792 0.954136 
70 1 -2.03864e-07 -6.02737e-06 1.52814e-06 8.20794 19.4026 6.21253 3.13764e-05 2.96469 0.850856 
72 1 5.26885e-06 -2.46552e-06 1.8263e-06 14.2008 21.2526 5.07573 2.8767e-05 3.12442 0.93727 
82 1 5.69409e-07 -1.16906e-06 -1.47752e-07 13.0247 15.5896 7.93019 2.73801e-05 3.23335 0.921824 
83 1 3.01793e-06 -1.92015e-06 -7.37921e-07 10.8536 17.7123 9.52731 2.85082e-05 3.23437 0.92678 
96 1 4.49849e-06 -2.10733e-06 -2.6184e-06 11.5075 19.3426 10.2094 2.92694e-05 3.14569 0.904659 
104 1 2.84205e-06 -4.03277e-06 1.16343e-06 10.1955 20.2277 4.03954 3.20923e-05 3.06652 0.881753 
107 1 1.59036e-07 -2.23416e-06 1.4596e-06 8.09126 17.0918 3.95397 2.97327e-05 3.12715 0.85343 
124 1 2.67664e-06 -4.21638e-06 2.81097e-06 11.8882 21.5702 2.01993 3.68268e-05 3.23251 0.908879 
142 1 1.32851e-06 -1.41189e-06 2.10113e-06 13.4968 18.0361 4.55563 3.05106e-05 3.11413 0.898117 
149 1 3.32645e-07 -4.69556e-06 1.7626e-06 8.93583 19.1708 3.42446 3.2702e-05 3.08927 0.872265 
308 2 8.12114e-06 -1.2847e-06 -1.8504e-06 13.102 21.696 6.89866 2.84408e-05 3.12463 0.964945 
311 2 1.18462e-05 -8.16612e-06 -7.27241e-07 9.08261 20.5788 11.3156 3.7098e-05 3.06512 0.868693 
314 2 5.77872e-07 -1.53999e-06 3.1384e-06 13.4573 16.8395 3.96178 3.29748e-05 3.05183 0.855357 
322 2 3.06789e-06 -3.21088e-06 4.05903e-06 13.1035 20.4902 1.83496 3.72561e-05 3.26346 0.902986 
325 2 4.69803e-07 -5.63361e-06 1.90137e-06 8.31119 19.4134 4.90664 3.13464e-05 2.9846 0.843155 
372 2 9.20718e-06 -4.90113e-06 -2.65341e-06 10.8585 22.1083 7.03779 3.15834e-05 3.00899 0.902361 
374 2 6.37943e-07 -4.4626e-06 1.98346e-06 8.85438 18.6877 2.88604 3.39038e-05 3.16022 0.886562 
375 2 3.97591e-06 -2.52888e-06 2.57941e-06 9.40004 18.9603 8.4039 3.37703e-05 3.10677 0.877457 
380 2 4.4174e-06 7.35948e-07 -2.03857e-06 14.5627 20.8694 7.03163 2.74658e-05 3.15349 0.983964 
395 2 1.12894e-06 -2.68485e-06 3.70279e-06 14.9293 22.3225 0.167757 5.30557e-05 3.31898 0.914555 
396 2 1.26898e-06 -7.53753e-06 -1.21238e-06 7.75731 21.4377 5.3118 3.36361e-05 2.91167 0.821589 
407 2 8.8066e-08 2.87912e-07 -4.79702e-07 7.77632 15.1081 6.84538 2.41325e-05 3.31308 0.960618 
408 2 1.91678e-06 8.99887e-07 -4.66216e-06 9.5072 16.5092 1.42443 4.09251e-05 3.47878 0.924747 
456 2 -4.59431e-07 -1.1759e-06 -1.54058e-06 13.6063 15.7594 0.653704 5.60572e-05 3.40096 0.941948 
411 2 1.54419e-06 -6.81785e-06 -4.48661e-06 7.61652 22.1102 3.88933 3.25678e-05 3.03963 0.860405 
413 2 -1.72848e-06 -1.94703e-06 -2.74857e-06 14.762 16.1199 1.05283 5.23627e-05 3.22576 0.911684 
419 2 1.22503e-07 -3.53038e-06 3.08383e-06 9.49264 17.9145 4.06515 3.104e-05 3.08677 0.870888 
434 2 1.639e-06 -8.38381e-07 1.7066e-06 9.2056 18.0767 7.65645 3.10722e-05 3.14678 0.88291 
442 2 4.97261e-06 -3.76159e-06 -3.72016e-07 11.1409 22.5367 4.01841 3.17614e-05 3.10213 0.900987 
11 1 -2.58996e-06 6.27656e-06 9.9468e-07 20.0688 20.7917 2.4346 3.59395e-05 3.22891 0.915051 
26 1 -6.52172e-07 -2.03143e-06 3.26572e-06 15.8165 16.0753 4.03968 3.43111e-05 2.9751 0.816819 
30 1 -5.96674e-07 -1.05182e-06 4.13198e-06 16.806 16.4937 2.52616 4.00139e-05 3.03241 0.837826 
53 1 4.31388e-07 9.99133e-08 1.34549e-06 15.6536 15.379 4.90317 3.20201e-05 2.99518 0.833966 
57 1 -7.44018e-07 -9.44553e-07 4.1107e-07 17.6665 18.331 4.77278 2.97423e-05 3.17373 0.918689 
65 1 5.6099e-07 -5.48464e-06 3.43216e-07 20.9783 17.0688 5.94588 2.80838e-05 3.10108 0.888466 
74 1 -2.08022e-06 -1.07319e-06 2.34763e-07 21.4489 15.3277 0.648747 5.17454e-05 3.40007 0.910437 
91 1 1.64132e-07 -7.91586e-07 -1.70937e-06 15.2471 17.5255 7.52969 2.74542e-05 3.15432 0.95766 
94 1 2.67736e-05 -6.61835e-06 -1.02956e-05 20.8656 15.5353 10.6134 2.96706e-05 3.35496 0.913224 
103 1 1.07371e-06 -1.03622e-05 -2.74661e-06 21.0443 19.5003 8.57673 3.11819e-05 3.12434 0.842564 
109 1 -1.65752e-06 -4.48556e-06 -7.91001e-07 21.586 17.8909 5.79773 2.90423e-05 3.09861 0.90179 
122 1 -1.84568e-06 -2.18031e-06 -3.45124e-06 21.0573 19.5715 6.35154 2.85103e-05 3.1 0.924592 
123 1 -6.55907e-08 1.91374e-06 8.33905e-06 16.5778 16.8599 1.74561 4.3848e-05 3.11681 0.865439 
125 1 -5.60343e-06 -5.5058e-06 -7.98357e-06 17.6041 19.5042 10.3757 3.25803e-05 3.03298 0.850279 
127 1 1.7436e-06 -1.5555e-07 2.22181e-06 16.5602 20.5554 3.25728 3.20965e-05 3.18521 0.901599 
134 1 4.12155e-06 -2.09138e-06 -1.88635e-07 15.7679 22.0571 6.26795 2.73268e-05 3.15518 0.979418 
139 1 -2.67474e-06 -7.2951e-07 -1.34317e-06 17.8411 17.2153 0.0965804 5.64706e-05 3.4961 0.934476 
145 1 1.47499e-06 6.07877e-06 1.43326e-05 17.8798 21.5166 0.534727 5.39075e-05 3.30195 0.927455 
146 1 -2.33285e-06 1.53233e-07 -4.33625e-07 16.9134 16.7682 8.91428 2.90717e-05 3.10134 0.871695 
147 1 1.00891e-05 -4.43064e-06 -3.96272e-06 21.3136 15.2789 9.63221 3.3917e-05 3.42277 0.929444 
313 2 -3.57731e-06 -1.88662e-07 -2.81996e-06 16.7004 15.4352 10.494 2.97534e-05 3.26395 0.919422 
319 2 8.56376e-07 7.30032e-06 1.47572e-05 18.119 21.5513 0.578342 5.37897e-05 3.30812 0.929039 
320 2 9.70059e-07 3.49438e-07 4.45713e-06 15.7298 19.9852 1.30483 4.09014e-05 3.26341 0.89701 
323 2 -8.73724e-06 -1.16579e-05 -4.37159e-06 20.0142 18.112 11.1025 3.3344e-05 2.9631 0.782966 
331 2 -1.38587e-05 -1.40096e-05 -2.6291e-05 17.4971 22.5255 10.0438 3.16906e-05 3.06379 0.871883 
338 2 -1.04059e-05 8.026e-08 -4.97295e-06 21.1712 22.2022 4.11533 3.04246e-05 3.15253 0.911644 
346 2 4.58824e-06 -5.18761e-06 5.34659e-06 21.7627 15.7416 0.902106 5.24844e-05 3.43243 0.917028 
356 2 2.19193e-06 8.67953e-07 -3.3972e-06 15.6579 21.1831 7.51318 2.73422e-05 3.1515 0.984949 
359 2 -3.00481e-06 -3.47034e-06 -4.25646e-06 21.4642 16.5501 6.15224 2.9516e-05 3.13207 0.903165 
361 2 -1.29071e-06 -8.51607e-07 -1.02749e-06 18.0374 15.1588 5.6237 3.05021e-05 3.07168 0.867761 
378 2 -2.99687e-06 9.91594e-07 -1.3566e-06 16.9991 15.6016 9.91218 2.90443e-05 3.20192 0.90363 
383 2 -8.85128e-06 -2.16808e-05 -1.94023e-05 22.4736 22.5954 9.97675 3.64504e-05 3.07614 0.892007 
385 2 -5.75506e-06 -5.0466e-06 -6.8689e-06 18.9173 22.3339 6.59864 2.71771e-05 3.20037 0.979075 
386 2 -3.44442e-06 6.80821e-06 2.48909e-06 20.0738 20.4356 2.20955 3.70701e-05 3.2571 0.918842 
388 2 2.60214e-05 8.06975e-05 -7.35737e-05 21.1589 21.3441 0.815887 5.0667e-05 3.45543 0.952931 
391 2 1.72828e-06 2.66281e-06 8.90178e-06 17.7296 22.07 0.426622 5.73348e-05 3.30059 0.928097 
412 2 -2.62985e-06 -5.4688e-06 -1.62825e-06 22.0766 19.2636 6.51189 2.86269e-05 3.07861 0.911173 
422 2 -3.53025e-06 -1.36712e-07 -1.63476e-06 21.6869 16.015 8.24836 3.2235e-05 3.3118 0.893433 
423 2 -1.24221e-05 -8.62296e-06 -1.50728e-05 17.9391 22.079 9.62753 3.18732e-05 3.0712 0.868309 
429 2 -2.89977e-06 -4.09428e-06 -4.13371e-06 22.3186 17.1168 6.64478 2.83477e-05 3.13483 0.919297 
432 2 -3.25216e-06 -1.42181e-06 -1.49256e-06 17.2287 17.9659 9.40715 3.05466e-05 3.05943 0.851818 
438 2 -3.20616e-06 -1.73142e-06 2.23745e-07 18.5854 17.5817 8.08472 2.98166e-05 3.09003 0.845386 
163 1 -2.01475e-06 -6.73249e-06 7.46568e-06 1.39873 1.75654 15.4897 4.93279e-05 3.56463 0.90732 
164 1 -4.92955e-06 -1.98613e-05 5.09645e-06 0.87594 2.02725 16.9574 4.5043e-05 3.55969 0.914397 
173 1 4.33542e-07 3.18056e-06 3.40593e-06 3.39448 3.87017 15.3294 3.53861e-05 3.07859 0.761554 
174 1 1.03669e-06 2.33578e-06 1.45966e-07 5.54128 6.59325 20.5594 2.58009e-05 3.21817 0.917274 
185 1 9.81604e-06 1.23506e-06 4.63009e-06 6.88327 3.78231 12.2542 4.36518e-05 3.20777 0.887791 
193 1 -7.47222e-07 1.30183e-06 1.14189e-06 5.60588 4.2751 15.3601 3.28743e-05 3.18502 0.821966 
200 1 -2.16133e-05 2.65894e-05 -3.12242e-06 0.594952 3.19207 21.9812 3.44557e-05 3.18174 0.883882 
201 1 7.65023e-07 2.26751e-06 -9.24052e-06 2.81918 4.03741 22.1495 3.04255e-05 3.08726 0.849363 
221 1 2.04871e-06 1.19658e-05 4.12472e-06 1.65029 6.52033 13.7464 3.12079e-05 3.35692 0.909572 
223 1 1.04003e-06 -1.16163e-06 -6.55089e-07 0.539605 1.9227 21.1785 4.21645e-05 3.36511 0.926013 
226 1 3.5166e-08 3.86961e-07 3.99253e-07 3.95152 7.42422 17.0437 2.74802e-05 3.13691 0.829918 
237 1 -1.35406e-06 4.10582e-06 3.65953e-06 1.80458 4.945 15.5257 3.21872e-05 3.14896 0.769967 
239 1 2.52083e-07 1.25239e-06 2.34304e-06 3.4916 5.84312 16.4311 2.97445e-05 3.06444 0.762733 
246 1 -2.50873e-06 4.67261e-06 -3.43447e-06 6.32121 3.28419 21.2362 2.8486e-05 3.25939 0.9269 
264 1 -2.6081e-06 5.03414e-06 4.57287e-06 1.73666 4.2635 16.2747 3.33778e-05 3.1301 0.772939 
282 1 2.7176e-07 5.40552e-06 -8.59593e-06 4.75642 3.70269 22.2014 2.88533e-05 3.14556 0.888189 
293 1 1.016e-05 7.36724e-06 -9.21984e-06 6.12271 0.875266 12.326 6.27352e-05 3.60789 0.958626 
300 1 1.85232e-05 -6.7576e-06 6.60004e-06 0.989945 4.2903 12.0222 4.37687e-05 3.799 0.955671 
461 2 -1.10231e-06 1.3312e-06 1.99705e-06 6.24402 0.839686 17.7969 4.20744e-05 3.89753 0.961053 
470 2 6.02253e-06 -9.83671e-06 -9.46267e-06 0.885874 2.40837 22.2888 3.71712e-05 3.17408 0.879409 
478 2 4.1116e-06 2.62198e-05 1.763e-06 1.88093 4.34886 14.6735 3.37148e-05 3.13182 0.851664 
484 2 -2.48849e-07 1.6187e-06 6.90289e-07 6.16374 7.41032 16.8568 2.78639e-05 3.1493 0.876209 
489 2 2.01388e-05 2.34588e-05 6.70962e-07 3.16089 1.90361 14.5629 4.49249e-05 3.31029 0.917202 
492 2 -3.35386e-06 3.19045e-06 1.3591e-06 2.95108 3.91916 18.3894 3.20045e-05 3.17101 0.832585 
496 2 5.70846e-06 -1.05485e-05 2.26561e-08 0.283305 2.87632 20.0937 3.74466e-05 3.42006 0.922515 
517 2 2.12979e-06 -1.48227e-06 -5.67579e-06 4.74232 7.02577 11.5228 4.06093e-05 3.3337 0.909247 
520 2 -4.33173e-05 7.67396e-05 -2.57703e-07 1.47675 2.92933 18.8479 3.74323e-05 3.32408 0.888854 
531 2 -5.19483e-07 2.12907e-06 5.71057e-07 6.78923 6.83566 16.6061 2.86296e-05 3.1439 0.8768 
532 2 1.10404e-05 1.34432e-05 -3.61893e-06 4.81072 2.20087 12.1186 5.53699e-05 3.57355 0.942869 
536 2 5.65785e-06 1.19074e-05 1.92564e-06 3.24491 5.73675 13.1615 3.52839e-05 3.24997 0.882327 
552 2 -1.48902e-07 3.13561e-06 3.27806e-06 3.22703 4.11012 15.9429 3.38034e-05 3.0459 0.748073 
557 2 -2.26149e-06 2.05576e-06 6.49498e-07 2.75969 4.64893 18.2263 3.04525e-05 3.1332 0.813528 
582 2 1.10359e-06 8.87766e-06 -2.71483e-05 0.640158 0.254117 12.7624 6.43273e-05 4.19061 0.974694 
587 2 2.50507e-06 3.03555e-06 3.88004e-07 5.78301 6.09635 12.767 3.49811e-05 3.16921 0.876248 
160 1 -5.53039e-07 5.13185e-06 4.10801e-06 14.3633 5.01376 16.7826 3.52989e-05 2.90093 0.822986 
169 1 -7.75842e-07 3.34843e-06 3.24814e-07 10.6878 4.32654 16.8687 3.15615e-05 3.04907 0.855956 
178 1 -5.01317e-07 3.89132e-06 3.17831e-06 14.2247 4.2177 16.1346 3.58311e-05 2.92158 0.809179 
183 1 -1.41644e-06 3.8835e-06 8.97162e-07 7.63961 5.1112 19.4938 2.70815e-05 3.21488 0.915631 
194 1 2.28741e-06 -6.40836e-07 -2.90646e-06 14.0905 3.44064 12.3636 4.23071e-05 3.39092 0.940562 
205 1 4.33474e-06 1.56837e-05 -1.35029e-05 8.08424 2.813 13.2833 4.8034e-05 3.32294 0.922179 
208 1 5.2511e-08 1.91028e-06 1.00742e-06 10.4133 7.35002 17.2087 2.9408e-05 3.08753 0.89805 
211 1 1.81854e-06 4.05895e-06 2.26166e-07 13.2421 2.67808 20.846 3.74913e-05 2.94055 0.847136 
215 1 -2.62938e-06 3.40376e-06 4.85412e-06 11.3276 6.78386 14.4476 3.44776e-05 2.98222 0.855506 
222 1 -4.02422e-05 3.98422e-05 8.84052e-05 8.63209 7.19594 12.4216 4.4411e-05 3.15343 0.903526 
227 1 -2.77293e-06 -7.72067e-06 -4.77073e-06 13.2372 0.836775 19.7022 4.40947e-05 3.26142 0.934477 
232 1 -1.12217e-06 6.25139e-06 -4.43742e-06 9.30114 3.50963 21.5419 3.00905e-05 3.00485 0.837162 
252 1 7.99845e-06 2.02309e-05 -4.26949e-07 7.61448 0.856219 13.7577 5.15643e-05 3.54329 0.955261 
254 1 -1.08486e-06 3.66991e-06 4.13577e-06 12.8112 6.56686 15.4076 3.45837e-05 2.99017 0.837361 
260 1 -5.39915e-07 3.72316e-06 1.78092e-06 10.8953 5.2618 16.161 3.23983e-05 2.99293 0.831844 
277 1 -9.5097e-06 -5.95677e-06 -1.55389e-06 13.9248 0.639441 14.5218 4.12707e-05 3.34582 0.938954 
284 1 2.42104e-05 -1.32971e-05 -5.99642e-05 8.74241 6.17086 12.8239 4.42712e-05 3.15897 0.900784 
294 1 5.93549e-07 4.30666e-06 1.11511e-06 14.4038 4.31456 18.7425 3.64107e-05 2.92447 0.857897 
459 2 -3.20916e-06 2.57926e-06 3.93532e-06 11.3184 6.10689 14.4585 3.48705e-05 2.99315 0.859531 
468 2 5.61609e-07 2.7782e-06 -3.6253e-07 9.10954 1.67904 12.8597 5.84041e-05 3.50134 0.954507 
480 2 -2.81856e-06 1.10763e-06 -1.16781e-07 12.1944 1.88921 11.6749 6.0606e-05 3.76849 0.971667 
487 2 -1.4765e-06 2.99742e-06 -9.75481e-07 10.2708 2.51556 19.3467 3.20201e-05 3.18134 0.911467 
488 2 4.20426e-07 8.72898e-06 -5.46983e-06 11.0145 2.50766 21.485 3.34603e-05 2.97096 0.834651 
494 2 -1.56316e-06 8.25419e-07 3.44175e-07 13.3522 2.40616 15.3683 3.78739e-05 3.1369 0.857777 
495 2 1.08268e-06 3.0065e-06 -7.09189e-07 13.525 3.26589 21.4885 3.67876e-05 2.88786 0.820891 
498 2 -3.74613e-06 4.67641e-06 -8.91955e-06 11.442 6.53112 22.5487 2.81948e-05 3.08099 0.903303 
513 2 -9.93181e-07 2.09887e-06 1.92214e-06 8.07097 7.44936 14.9751 3.09279e-05 3.08715 0.883034 
515 2 -9.10806e-07 3.54796e-06 1.45904e-06 11.6722 4.37968 16.4235 3.31085e-05 2.98757 0.83264 
521 2 -1.68871e-06 5.31925e-06 -1.5376e-06 10.1181 4.46005 21.3653 3.07748e-05 2.94622 0.81509 
534 2 -2.46293e-06 3.97801e-07 1.30892e-06 8.66231 4.6231 14.594 3.51486e-05 3.12779 0.872976 
542 2 -2.15666e-06 1.15767e-06 -1.50194e-06 10.293 1.80045 17.8418 3.44712e-05 3.3462 0.934871 
543 2 5.1128e-07 5.14104e-06 -7.41016e-06 7.97263 6.09011 22.179 2.62322e-05 3.1449 0.917382 
545 2 -3.11775e-06 9.13826e-06 -2.82136e-06 9.4686 1.68942 15.0678 3.68502e-05 3.30882 0.928514 
546 2 -2.36401e-06 5.00549e-06 -5.51918e-07 12.2252 5.18953 21.644 3.21132e-05 2.94553 0.846098 
548 2 -1.90011e-06 5.85616e-06 -1.72245e-06 10.7626 4.53977 21.6952 3.17619e-05 2.91131 0.801537 
556 2 -6.3716e-07 3.18291e-06 3.63616e-06 13.6864 5.36444 15.2854 3.5194e-05 2.96682 0.828478 
563 2 8.48459e-07 6.20756e-06 -2.87867e-06 11.0246 0.594256 13.5736 5.30949e-05 3.55906 0.965944 
576 2 -1.56451e-06 -5.32503e-06 1.97611e-06 11.9097 0.39595 16.3799 4.43185e-05 3.54541 0.941656 
590 2 -5.93139e-07 4.32544e-06 7.93246e-07 13.25 5.90963 19.2637 3.16875e-05 3.04314 0.919413 
159 1 3.21596e-05 7.22976e-05 4.49167e-05 20.4077 1.55865 12.1398 5.75439e-05 3.42466 0.946889 
161 1 -1.19911e-05 -1.1685e-05 -4.05938e-06 19.2895 2.02074 11.5361 5.89175e-05 3.56771 0.961319 
165 1 -3.70574e-06 -2.76346e-06 -4.90397e-06 17.5111 7.26397 21.6485 2.88363e-05 3.1018 0.975257 
166 1 -3.07871e-06 -1.95089e-06 8.48435e-06 20.6139 0.130275 19.0253 5.83911e-05 3.34191 0.943285 
171 1 -4.87996e-07 2.68617e-06 1.55709e-06 17.5733 5.12996 18.9631 3.53275e-05 2.87654 0.833453 
172 1 2.82464e-06 8.20503e-06 3.77481e-06 19.7306 2.00036 16.99 4.46539e-05 3.04078 0.848109 
181 1 -1.29804e-06 2.62335e-06 3.27109e-06 15.8839 2.8267 16.1835 3.91273e-05 2.93606 0.797746 
188 1 1.0795e-06 2.6979e-06 5.55471e-06 17.2141 5.20242 14.826 3.56083e-05 2.99495 0.861428 
190 1 -4.70434e-07 -5.10806e-06 -8.73389e-06 22.1357 6.95091 20.3008 2.71089e-05 3.26566 0.997978 
195 1 -1.95273e-06 -4.56826e-06 2.50428e-06 20.714 1.18373 14.7259 4.86317e-05 3.13405 0.90807 
197 1 4.81837e-06 2.48784e-06 2.5092e-06 16.9631 1.67431 20.519 4.53726e-05 2.83704 0.805093 
203 1 1.49562e-05 1.99999e-05 2.01705e-05 18.2067 6.46469 13.768 3.57029e-05 3.20447 0.927901 
229 1 2.1391e-06 5.00287e-06 4.92757e-06 18.1024 2.86928 18.7514 4.20654e-05 2.82962 0.790441 
235 1 -2.38641e-06 -3.72887e-06 3.01742e-06 16.1472 0.268486 16.2255 5.10565e-05 3.29321 0.914379 
249 1 4.10877e-07 -5.9778e-06 4.22423e-06 20.6511 1.66437 14.8484 4.4761e-05 3.08445 0.890523 
255 1 3.85257e-06 2.55603e-05 -4.09796e-07 19.9695 0.948378 21.2257 4.71191e-05 3.05125 0.89337 
256 1 -1.95501e-06 3.00802e-06 4.88563e-06 17.7275 5.67951 17.4839 3.41611e-05 2.90462 0.8257 
258 1 2.18035e-06 4.21597e-06 3.08831e-06 18.336 2.66766 16.5906 4.09002e-05 2.91599 0.788698 
281 1 4.12673e-07 2.88251e-06 -1.56167e-06 16.2405 4.52996 20.6853 3.6492e-05 2.8736 0.83695 
287 1 -4.11349e-06 4.28193e-05 9.88043e-06 21.2919 1.97067 19.0921 4.50433e-05 3.12776 0.903571 
290 1 -5.89595e-07 4.30385e-06 4.52797e-06 15.1674 5.79208 16.2507 3.49846e-05 2.91814 0.821152 
297 1 3.63154e-06 1.33055e-06 9.76008e-07 18.5231 1.6422 21.3306 4.31959e-05 2.8779 0.821253 
465 2 5.01778e-06 1.06536e-06 5.68435e-07 17.2884 1.70477 20.9308 4.44067e-05 2.82372 0.79489 
466 2 8.89748e-06 4.97353e-06 -3.61014e-06 17.0428 1.32571 21.8409 4.26709e-05 2.83551 0.792659 
469 2 -5.45063e-07 2.65796e-06 3.95636e-06 17.5816 5.44946 15.8495 3.47513e-05 2.94045 0.808407 
474 2 8.62127e-07 3.07977e-06 1.83039e-06 17.4581 4.16411 19.4887 3.80536e-05 2.83313 0.807068 
502 2 6.40755e-06 1.41476e-06 4.53394e-06 18.9768 3.53125 13.8172 3.89387e-05 3.11621 0.885049 
506 2 2.29387e-06 4.68817e-06 5.03731e-06 17.7196 2.33084 19.1237 4.44669e-05 2.82672 0.794321 
508 2 -1.249e-07 1.71845e-06 3.58499e-06 18.5543 5.79593 17.5688 3.25215e-05 2.97143 0.860146 
510 2 1.36809e-06 3.06566e-06 5.52375e-07 18.8596 3.05787 12.412 4.7735e-05 3.34142 0.935459 
514 2 2.86513e-06 3.18433e-06 3.67158e-06 18.8542 2.00205 20.3193 4.38996e-05 2.88259 0.824406 
518 2 1.8516e-06 7.42965e-07 4.70574e-06 21.4056 6.1221 14.9058 2.86325e-05 3.25531 0.945293 
525 2 -6.83862e-06 3.48057e-06 1.14712e-05 22.5471 4.57449 14.0685 3.20295e-05 3.13299 0.887464 
530 2 8.66506e-06 3.15639e-05 3.24958e-06 16.9544 0.805192 17.3331 5.06158e-05 3.07711 0.879906 
535 2 -3.5977e-06 -4.83631e-06 -2.59144e-06 17.0017 1.40019 11.8572 5.96472e-05 3.74486 0.970905 
540 2 -2.11343e-06 -2.80331e-06 -2.30022e-06 19.4208 7.30067 19.4502 2.83384e-05 3.14744 0.976617 
565 2 -2.11096e-06 -2.54829e-06 2.60573e-06 16.2574 0.148656 16.7061 5.3369e-05 3.28584 0.921736 
575 2 1.89033e-06 4.56406e-06 -3.56637e-07 18.1232 1.18868 15.72 4.70767e-05 3.11376 0.854601 
578 2 1.23078e-06 1.72685e-06 3.56009e-06 16.702 4.66923 14.0268 3.81364e-05 3.09031 0.889369 
580 2 7.34714e-06 -1.1209e-05 2.42637e-05 21.8485 1.67783 12.9885 5.16569e-05 3.27525 0.923017 
597 2 -2.20064e-06 -8.81137e-07 -1.3174e-06 18.0433 6.61832 19.7131 3.07016e-05 3.0193 0.925304 
153 1 -4.03465e-07 -8.63939e-07 1.32984e-06 6.74781 14.9312 15.0871 2.75735e-05 3.08509 0.851441 
167 1 5.64217e-06 2.65701e-06 -3.87389e-06 2.02383 13.9112 20.315 2.70491e-05 3.22419 0.903665 
192 1 1.49588e-07 7.76545e-07 9.75386e-07 7.49793 8.14747 18.4121 2.63421e-05 3.16586 0.915203 
210 1 1.59818e-06 -9.14366e-08 4.30842e-08 6.11315 12.867 19.5658 2.62717e-05 3.15791 0.889356 
218 1 -1.14629e-06 -4.75253e-06 5.81218e-06 5.91226 14.1632 12.1854 3.20644e-05 3.33282 0.916121 
225 1 1.73522e-06 -1.0863e-06 -6.76139e-07 3.62196 9.28434 18.4867 2.57817e-05 3.22001 0.887497 
240 1 6.90816e-06 -5.04138e-06 -1.22116e-05 0.341309 8.23275 22.5956 2.73797e-05 3.31838 0.919338 
241 1 1.27632e-06 -1.02074e-06 -8.51196e-08 1.83808 10.7398 16.9897 2.47109e-05 3.52027 0.919311 
269 1 3.48566e-06 4.45205e-07 -2.14703e-06 1.83903 14.4963 17.4909 2.50496e-05 3.37737 0.906241 
280 1 1.19379e-06 -8.67991e-07 1.28281e-06 3.57258 9.55862 17.0032 2.57401e-05 3.30383 0.881303 
285 1 3.76102e-06 -8.82809e-07 -3.01196e-06 1.89099 11.9855 19.181 2.58616e-05 3.31313 0.915065 
299 1 3.80088e-06 -1.89405e-06 -6.93682e-06 0.791294 11.222 20.5293 2.71499e-05 3.34045 0.916683 
467 2 2.65112e-06 -7.52172e-07 -7.05274e-07 5.18629 8.88602 20.4508 2.52145e-05 3.22039 0.931288 
509 2 -2.11546e-06 4.21649e-07 -6.42221e-06 3.52101 13.5653 13.4646 2.85828e-05 3.457 0.949194 
516 2 8.6016e-07 -1.2687e-05 -7.4847e-07 2.1873 14.4528 11.6844 3.21605e-05 3.66578 0.952916 
526 2 2.83431e-06 -9.84649e-08 -7.91324e-07 5.53709 12.7318 20.615 2.606e-05 3.17149 0.895545 
527 2 2.77724e-06 -1.35379e-06 -4.09174e-06 2.09707 7.86956 19.6559 2.62889e-05 3.32266 0.902214 
533 2 1.21615e-07 -1.72619e-06 1.35591e-06 4.91053 10.9741 15.0171 2.82772e-05 3.40373 0.941667 
539 2 3.33667e-06 -3.65362e-06 -1.49046e-06 0.370963 11.3736 12.8801 3.25289e-05 4.02954 0.972727 
560 2 -3.27885e-06 1.27994e-06 -1.53626e-06 4.2441 11.6422 13.1043 3.47093e-05 3.58089 0.963575 
566 2 3.10054e-06 -1.61982e-06 -3.28599e-06 2.65854 8.09615 19.728 2.62138e-05 3.26561 0.897655 
567 2 -1.88425e-06 1.66425e-06 7.9967e-06 0.879259 13.0493 15.1263 2.56144e-05 3.82473 0.929469 
570 2 2.20171e-06 4.58942e-07 -3.2207e-07 3.61244 13.841 18.5509 2.61907e-05 3.20891 0.874565 
584 2 6.32918e-06 -1.15693e-06 -8.6014e-06 0.146888 12.4045 20.9938 2.84032e-05 3.30856 0.906833 
591 2 1.05728e-06 -1.17055e-07 1.19792e-09 7.0869 10.2566 20.493 2.4559e-05 3.20369 0.950401 
595 2 6.08426e-07 1.28101e-07 1.43184e-07 7.39557 9.91139 20.4378 2.4522e-05 3.20168 0.953286 
410 2 -1.87547e-06 -2.2618e-06 3.82691e-06 7.27352 13.9335 11.3987 3.38142e-05 3.37088 0.918294 
177 1 -1.29892e-07 -1.12508e-07 5.85388e-07 10.7385 13.7811 19.069 2.48963e-05 3.23999 0.962801 
186 1 5.15203e-07 -3.78154e-07 8.93596e-07 8.4419 13.5165 17.1568 2.67241e-05 3.16066 0.876156 
196 1 -3.18823e-08 3.79143e-07 4.52568e-07 11.7546 10.6218 18.5586 2.52801e-05 3.27112 0.997293 
199 1 1.32049e-07 1.35233e-06 7.89797e-07 11.1949 8.41986 17.805 2.7859e-05 3.16094 0.937189 
207 1 2.89248e-06 -4.25179e-06 5.40436e-06 7.84248 11.8421 14.0769 3.329e-05 3.37466 0.923306 
217 1 4.80344e-07 -4.31403e-07 -3.35852e-06 11.0515 10.1626 12.7864 5.04917e-05 3.29522 0.92413 
228 1 8.25402e-07 9.33088e-07 -4.25101e-06 11.2006 7.91063 12.203 5.3856e-05 3.29145 0.919145 
231 1 6.29238e-07 6.48171e-07 -1.64608e-06 10.3655 8.53378 11.5295 5.91764e-05 3.45768 0.945849 
259 1 1.34192e-07 -1.91945e-07 5.50359e-07 8.92294 12.0129 19.5581 2.47976e-05 3.19994 0.946033 
261 1 -1.61633e-06 5.96328e-07 -1.42361e-06 14.0428 14.2296 22.2163 2.91734e-05 2.99615 0.875687 
271 1 -4.80962e-06 6.77522e-06 -7.14318e-05 7.6159 9.34789 13.1769 4.12376e-05 3.39891 0.924146 
292 1 -9.41558e-07 1.0314e-06 -1.13605e-06 13.1836 12.5778 21.6137 2.55525e-05 3.21212 0.990673 
296 1 -1.4154e-06 1.31168e-06 -9.06246e-07 9.88965 9.24995 20.9221 2.41536e-05 3.26934 1.00022 
472 2 -2.28714e-06 -8.98218e-07 -1.84227e-06 13.2724 13.39 13.1114 3.82358e-05 3.47032 0.961468 
476 2 9.6533e-07 9.69974e-09 -4.7846e-06 11.7499 8.52335 12.5165 5.32822e-05 3.24619 0.913156 
479 2 -1.1177e-07 -3.26296e-07 7.20336e-07 12.3475 11.2009 16.8147 2.7298e-05 3.25289 0.939017 
485 2 -2.34724e-07 -2.15749e-07 -2.59908e-07 9.03539 12.7663 20.8889 2.44752e-05 3.2445 0.960147 
490 2 -2.72077e-07 -9.75427e-07 -8.44038e-07 12.7817 11.2353 12.2223 5.7173e-05 3.41776 0.952182 
491 2 -5.7555e-07 6.26745e-07 4.70252e-07 9.60372 9.61572 19.4775 2.49987e-05 3.20835 0.978944 
499 2 6.87805e-07 -6.9444e-09 1.32325e-06 9.2485 9.20341 15.0755 3.22918e-05 3.18241 0.885966 
503 2 2.85297e-06 -3.32323e-06 1.37263e-06 9.89104 14.4494 14.7063 2.91804e-05 3.26534 0.929931 
528 2 -1.91225e-06 -3.14362e-07 1.66082e-06 15.0715 10.8235 16.5162 2.84004e-05 3.10834 0.876321 
564 2 -1.22545e-06 6.74257e-07 -1.04824e-06 14.1103 13.1229 21.2231 2.68463e-05 3.12938 0.950785 
572 2 -3.58834e-07 -1.99123e-06 1.49059e-06 8.17362 14.9352 17.8179 2.76692e-05 3.048 0.822411 
573 2 -7.6587e-07 -1.28538e-06 -4.16625e-07 14.7596 10.1324 11.3704 5.84644e-05 3.5052 0.95054 
574 2 -1.93952e-06 -4.95099e-07 1.55118e-06 14.4638 11.5104 15.5226 3.01043e-05 3.17375 0.888418 
577 2 -2.11706e-06 1.06383e-06 2.52012e-06 14.7799 10.1572 14.9223 3.40112e-05 3.09202 0.865242 
583 2 -2.07046e-06 1.35838e-06 -7.71144e-06 11.5924 11.735 14.1576 3.7581e-05 3.30193 0.931166 
154 1 1.7596e-06 -3.32835e-06 2.26802e-06 20.9625 14.1381 14.1577 2.34443e-05 3.37907 0.963056 
155 1 -1.84903e-06 -4.00528e-07 -3.27606e-06 18.1741 12.255 20.6553 2.96975e-05 3.01428 0.888757 
180 1 -2.52752e-06 -1.12972e-06 -4.69026e-06 19.2676 12.3136 21.6652 3.23761e-05 2.91407 0.833726 
182 1 -1.02782e-07 5.15909e-07 -5.71238e-06 21.0771 12.8753 21.7194 3.26743e-05 2.91044 0.819627 
187 1 -7.26318e-07 2.28918e-06 3.81819e-06 17.3123 9.57387 14.0697 3.36786e-05 3.18684 0.877882 
212 1 -3.10272e-06 -3.582e-06 2.53112e-06 15.6004 13.9514 14.7484 2.64207e-05 3.39211 0.977001 
213 1 -9.27758e-07 3.61459e-08 1.20215e-06 18.4349 9.882 15.8879 2.77335e-05 3.13817 0.845273 
214 1 -1.97623e-06 1.35848e-06 -4.09744e-06 19.2432 13.943 22.2146 3.45782e-05 2.85034 0.800312 
219 1 -1.38447e-07 -2.3718e-06 -3.99622e-06 21.6428 11.1115 18.852 2.59522e-05 3.20013 0.8975 
233 1 -3.96128e-06 -1.88338e-06 -5.11931e-06 18.4092 9.86081 22.445 2.87287e-05 3.09338 0.951052 
234 1 -1.75177e-06 -4.34819e-07 9.38084e-07 17.3377 10.7127 16.3345 2.76005e-05 3.09455 0.854296 
236 1 -1.91913e-06 -1.69775e-07 -3.09686e-06 17.2932 9.24329 21.4602 2.79023e-05 3.12503 0.978931 
242 1 1.17082e-07 -1.47813e-06 -2.64801e-07 22.4291 9.77057 16.694 2.47289e-05 3.477 0.905638 
265 1 -1.4161e-06 -6.94703e-08 -3.46027e-06 19.9557 13.6939 19.9805 2.86926e-05 3.08359 0.913956 
276 1 -2.12479e-06 1.01562e-06 -1.73324e-06 15.5468 13.747 22.1676 3.05902e-05 2.98892 0.874562 
295 1 -1.58344e-06 -7.45748e-07 1.44502e-07 16.9105 12.0867 16.7016 2.60515e-05 3.19225 0.912997 
458 2 -4.65182e-05 0.000111657 0.000129549 15.8904 9.44491 13.6394 4.01853e-05 3.19956 0.889742 
504 2 2.59033e-06 1.37019e-06 3.35572e-06 19.7372 9.39802 13.6413 2.99134e-05 3.37531 0.922533 
507 2 -1.71339e-06 7.48124e-07 5.62337e-07 18.2815 8.94994 16.8614 2.84882e-05 3.08685 0.850378 
523 2 -2.07604e-06 -2.78756e-07 -2.96089e-06 17.6472 12.6082 20.8657 2.99588e-05 3.00813 0.88716 
524 2 -1.59225e-06 -5.4671e-07 -2.07244e-06 15.4873 9.15543 20.3402 2.72349e-05 3.19951 0.995847 
551 2 -1.13566e-06 -9.76228e-07 -6.59766e-07 19.3381 10.5921 16.9081 2.57708e-05 3.21665 0.890382 
562 2 6.26832e-06 9.51893e-07 3.6711e-06 21.0984 10.4553 11.5524 3.22376e-05 3.53115 0.934581 
579 2 -5.8735e-07 1.56722e-06 1.03648e-06 15.8537 8.3917 17.7186 3.0022e-05 3.06499 0.88761 
581 2 -2.83008e-07 -1.09919e-06 -1.22439e-06 15.5132 8.89648 12.9301 4.74021e-05 3.31397 0.920156 
596 2 1.38688e-07 -2.63863e-06 -3.81537e-06 22.1119 9.90694 18.7339 2.57244e-05 3.2511 0.905706 
598 2 -8.22512e-07 -7.10218e-07 -3.8317e-07 15.8926 11.4137 18.0978 2.64995e-05 3.15889 0.930035 
337 2 6.20408e-06 1.17104e-07 3.002e-06 20.8879 11.0022 11.3652 3.18547e-05 3.55697 0.929558 
441 2 3.02737e-06 -6.77546e-07 -2.53103e-06 20.0992 9.40498 11.3961 3.99386e-05 3.65914 0.956955 
152 1 1.96793e-06 2.08857e-06 2.1749e-06 6.24108 17.6857 15.0138 3.08666e-05 3.16158 0.858716 
158 1 3.13706e-05 1.43432e-05 3.06543e-05 3.23266 22.6142 13.3005 3.70877e-05 3.1332 0.887364 
168 1 -1.21393e-06 -3.98246e-06 2.28773e-06 6.49527 16.1807 17.5603 2.94932e-05 2.9656 0.748676 
170 1 2.8731e-07 1.55674e-06 -8.04466e-07 5.13061 15.9819 20.2519 2.80491e-05 3.06826 0.828021 
176 1 3.84e-06 1.4697e-06 -2.1613e-06 2.58475 17.6738 20.873 2.65543e-05 3.3374 0.946576 
184 1 -9.75645e-08 -3.2074e-06 1.60395e-06 5.1295 20.0439 12.3672 4.67119e-05 3.34147 0.940789 
191 1 1.60382e-05 1.22966e-05 1.78986e-05 3.94258 20.7612 14.1192 3.46064e-05 3.15759 0.89925 
209 1 7.57281e-06 -4.17308e-06 8.6299e-06 1.80186 22.3645 14.1085 3.57067e-05 3.12837 0.883507 
220 1 2.19442e-06 -7.15545e-06 -3.79285e-06 3.76068 19.5608 21.2589 2.60716e-05 3.24507 0.943011 
224 1 -9.01555e-07 -5.28521e-07 -2.96286e-06 7.08204 15.9082 22.5262 2.65979e-05 3.11869 0.88354 
230 1 4.8689e-06 -4.85049e-06 1.06951e-06 0.0557658 18.7907 18.7049 2.75826e-05 3.7065 0.973489 
244 1 1.45476e-05 -1.60378e-05 2.27703e-06 1.18597 21.9869 19.6068 3.00529e-05 3.24559 0.910554 
251 1 1.64175e-06 -1.13013e-05 -3.56533e-06 7.18751 21.1963 19.4302 2.49682e-05 3.33924 0.984476 
266 1 1.35282e-06 9.46759e-07 -9.82683e-07 2.21689 15.803 17.9164 2.58973e-05 3.40182 0.893369 
267 1 -5.04001e-10 -3.23167e-06 1.66663e-06 7.15259 17.613 17.2056 2.89271e-05 3.01417 0.769404 
268 1 -2.92734e-07 -3.73758e-06 2.56134e-06 5.07105 18.6807 18.0784 2.84581e-05 3.03435 0.773913 
270 1 6.98454e-06 -2.32338e-07 2.57139e-05 6.54911 15.3361 13.4377 3.5122e-05 3.31099 0.899087 
288 1 1.28376e-05 -1.32203e-05 -4.802e-07 0.834527 21.2415 21.4022 2.86567e-05 3.23713 0.947953 
462 2 1.70552e-05 -1.70649e-05 -1.13944e-06 0.468908 22.3237 21.548 3.00924e-05 3.13047 0.907608 
463 2 -3.63512e-05 -8.60555e-05 3.2087e-05 0.365763 20.8931 16.4345 3.52172e-05 3.62919 0.92756 
475 2 6.47465e-06 -1.20928e-05 1.03465e-05 5.47609 22.2441 11.5162 5.01583e-05 3.22767 0.928711 
477 2 5.51478e-06 -1.3111e-05 -9.25534e-07 4.35338 21.8784 18.7884 2.7476e-05 3.25981 0.917411 
482 2 8.09807e-08 -5.72621e-06 -1.44932e-06 0.185173 20.374 11.5992 5.10145e-05 3.75857 0.96668 
493 2 -1.19038e-06 -2.09431e-06 -5.49023e-07 7.34958 16.6114 20.2024 2.77268e-05 3.0528 0.83753 
501 2 -1.81647e-07 -1.06304e-06 -2.45672e-07 4.70339 19.5274 16.1599 3.06144e-05 3.1736 0.816895 
505 2 3.32453e-06 3.33235e-06 5.24321e-06 4.34408 19.8459 14.7922 3.19267e-05 3.16714 0.892316 
512 2 -1.41182e-06 -3.54192e-06 2.48554e-06 5.92273 18.1724 18.216 2.88416e-05 2.98812 0.761302 
538 2 -7.65599e-07 -3.29373e-06 1.41409e-06 4.34223 19.8022 12.6717 4.37115e-05 3.33098 0.938582 
541 2 -1.03477e-06 -2.03921e-06 1.26377e-06 5.77587 17.1496 19.1868 2.90105e-05 2.97861 0.77025 
544 2 -1.11845e-06 -2.69974e-06 1.57764e-06 2.30137 18.4042 16.9888 2.80945e-05 3.39089 0.872801 
600 2 1.33137e-06 -3.00222e-06 -1.33883e-06 0.0201669 17.0853 11.7134 4.45076e-05 4.33186 0.972246 
550 2 -3.57848e-07 -1.57918e-06 1.28496e-06 5.04536 15.2092 15.2055 2.88739e-05 3.2333 0.818506 
553 2 -3.34502e-07 -3.24744e-06 9.60677e-07 2.40011 19.1921 13.3102 3.7951e-05 3.4406 0.936698 
569 2 7.24567e-07 -5.82467e-06 5.58741e-07 5.21428 19.2173 19.6242 2.70304e-05 3.08358 0.844096 
589 2 6.88187e-06 -1.16312e-05 2.53046e-06 3.46948 22.0162 17.5955 3.10522e-05 3.28466 0.890798 
594 2 2.42296e-06 -1.13332e-05 -3.02235e-06 5.60344 20.8837 19.9699 2.53535e-05 3.22754 0.939322 
151 1 -1.43968e-05 4.17718e-06 3.455e-06 13.5199 19.8698 12.4895 3.60163e-05 3.34215 0.953826 
157 1 -2.522e-06 -4.1032e-06 -6.44227e-07 14.5397 18.2655 18.6073 2.82724e-05 3.0316 0.891092 
175 1 -8.38963e-07 2.33635e-07 1.11801e-07 11.7416 15.5785 20.5303 2.59622e-05 3.1628 0.941095 
179 1 -1.79077e-06 -3.65369e-06 -4.08429e-06 10.347 20.7255 17.429 2.8295e-05 3.40634 0.980703 
216 1 -2.22361e-05 1.00021e-05 5.69295e-06 13.0008 20.3518 12.5851 3.63752e-05 3.33178 0.949678 
253 1 -1.68509e-06 -6.9117e-06 -5.89304e-06 11.1227 19.6459 22.0231 2.59921e-05 3.26555 1.022 
262 1 -1.26621e-06 2.52017e-07 -1.49435e-06 13.3014 15.1212 22.6472 2.94799e-05 2.97316 0.860295 
272 1 -7.8527e-06 -5.9928e-08 2.03561e-06 14.0124 18.5438 13.0532 3.31542e-05 3.36474 0.95213 
275 1 7.39749e-07 -1.20243e-06 8.06306e-07 9.07604 16.1134 15.326 2.90124e-05 3.17604 0.85133 
279 1 4.47807e-06 -1.65155e-05 -5.23262e-06 10.6186 22.3125 11.8894 4.44302e-05 3.16897 0.904443 
289 1 5.56096e-06 -5.4133e-06 -3.25359e-06 9.33256 21.4269 12.1779 4.97601e-05 3.30501 0.938197 
460 2 -2.2054e-07 -2.59102e-06 1.21174e-06 8.23555 17.356 18.5191 2.73092e-05 3.0732 0.832694 
471 2 1.30729e-06 -9.75134e-06 -1.60614e-05 9.11668 20.5751 22.5176 2.52494e-05 3.31607 1.02813 
519 2 -2.33642e-06 -3.57556e-06 -1.67583e-06 12.6484 18.7495 16.4548 2.73073e-05 3.29805 0.923575 
522 2 -9.08025e-06 -1.07804e-05 -1.23164e-06 14.4074 22.4499 18.8584 3.32606e-05 3.04615 0.904342 
529 2 1.31664e-06 1.44161e-06 1.38685e-06 10.4248 16.2655 14.3436 3.06184e-05 3.38166 0.939783 
554 2 -2.90754e-06 -4.42363e-06 -1.15329e-06 13.0235 18.4423 20.0949 2.71149e-05 3.16285 0.964422 
555 2 -9.63354e-07 -1.1699e-06 7.9136e-07 11.5829 15.6235 19.8643 2.54925e-05 3.20241 0.945756 
559 2 -1.33561e-06 -3.6816e-06 -3.12895e-06 10.8513 17.5735 22.1448 2.63906e-05 3.19367 0.973329 
561 2 4.91703e-07 -1.51279e-06 -2.24636e-06 10.6305 19.0672 15.9714 2.89094e-05 3.37209 0.92853 
568 2 -9.04904e-06 1.07726e-07 -1.68209e-05 9.33592 15.1796 13.1347 3.76587e-05 3.46636 0.939118 
585 2 -7.79107e-06 -1.05416e-05 -4.32127e-06 11.7469 21.4587 18.6086 2.79793e-05 3.29234 0.991181 
586 2 -1.35301e-06 1.07946e-05 4.00502e-06 10.151 19.2054 14.3354 3.2115e-05 3.39066 0.946042 
592 2 -6.66522e-07 -3.654e-06 2.21792e-06 7.70954 15.3912 17.2524 2.85483e-05 3.00856 0.784871 
156 1 7.81732e-08 5.04547e-06 -6.9354e-06 22.6054 16.3371 21.968 2.82886e-05 3.19861 0.956034 
162 1 -4.84504e-06 -8.90541e-06 1.10391e-07 15.4823 19.8241 18.5533 3.13082e-05 2.95239 0.860725 
189 1 2.8238e-06 -5.59193e-06 -5.07837e-06 20.3274 19.1088 17.8579 3.04674e-05 3.12338 0.89432 
198 1 -3.70689e-07 -7.58648e-06 2.19857e-06 18.8376 20.3977 21.1935 3.26027e-05 2.9872 0.91673 
202 1 -1.19102e-07 1.22765e-07 -2.00184e-07 15.3139 15.487 15.7036 2.65174e-05 3.43664 0.939114 
204 1 1.47397e-06 4.62676e-06 -5.69152e-06 22.636 17.0843 19.6401 2.70279e-05 3.27244 0.963114 
206 1 -1.21035e-06 2.1318e-06 -2.94226e-06 21.3387 16.0741 15.723 2.72408e-05 3.48432 0.916589 
238 1 -5.37719e-06 5.64956e-06 2.53327e-06 19.6133 15.7245 14.5448 3.00145e-05 3.37786 0.934104 
243 1 2.05328e-06 -2.69897e-05 9.34342e-07 22.6475 22.3776 16.7504 4.09892e-05 3.2198 0.914751 
245 1 6.43292e-07 -2.50266e-06 8.66153e-06 20.3005 19.4766 13.5315 4.01791e-05 2.98584 0.841617 
247 1 -1.84219e-06 1.0448e-07 -1.47527e-06 17.3094 15.185 19.2559 2.77448e-05 3.15402 0.926296 
248 1 2.15007e-06 -4.32955e-06 1.03365e-05 19.5607 19.8995 13.4202 4.11871e-05 3.00562 0.858231 
250 1 5.60367e-07 -4.11478e-06 9.77669e-07 20.5819 20.4842 14.1177 3.71983e-05 2.96634 0.851683 
257 1 4.3114e-06 -1.1026e-05 1.7603e-07 18.9636 21.9993 18.4572 3.70424e-05 2.96404 0.873506 
263 1 -2.10277e-06 -2.67109e-07 -9.93983e-07 16.2431 15.7917 20.4434 2.98997e-05 3.03559 0.890491 
273 1 -8.90062e-06 4.58947e-06 -1.14527e-05 19.9259 18.0583 13.2842 4.17161e-05 3.08628 0.870953 
274 1 -3.50879e-06 5.92197e-06 6.5344e-06 21.7058 17.1045 14.1314 3.27222e-05 3.24531 0.909569 
278 1 -2.7271e-06 -5.45152e-06 -5.26364e-07 15.3506 18.5616 18.3744 2.94783e-05 2.97132 0.859317 
283 1 -2.46419e-06 -7.61031e-06 2.54036e-06 21.95 21.803 14.6252 3.50089e-05 2.9537 0.866317 
286 1 -2.3981e-06 -5.42644e-06 -1.25609e-06 17.4213 18.6487 20.0404 3.13774e-05 2.98013 0.897359 
291 1 -2.7749e-06 1.86737e-06 -1.64202e-06 17.7092 17.7762 12.2793 4.94158e-05 3.36601 0.938631 
298 1 1.44754e-06 1.05656e-06 -3.90929e-06 20.8375 18.0357 19.7275 2.85168e-05 3.13411 0.944775 
464 2 -6.92175e-06 -8.80721e-06 -1.88563e-06 20.0453 21.6148 11.9572 4.61317e-05 3.08039 0.883377 
473 2 -3.60519e-06 -4.6511e-07 -3.53875e-06 15.4844 19.9766 11.6759 4.55277e-05 3.47887 0.948376 
481 2 -2.86914e-06 -6.01208e-06 -9.47698e-07 15.29 18.6976 17.8749 2.92462e-05 2.99153 0.859725 
483 2 -2.40815e-06 -9.16963e-08 -1.61605e-06 18.8597 17.417 21.5847 3.1177e-05 3.04425 0.927707 
486 2 1.79809e-06 -1.34482e-07 -5.06028e-06 20.7943 18.1644 18.5264 2.97945e-05 3.15733 0.922263 
497 2 -1.50757e-06 2.41537e-06 7.57523e-06 19.8465 18.085 13.8632 3.80334e-05 3.06656 0.863075 
500 2 -3.23362e-06 -1.80913e-06 -5.55907e-07 15.993 19.6104 13.2728 3.7137e-05 3.28367 0.922887 
511 2 -3.53508e-06 2.31021e-06 -1.66045e-06 16.5325 16.4658 12.2205 4.71599e-05 3.66439 0.964394 
537 2 -8.65202e-07 -7.9495e-07 9.27429e-06 20.04 19.2029 13.6082 4.00971e-05 2.99613 0.84588 
547 2 -3.11122e-06 1.23514e-06 -2.21964e-07 18.8034 18.4425 11.5372 5.69228e-05 3.36103 0.939482 
558 2 -3.97029e-06 -3.56364e-06 -8.52634e-07 16.9217 17.9693 18.9563 3.00688e-05 2.98383 0.879802 
571 2 -7.19312e-06 -6.60498e-06 6.35269e-07 16.0594 19.3038 18.0152 3.09794e-05 2.94896 0.846279 
588 2 -5.79168e-06 -9.87474e-06 -4.06983e-06 16.5741 20.3238 16.8358 3.31768e-05 3.03728 0.865349 
593 2 -6.1394e-06 -4.6619e-06 -1.14032e-07 16.3265 18.6802 18.3269 3.04466e-05 2.95162 0.852585 
599 2 3.08232e-06 -1.40418e-05 -3.75874e-06 21.661 21.4094 20.3784 3.18638e-05 3.01539 0.899535 
