ITEM: TIMESTEP
0
ITEM: NUMBER OF ATOMS
40
ITEM: BOX BOUNDS pp pp pp
0.0000000000000000e+00 8.3480326719615103e+00
0.0000000000000000e+00 8.3480326719615103e+00
0.0000000000000000e+00 8.3480326719615103e+00
ITEM: ATOMS id type fx fy fz x y z rho_SPH width_SPH omega_SPH u_SPH vx vy vz 
1 1 0.0000000000000000 0.0000000000000000 0.0000000000000000 3.3676919395364311 5.1072175783310723 7.0002769345732716 0.0000000000000000 1.5000000000000000 0.0000000000000000 0.0000000000000000 0.0685154867763447 -0.0041661889199873 -0.0302579635705916 
2 1 0.0000000000000000 0.0000000000000000 0.0000000000000000 1.5999398354397489 7.0590224244884885 5.8316641178570956 0.0000000000000000 1.5000000000000000 0.0000000000000000 0.0000000000000000 -0.0063559617387082 -0.0800543512185017 -0.0796633335162517 
3 1 0.0000000000000000 0.0000000000000000 0.0000000000000000 5.8004302857561214 2.7628389806540565 7.1116215084633359 0.0000000000000000 1.5000000000000000 0.0000000000000000 0.0000000000000000 0.0056719293257784 -0.0201965549341677 0.0351770975204570 
4 1 0.0000000000000000 0.0000000000000000 0.0000000000000000 3.8130185960715521 6.7519700709536616 0.9907348471891684 0.0000000000000000 1.5000000000000000 0.0000000000000000 0.0000000000000000 0.0250978385992731 -0.0194100934440950 -0.1208589251681385 
5 1 0.0000000000000000 0.0000000000000000 0.0000000000000000 5.1722826061110716 4.6847963184533006 7.4316462988515317 0.0000000000000000 1.5000000000000000 0.0000000000000000 0.0000000000000000 0.1203122900729023 -0.0074263503667667 0.1021973403117437 
6 1 0.0000000000000000 0.0000000000000000 0.0000000000000000 1.1039608373666054 6.5346621297579546 0.7579360874439974 0.0000000000000000 1.5000000000000000 0.0000000000000000 0.0000000000000000 -0.1222455454685703 0.0703107161931284 0.0023767033585618 
7 1 0.0000000000000000 0.0000000000000000 0.0000000000000000 1.4380722518264288 1.1211490022140298 4.2935069221114084 0.0000000000000000 1.5000000000000000 0.0000000000000000 0.0000000000000000 -0.0437246125549343 0.0296312221266695 -0.0257844474620106 
8 1 0.0000000000000000 0.0000000000000000 0.0000000000000000 6.1018962247090860 3.1017618656468722 1.4019079133862395 0.0000000000000000 1.5000000000000000 0.0000000000000000 0.0000000000000000 -0.0530925559376260 0.0088519443460776 0.1421653795108789 
9 1 0.0000000000000000 0.0000000000000000 0.0000000000000000 7.8627773413622046 4.3354927489067494 6.1202611331112626 0.0000000000000000 1.5000000000000000 0.0000000000000000 0.0000000000000000 -0.0652641056176275 -0.0139237388260643 0.0217759471363971 
10 1 0.0000000000000000 0.0000000000000000 0.0000000000000000 7.3111457884193491 3.2510721249799119 0.9128881107959678 0.0000000000000000 1.5000000000000000 0.0000000000000000 0.0000000000000000 0.0710852365431675 0.0363833950437072 -0.0471277981210461 
11 2 -0.0000001468017922 0.0000000002728563 -0.0000003390462343 5.0729879318010811 7.3404700068116480 4.6274860407346541 0.0000266610745088 2.2474454634721681 0.7038277398715652 -0.0000000000000004 7.6287984001839417 14.0763125270745384 -5.0209322839110397 
12 2 -0.0000001767853072 -0.0000000076721675 0.0000001072895524 4.7309277500302267 3.3326238225910454 0.6115091448503214 0.0000260540417011 2.1515400276723424 0.5799634045870081 -0.0000000000000047 0.2413316460586375 5.2490599342714352 27.7600348141869340 
13 2 -0.0000002364872650 -0.0000002851026433 -0.0000002178778337 2.2360465148171000 6.5905360211675843 5.5014021575754244 0.0000304483011801 2.0935984500888845 0.5465197798802545 0.0000000000000045 -4.4282834169991752 -1.6300797292237785 -3.6872592404376392 
14 2 -0.0000001434390286 -0.0000003855401976 -0.0000002298285690 2.4137196041100490 5.5197254120456378 5.5805304996768497 0.0000285206818921 2.1227897095560424 0.5827910715826107 -0.0000000000000001 -28.8577094985790268 -16.8867931363810300 -18.9062050622490148 
15 2 0.0000000375905330 -0.0000004918506989 -0.0000002491860454 7.7296979311395866 5.1314647147335180 5.2616137929578928 0.0000252604000917 2.2503893806996591 0.7006394687497370 -0.0000000000000016 5.6725837367247323 7.1189045864928922 -11.2858299997062730 
16 2 -0.0000000099438348 -0.0000002466036993 -0.0000003114424827 3.2729543446491705 4.8021265781802898 4.0467544660939261 0.0000257588411221 2.1656835853802505 0.5769720076349928 -0.0000000000000011 0.2711548851219451 -7.1862777436071354 -14.7261801540954629 
17 2 0.0000005585156701 -0.0000000738684784 0.0000000744311785 6.7794638492797477 4.5463731260658582 7.5910634840185471 0.0000237556814723 2.2587210800809174 0.6857106367885716 -0.0000000000000071 28.4901813084499125 1.7848644467785906 7.1980517796636523 
18 2 0.0000002265203272 0.0000001241137586 -0.0000001096747144 6.2854106288784921 0.9051135860935108 3.0655586625323110 0.0000247391523855 2.2102911410429900 0.6281995034197095 0.0000000000000012 12.4433134705100095 8.8935552587849465 -5.2743805461549007 
19 2 0.0000006173193569 -0.0000007868622021 0.0000014107328895 8.3067342569916374 5.9573762415405964 8.1468341189235964 0.0000216114688271 2.3108040998172257 0.6960389531454956 -0.0000000000000015 -19.6831299062345053 8.6061049508975440 14.2867075639728114 
20 2 -0.0000000911353583 -0.0000001275509632 -0.0000001074792113 5.4238442787835170 6.7097402984911341 6.7403679845171904 0.0000280959472060 2.1876743049110443 0.6539181260312895 0.0000000000000012 -3.5986202243278860 1.6662612064770943 0.5331783054432967 
21 2 -0.0000001287901308 0.0000001318835187 0.0000000582896281 4.9751475049913010 5.7523045782602358 0.1519353991139852 0.0000242112641913 2.2421223752778632 0.6811434877054947 -0.0000000000000012 22.2529116814603825 -3.4533678832238626 29.5442110068134518 
22 2 0.0000001311702251 0.0000002921002940 -0.0000000707432671 4.6552033486664515 4.6452308688873156 1.9779265807610302 0.0000241933979207 2.1976567240012583 0.6037081848860885 -0.0000000000000007 6.6089624497675308 -6.4841028994115986 4.6990263832678068 
23 2 -0.0000000759815885 0.0000002878988405 0.0000001333526623 1.3947932802507792 1.2685192330349468 0.6013964341885358 0.0000178185915072 2.4162581485800056 0.7317028627843860 0.0000000000000013 -30.9005714304209214 9.7209154753089635 6.2953376388053419 
24 2 0.0000001636534035 0.0000005247206037 -0.0000009416633731 1.2042495418152863 0.0208454444689643 4.8454505337979059 0.0000274719202491 2.1580589765935745 0.6236401286404102 0.0000000000000039 15.8745643219972408 -28.8321903052685364 -16.2411935171285187 
25 2 0.0000003163558504 0.0000002638905383 -0.0000004629885050 7.5325900449915419 0.5444216970082811 4.4736274867499670 0.0000264266032062 2.1567602635693923 0.6034829696789465 -0.0000000000000034 -12.0154874237128517 7.3568333110298809 -15.1745666884703940 
26 3 0.0000002758678045 -0.0000000509892020 -0.0000004279732721 0.0105167619667631 3.7204739306209103 3.8814697736539006 0.0000211278593701 2.3534726504423706 0.7736870124583729 0.0000000000000066 11.7157977337137993 -5.5310833642853590 10.5249147309705116 
27 3 0.0000003281219757 0.0000001497070172 -0.0000000448275526 5.8198018690848281 3.5284192189599435 5.0422855198102132 0.0000248371374431 2.2578707798222331 0.6771525725759077 -0.0000000000000006 -0.8618273653651940 -12.1700711474618863 -13.8690769171410384 
28 3 -0.0000002712015678 0.0000000217660828 -0.0000001340453927 2.9108987033918825 8.2566511390376434 2.5505761485730178 0.0000206006904632 2.4180353745728840 0.7576902075427165 -0.0000000000000040 -0.0161283312865456 18.4396049700871103 -10.0101853619516792 
29 3 -0.0000002573464735 0.0000001679734223 -0.0000000209117111 4.1610493149274879 2.3192538113972780 5.2430982160589936 0.0000249499756821 2.2988628106131754 0.7467672696722963 -0.0000000000000021 4.5954408688181188 -14.1006948804709484 -5.7255793752627362 
30 3 -0.0000002585566737 -0.0000001607127857 0.0000002865232205 3.0751908899942086 6.2835060983738202 6.7727289175294905 0.0000274998825636 2.1646551453596787 0.6426571180065876 -0.0000000000000072 9.6010253845348323 14.6090239685893089 5.5529462062306107 
31 3 -0.0000000066680615 0.0000001210891010 0.0000001945263943 5.5347270976059333 2.2947045520015101 0.1445123504239184 0.0000260943923078 2.1622014759745540 0.6037121152494644 -0.0000000000000009 -24.4304318168479355 21.7741933298951871 1.4405207951424073 
32 3 -0.0000003413359103 0.0000006326502700 0.0000002876975187 2.2574083297213536 0.2847808103441842 6.4850912246089480 0.0000252037840624 2.2116219739582963 0.6411320717444616 -0.0000000000000006 2.2879906370695844 -15.6591134935278227 18.8064383238938895 
33 3 -0.0000006524425818 -0.0000005455852329 -0.0000005763260805 2.2379201799564861 4.4720217868297016 3.6861446242498963 0.0000229530638404 2.2181628381268386 0.6205459972131856 0.0000000000000175 3.2360192504472116 24.9526682834499809 14.4660806110568831 
34 3 0.0000006287438132 0.0000004990432184 0.0000014432632880 0.2534899657816552 8.1534395469061547 7.9602083065389593 0.0000242565792010 2.1953203171445015 0.5675647498938570 0.0000000000000262 13.9043267781941182 -30.9873907602456917 -21.2122715858391118 
35 3 -0.0000002360006414 -0.0000003468945161 0.0000001752295837 0.1800066086938942 7.7376627933644393 6.0583743660942888 0.0000316671319886 2.0947134252170265 0.5602163579197109 0.0000000000000036 11.8578916033155455 3.2319486330512603 -33.8951392428034737 
36 3 -0.0000000644193327 -0.0000000306349164 0.0000000427211054 4.6544319045572795 2.8999104663515385 2.3094959105124939 0.0000277136632738 2.1171113471766407 0.5431231548187547 -0.0000000000000109 -5.1550447271068318 -7.8347515518496786 7.7427500111898322 
37 3 -0.0000000410439683 -0.0000000126465114 -0.0000004643341660 7.3562198098619467 7.9326429699286640 4.5083116668129444 0.0000278480489604 2.1451874663602197 0.6380448822216608 0.0000000000000025 -24.3424348764178440 -0.9681582612837670 4.9929766137589375 
38 3 -0.0000000646479930 0.0000001206679994 0.0000002235640184 6.3272468795946963 0.5933784472286248 7.6612197093780621 0.0000275810294195 2.1594849922519845 0.6448427431118776 0.0000000000000017 -17.2247520261241540 -2.7511119282905296 29.7523830467887365 
39 3 -0.0000000359594613 0.0000000928816350 0.0000002409394978 6.2830583577871071 0.5406497026648384 8.0212984515792556 0.0000273933931499 2.1648628924672204 0.6658283609153294 0.0000000000000004 7.6542524132342802 0.1905940630128477 -6.6629961744046309 
40 3 -0.0000000448719890 0.0000001218550587 0.0000000297878736 5.1173083849831364 2.2497665837015566 2.6104595557289327 0.0000270982382386 2.1320178537720516 0.5376547692689883 -0.0000000000000068 7.1778744738210536 6.8043421393299788 -1.9037616816291558 
ITEM: TIMESTEP
1
ITEM: NUMBER OF ATOMS
40
ITEM: BOX BOUNDS pp pp pp
0.0000000000000000e+00 8.3480326719615103e+00
0.0000000000000000e+00 8.3480326719615103e+00
0.0000000000000000e+00 8.3480326719615103e+00
ITEM: ATOMS id type fx fy fz x y z rho_SPH width_SPH omega_SPH u_SPH vx vy vz 
1 1 0.0000000000000000 0.0000000000000000 0.0000000000000000 3.3676919396049465 5.1072175783269058 7.0002769345430140 0.0000000000000000 1.5000000000000000 0.0000000000000000 0.0000000000000000 0.0685154867763447 -0.0041661889199873 -0.0302579635705916 
2 1 0.0000000000000000 0.0000000000000000 0.0000000000000000 1.5999398354333929 7.0590224244084343 5.8316641177774322 0.0000000000000000 1.5000000000000000 0.0000000000000000 0.0000000000000000 -0.0063559617387082 -0.0800543512185017 -0.0796633335162517 
3 1 0.0000000000000000 0.0000000000000000 0.0000000000000000 5.8004302857617933 2.7628389806338598 7.1116215084985130 0.0000000000000000 1.5000000000000000 0.0000000000000000 0.0000000000000000 0.0056719293257784 -0.0201965549341677 0.0351770975204570 
4 1 0.0000000000000000 0.0000000000000000 0.0000000000000000 3.8130185960966498 6.7519700709342514 0.9907348470683095 0.0000000000000000 1.5000000000000000 0.0000000000000000 0.0000000000000000 0.0250978385992731 -0.0194100934440950 -0.1208589251681385 
5 1 0.0000000000000000 0.0000000000000000 0.0000000000000000 5.1722826062313842 4.6847963184458745 7.4316462989537291 0.0000000000000000 1.5000000000000000 0.0000000000000000 0.0000000000000000 0.1203122900729023 -0.0074263503667667 0.1021973403117437 
6 1 0.0000000000000000 0.0000000000000000 0.0000000000000000 1.1039608372443599 6.5346621298282654 0.7579360874463741 0.0000000000000000 1.5000000000000000 0.0000000000000000 0.0000000000000000 -0.1222455454685703 0.0703107161931284 0.0023767033585618 
7 1 0.0000000000000000 0.0000000000000000 0.0000000000000000 1.4380722517827043 1.1211490022436610 4.2935069220856237 0.0000000000000000 1.5000000000000000 0.0000000000000000 0.0000000000000000 -0.0437246125549343 0.0296312221266695 -0.0257844474620106 
8 1 0.0000000000000000 0.0000000000000000 0.0000000000000000 6.1018962246559934 3.1017618656557242 1.4019079135284049 0.0000000000000000 1.5000000000000000 0.0000000000000000 0.0000000000000000 -0.0530925559376260 0.0088519443460776 0.1421653795108789 
9 1 0.0000000000000000 0.0000000000000000 0.0000000000000000 7.8627773412969404 4.3354927488928254 6.1202611331330390 0.0000000000000000 1.5000000000000000 0.0000000000000000 0.0000000000000000 -0.0652641056176275 -0.0139237388260643 0.0217759471363971 
10 1 0.0000000000000000 0.0000000000000000 0.0000000000000000 7.3111457884904345 3.2510721250162953 0.9128881107488400 0.0000000000000000 1.5000000000000000 0.0000000000000000 0.0000000000000000 0.0710852365431675 0.0363833950437072 -0.0471277981210461 
11 2 -0.0000000596253719 0.0000000482694960 -0.0000000410344900 5.0729879394298791 7.3404700208879605 4.6274860357137220 0.0000208280142944 2.7733881910370100 0.5171010720633279 0.0000000000000001 7.6287984001837659 14.0763125270745793 -5.0209322839113639 
12 2 -0.0000000479679035 -0.0000000044145608 0.0000000073398834 4.7309277502715581 3.3326238278401052 0.6115091726103562 0.0000185175029060 2.7268264839099561 0.4532070060549495 -0.0000000000000067 0.2413316460584454 5.2490599342714255 27.7600348141870334 
13 2 -0.0000001002629134 -0.0000001099336091 -0.0000000665628382 2.2360465103888165 6.5905360195375042 5.5014021538881650 0.0000216013703480 2.6193675771295748 0.4289130605949411 0.0000000000000075 -4.4282834169994629 -1.6300797292241160 -3.6872592404378821 
14 2 -0.0000000344129841 -0.0000000418929499 -0.0000000734691027 2.4137195752523395 5.5197253951588445 5.5805304807706442 0.0000205593966742 2.6669268954755756 0.4558900025809585 0.0000000000000022 -28.8577094985791796 -16.8867931363813959 -18.9062050622492741 
15 2 0.0000000991232106 -0.0000000738130020 -0.0000000658577775 7.7296979368121708 5.1314647218524225 5.2616137816720627 0.0000195801973636 2.8010192234453468 0.5241907647870900 -0.0000000000000016 5.6725837367248486 7.1189045864924090 -11.2858299997065430 
16 2 -0.0000001072244710 -0.0000001273568641 -0.0000001269967089 3.2729543449203256 4.8021265709940124 4.0467544513677458 0.0000181923605443 2.7407770244848697 0.4364965202005881 -0.0000000000000023 0.2711548851218450 -7.1862777436074552 -14.7261801540958377 
17 2 0.0000001708312803 -0.0000000086226044 0.0000000261055624 6.7794638777699285 4.5463731278507229 7.5910634912165991 0.0000180561691737 2.8360249430387610 0.5101933999111649 -0.0000000000000113 28.4901813084505342 1.7848644467785202 7.1980517796637384 
18 2 0.0000000931650290 0.0000000003214176 0.0000000634573511 6.2854106413218052 0.9051135949870660 3.0655586572579305 0.0000180710088294 2.7870787721819825 0.4681092536416078 0.0000000000000022 12.4433134705102830 8.8935552587850530 -5.2743805461549407 
19 2 0.0000002557637248 -0.0000002248034086 0.0000004449703235 8.3067342373085076 5.9573762501467016 8.1468341332103034 0.0000163584819523 2.9147118525865996 0.5056880573651718 -0.0000000000000024 -19.6831299062337592 8.6061049508966789 14.2867075639743977 
20 2 -0.0000000407345865 -0.0000000005135003 -0.0000001134986135 5.4238442751848970 6.7097403001573950 6.7403679850503684 0.0000212949437653 2.7128433077398180 0.4890071830882445 0.0000000000000038 -3.5986202243279983 1.6662612064769848 0.5331783054431078 
21 2 -0.0000000874640793 0.0000000407260415 -0.0000000859746797 4.9751475272442125 5.7523045748068675 0.1519354286581962 0.0000183685422250 2.8167188357282664 0.5102282126580199 -0.0000000000000026 22.2529116814601977 -3.4533678832237151 29.5442110068134269 
22 2 -0.0000000087452237 0.0000000951532254 -0.0000000600876141 4.6552033552754137 4.6452308624032126 1.9779265854600565 0.0000173132927230 2.7904015625050658 0.4587146021196307 -0.0000000000000009 6.6089624497676356 -6.4841028994112673 4.6990263832676948 
23 2 -0.0000000364017058 0.0000000843738537 -0.0000000173779844 1.3947932493502078 1.2685192427558623 0.6013964404838734 0.0000135166743552 3.0795218879420192 0.5120269074627826 0.0000000000000008 -30.9005714304210173 9.7209154753092815 6.2953376388054405 
24 2 -0.0000000049902631 0.0000000543793441 -0.0000002394878959 1.2042495576898506 0.0208454156367740 4.8454505175567126 0.0000203294923112 2.7055970104016631 0.4844811643238734 0.0000000000000052 15.8745643219973775 -28.8321903052680426 -16.2411935171295312 
25 2 0.0000001086792906 0.0000000167977822 -0.0000001683360821 7.5325900329760547 0.5444217043651145 4.4736274715754005 0.0000191195378404 2.7231788949792421 0.4660771247809697 -0.0000000000000055 -12.0154874237124893 7.3568333110301207 -15.1745666884709340 
26 3 0.0000001850068803 0.0000000213053374 -0.0000000634063478 0.0105167736825609 3.7204739250898271 3.8814697841788153 0.0000168981978199 2.9518853457393002 0.5686111071915477 0.0000000000000097 11.7157977337141936 -5.5310833642853847 10.5249147309700906 
27 3 0.0000000823046135 0.0000000171844247 -0.0000000052977200 5.8198018682230011 3.5284192067898723 5.0422855059411367 0.0000188457554946 2.8137028869119680 0.4902459968353259 -0.0000000000000011 -0.8618273653648432 -12.1700711474617442 -13.8690769171410828 
28 3 -0.0000000882322236 0.0000000315466439 0.0000000560117646 2.9108987033757541 8.2566511574772488 2.5505761385628323 0.0000163388878070 3.0036469512516750 0.5364247929799777 -0.0000000000000052 -0.0161283312868528 18.4396049700871565 -10.0101853619517449 
29 3 -0.0000000444534024 0.0000000045415045 0.0000000011822239 4.1610493195229283 2.3192537972965832 5.2430982103334145 0.0000199518307936 2.8360953294550271 0.5471329598078429 -0.0000000000000028 4.5954408688178603 -14.1006948804708010 -5.7255793752627531 
30 3 -0.0000000669774696 -0.0000000265836102 -0.0000000233079884 3.0751908995952340 6.2835061129828444 6.7727289230824370 0.0000206200599204 2.7090763896293915 0.4977081322909108 -0.0000000000000074 9.6010253845345552 14.6090239685891490 5.5529462062308363 
31 3 -0.0000000274201030 0.0000000174373850 0.0000000476623311 5.5347270731755014 2.2947045737757032 0.1445123518644392 0.0000189328970667 2.7324828448063916 0.4765017810901526 -0.0000000000000008 -24.4304318168479675 21.7741933298953043 1.4405207951426142 
32 3 -0.0000001049382808 0.0000001327410313 0.0000000039326210 2.2574083320093443 0.2847807946850707 6.4850912434153862 0.0000186528465543 2.7788442825657347 0.4793004161807685 -0.0000000000000003 2.2879906370692029 -15.6591134935271690 18.8064383238941382 
33 3 -0.0000002964148347 -0.0000001546667279 -0.0000000976708372 2.2379201831925055 4.4720218117823700 3.6861446387159771 0.0000164856892104 2.8287526371309868 0.4677651099387087 0.0000000000000262 3.2360192504464012 24.9526682834493840 14.4660806110563076 
34 3 0.0000003457241265 0.0000003428023304 0.0000007165907006 0.2534899796859820 8.1534395159187643 7.9602082853266873 0.0000168242645172 2.7877207318129473 0.4125000574521136 0.0000000000000438 13.9043267781949496 -30.9873907602449741 -21.2122715858372679 
35 3 -0.0000001251136764 -0.0000002053825030 -0.0000000008789394 0.1800066205517858 7.7376627965963882 6.0583743321991497 0.0000228292819813 2.6023178227598538 0.4339824386592050 0.0000000000000064 11.8578916033152364 3.2319486330507883 -33.8951392428033245 
36 3 0.0000000199199738 -0.0000000442161504 -0.0000000177619134 4.6544318994022351 2.8999104585167870 2.3094959182552439 0.0000193360305061 2.6769144770358286 0.4286275797553508 -0.0000000000000175 -5.1550447271068700 -7.8347515518497426 7.7427500111898535 
37 3 0.0000000489811789 0.0000000379599007 -0.0000000367581531 7.3562197855195119 7.9326429689605060 4.5083116718059211 0.0000209010281483 2.6914938245715820 0.5105255441586121 0.0000000000000011 -24.3424348764178369 -0.9681582612837454 4.9929766137585094 
38 3 -0.0000000729994643 0.0000000239169521 0.0000000069810067 6.3272468623699440 0.5933784444775129 7.6612197391304449 0.0000206300690946 2.7045898624709732 0.4910808281274070 0.0000000000000028 -17.2247520261242748 -2.7511119282904062 29.7523830467889354 
39 3 -0.0000000684770272 0.0000000470009287 -0.0000000210269088 6.2830583654413594 0.5406497028554325 8.0212984449162601 0.0000208238023108 2.7110261247788250 0.5157865460343120 -0.0000000000000006 7.6542524132341905 0.1905940630129673 -6.6629961744044426 
40 3 0.0000000133566760 0.0000000057418915 -0.0000000494411732 5.1173083921610107 2.2497665905058986 2.6104595538251711 0.0000186688838925 2.6964275075133486 0.4030295633944529 -0.0000000000000096 7.1778744738210269 6.8043421393300880 -1.9037616816291725 
