ITEM: TIMESTEP
0
ITEM: NUMBER OF ATOMS
216
ITEM: BOX BOUNDS pp pp pp
0.0000000000000000e+00 1.5969212012997900e+01
0.0000000000000000e+00 1.5969212012997900e+01
0.0000000000000000e+00 1.5969212012997900e+01
ITEM: ATOMS id type fx fy fz x y z rho_SPH width_SPH omega_SPH u_SPH vx vy vz 
13 1 -0.0259115471159446 0.2092690595572121 -0.1206481580770754 2.6361213437688091 2.4354808611614263 1.1889211753213957 0.0000300262341688 2.8271118385544680 0.7105022869515256 0.0000000000000000 -0.0000000000000000 -0.0000000000000000 0.0000000000000000 
31 1 0.0620000133794269 -0.0703719849503182 -0.1583325389953527 5.2029980897876653 2.2314349359550083 1.9691513635513795 0.0000300545004596 2.8429030742895374 0.7947163252401983 0.0000000000000000 -0.0000000000000000 -0.0000000000000000 0.0000000000000000 
36 1 -0.0826482870406210 0.3343197328838879 0.0634449294823120 1.8784096760113662 5.0544341163284887 4.8510119060967218 0.0000257139702210 2.8862632393180077 0.6954027646038717 0.0000000000000000 -0.0000000000000000 0.0000000000000000 0.0000000000000000 
39 1 0.0872937439393753 -0.2335593781944920 -0.0234477569949904 3.1046737749230968 0.0372201614295236 4.3432495749246121 0.0000318136179932 2.8002908104245225 0.6826103254341860 0.0000000000000000 0.0000000000000000 0.0000000000000000 0.0000000000000000 
67 1 -0.0474624482996727 0.0665938012008201 -0.0402571564876934 1.2888110541140345 0.9357838815836910 2.8463526362173872 0.0000326425535566 2.7861226922191458 0.6594570547227955 0.0000000000000000 -0.0000000000000000 0.0000000000000000 -0.0000000000000000 
79 1 -0.0477591084774922 0.1346148157427034 -0.0090199044937090 2.3752104248063439 1.7170366405657966 3.1455585541284452 0.0000321820327244 2.7930796803429256 0.6657204962563317 0.0000000000000000 -0.0000000000000000 0.0000000000000000 0.0000000000000000 
96 1 -0.2185717688295531 0.1439850537378496 -0.0160145213917984 0.3033308348367855 2.0702141513291785 5.1003923391945616 0.0000298617529383 2.8343010279287748 0.7380869200971248 0.0000000000000000 0.0000000000000000 0.0000000000000000 -0.0000000000000000 
159 2 -0.1126925881661916 0.2285817312457455 -0.0898581246586827 4.2229015164229260 4.5271130953891596 1.5701811674610244 0.0000273913266084 2.8835259548146874 0.7968672781736285 0.0000000000000000 0.0000000000000000 0.0000000000000000 -0.0000000000000000 
168 2 -0.0310402374864840 0.0419843771119143 -0.0501907671177705 1.9536597076398867 1.1060868000160622 4.6991530523529468 0.0000320456187173 2.7978250441077233 0.6815126953963925 0.0000000000000000 0.0000000000000000 0.0000000000000000 -0.0000000000000000 
174 2 -0.0338018075539803 0.0607692412525739 -0.0047193028179836 2.1891396860517900 1.2525294212906883 3.1176423843848582 0.0000327725414667 2.7854817501791418 0.6639076892159267 0.0000000000000000 0.0000000000000000 -0.0000000000000000 -0.0000000000000000 
182 2 0.0230376917632866 0.1108252105833848 0.0031399142427521 1.1696872460208181 0.7111354165445287 1.0675757255308793 0.0000321585936543 2.7990538961148408 0.7081374313712513 0.0000000000000000 -0.0000000000000000 -0.0000000000000000 0.0000000000000000 
185 2 -0.1647985292132147 0.3318645635136103 -0.0615723231448721 0.1084589493272304 3.8574590681280578 4.6827534387619840 0.0000269878480242 2.8804897143103614 0.7678525443600329 0.0000000000000000 0.0000000000000000 0.0000000000000000 0.0000000000000000 
196 2 0.1218413772197418 -0.1539727183069332 -0.1835950616955509 4.8123200184050772 0.8657671358197940 0.9207228163636827 0.0000282801855982 2.8665634885780538 0.7804589315188201 0.0000000000000000 -0.0000000000000000 0.0000000000000000 0.0000000000000000 
30 1 -0.0923167593870021 0.2154548269887809 -0.1874922485382242 6.6586208258604165 4.7403695106737409 3.3926083711503572 0.0000301483901816 2.8358403246084380 0.7644206734193816 0.0000000000000000 -0.0000000000000000 0.0000000000000000 0.0000000000000000 
34 1 -0.1708426517439054 -0.1385193854334449 -0.0477829474492351 7.9160441021429051 1.7109833904724101 0.0839693004117784 0.0000303519979102 2.8233311977555831 0.7192649620940785 0.0000000000000000 -0.0000000000000000 0.0000000000000000 0.0000000000000000 
57 1 -0.0565139973208748 -0.1698795537144039 0.1033875347420487 9.6462616477765977 0.9722536806888668 1.6560860019384505 0.0000307360155434 2.8170625526044994 0.7029934442707644 0.0000000000000000 -0.0000000000000000 0.0000000000000000 -0.0000000000000000 
108 1 0.0085118322445168 -0.1219333197682509 0.0126641352897281 9.1426822524358702 1.5198503500788094 2.9242808349316811 0.0000306245316103 2.8232420946932657 0.7280653098761704 0.0000000000000000 0.0000000000000000 -0.0000000000000000 0.0000000000000000 
123 2 0.1454216134848336 0.0376455031261600 -0.1908310816894620 9.8400127097555288 4.3635750867789449 5.1248068195321110 0.0000323571183618 2.7994322080477616 0.7265575995464791 0.0000000000000000 0.0000000000000000 0.0000000000000000 0.0000000000000000 
154 2 -0.0982281792472881 0.2648889869844095 -0.1479245451725147 5.3358651614453931 4.3130362093824077 1.2529048075334386 0.0000277330677917 2.8753999720101735 0.7812424582964170 0.0000000000000000 0.0000000000000000 0.0000000000000000 -0.0000000000000000 
184 2 0.1075694267302972 0.2219647719113734 0.0035615387071589 9.3941946961059255 3.8138622158425504 1.3485064280227250 0.0000303394698538 2.8182852136112966 0.6812980953884006 0.0000000000000000 -0.0000000000000000 -0.0000000000000000 -0.0000000000000000 
188 2 0.2297301883713394 0.1845987079779363 -0.2297460794635486 10.4806834107629747 5.2223092484897879 5.1455808672588805 0.0000306415356245 2.8211465320429285 0.7272698473715676 0.0000000000000000 -0.0000000000000000 -0.0000000000000000 -0.0000000000000000 
207 2 0.0519192005889702 0.1027007066067506 -0.0963545391213352 8.7888734296514759 3.6478947129879340 3.6994596532051305 0.0000317111143464 2.8044270505737341 0.6996092071492718 0.0000000000000000 0.0000000000000000 -0.0000000000000000 -0.0000000000000000 
66 1 0.0968205789735458 -0.1778511232857106 0.1263290003289066 10.9931534268240796 0.8525834684028681 3.3704427237371757 0.0000296250601400 2.8426310050113948 0.7673370163656360 0.0000000000000000 0.0000000000000000 -0.0000000000000000 0.0000000000000000 
114 2 0.1787458593764406 0.3779264251349425 0.1527067024433320 10.6621289753141841 4.2281178530907173 0.1995464571261551 0.0000281978348715 2.8566656352812636 0.7304039070159363 0.0000000000000000 -0.0000000000000000 -0.0000000000000000 0.0000000000000000 
143 2 0.1134361658722380 0.1900199381459705 0.0880057973747497 11.5846102649845140 2.2813169683743180 1.5246117912735593 0.0000297619247616 2.8369643148964956 0.7378086962099915 0.0000000000000000 0.0000000000000000 0.0000000000000000 -0.0000000000000000 
155 2 -0.0736273828675489 -0.0470598730534972 0.1030495350312490 14.3818450127962656 0.0310165897362293 3.7741347349607790 0.0000288310804298 2.8556762099235495 0.7788998669263691 0.0000000000000000 0.0000000000000000 -0.0000000000000000 0.0000000000000000 
210 2 -0.0027794381051872 0.0855869019943563 0.0821736551945494 13.6169654385163135 1.8385902468521633 4.0240726535412739 0.0000284266788885 2.8680299382066736 0.8031537835571236 0.0000000000000000 0.0000000000000000 -0.0000000000000000 -0.0000000000000000 
41 1 -0.0865253672752628 -0.0531764775508054 -0.0732727850084390 1.0479823628532303 7.8307292796942871 1.6228118483354246 0.0000225865010119 2.9520763870661191 0.7220932943428091 0.0000000000000000 0.0000000000000000 -0.0000000000000000 -0.0000000000000000 
76 1 -0.0110206520363011 0.1514333658513919 0.0187673636562052 5.2670174663807234 8.4514012314872691 2.5424192640078478 0.0000224223086718 2.9913209730030657 0.8406063221526674 0.0000000000000000 0.0000000000000000 -0.0000000000000000 0.0000000000000000 
77 1 -0.0709353243722711 0.1866657919529655 0.0077744572478181 1.8873348212906433 5.5972871890823601 3.3157547005407313 0.0000248909137118 2.9070925155333383 0.7188468473978936 0.0000000000000000 0.0000000000000000 -0.0000000000000000 0.0000000000000000 
131 2 0.1450766363654168 -0.2062946415589350 0.0279276140502021 2.2808236366898487 10.2169387683069868 0.1370995980355691 0.0000248796069687 2.8941802640721965 0.6602853695260970 0.0000000000000000 0.0000000000000000 -0.0000000000000000 -0.0000000000000000 
139 2 -0.1286664891469694 0.1315948141798381 0.0725875935109467 1.5079583806025718 6.7640735488577040 3.8081683671778412 0.0000231898352724 2.9360546381498320 0.7127699087777482 0.0000000000000000 -0.0000000000000000 -0.0000000000000000 -0.0000000000000000 
202 2 -0.0241824935534435 -0.0492918874339614 -0.1174438337208844 2.5168297745906680 7.5777065810084601 0.5582900381492495 0.0000223449827188 2.9733848771241407 0.7800661215229804 0.0000000000000000 -0.0000000000000000 0.0000000000000000 0.0000000000000000 
2 1 0.0687372465573226 0.3084724140815142 -0.0643794005470786 8.8955131783415684 6.5118506223968442 0.9718530812322836 0.0000249505053659 2.9233282313665114 0.7885038582222351 0.0000000000000000 -0.0000000000000000 0.0000000000000000 0.0000000000000000 
12 1 -0.0212324103293739 0.3277093270130672 -0.0865660109115483 8.9202222289108306 8.8118917869554956 3.9482139086175807 0.0000227843339081 2.9542787005273512 0.7378341486716679 0.0000000000000000 -0.0000000000000000 -0.0000000000000000 0.0000000000000000 
17 1 -0.1013513275015658 0.2741375999483469 -0.0899697891098963 6.1599567082886084 8.4847428884159299 4.3037888204183012 0.0000230909050829 2.9533271971224484 0.7675455104392789 0.0000000000000000 0.0000000000000000 0.0000000000000000 0.0000000000000000 
64 1 -0.0391670689799653 0.2961368585213249 -0.1718022690988121 8.0166583706572592 6.8266267791423569 2.7114724225449054 0.0000260242795463 2.8922773523435179 0.7406711896581654 0.0000000000000000 0.0000000000000000 0.0000000000000000 0.0000000000000000 
119 2 0.0537134279033765 0.1790609473729373 -0.2336678503369433 9.0507396377378626 5.6662364871297255 4.3786141247462238 0.0000306263229545 2.8111037481722407 0.6630850067600356 0.0000000000000000 -0.0000000000000000 0.0000000000000000 0.0000000000000000 
152 2 0.2289025971705899 0.2250759430997175 -0.1481000108986034 10.2558206748221163 5.3797299948548964 2.5342630759497951 0.0000274947000212 2.8689608254531374 0.7506047460248871 0.0000000000000000 -0.0000000000000000 0.0000000000000000 -0.0000000000000000 
216 2 0.0802565777937578 0.1394079984555685 -0.2181960496126018 9.2781224781070719 5.4814335942591299 3.9163757933032772 0.0000299938638387 2.8199124015445527 0.6692362179727698 0.0000000000000000 0.0000000000000000 0.0000000000000000 -0.0000000000000000 
20 1 -0.0307053153042181 -0.0186281707046996 0.1662853581883038 13.8334013116745904 9.8181480783910615 3.5322387953535577 0.0000221867393782 2.9672939410399000 0.7648709658344583 0.0000000000000000 -0.0000000000000000 0.0000000000000000 -0.0000000000000000 
21 1 -0.0514842694750648 -0.1318119367752534 0.1256757898632555 13.8752571485026674 9.1822931020226761 2.7027772792241258 0.0000222185006155 2.9506992001171799 0.6983547170568227 0.0000000000000000 0.0000000000000000 -0.0000000000000000 0.0000000000000000 
102 1 -0.0398811643289929 0.0151163516795482 0.0182741932232652 14.8935880810876284 7.3370627597235476 3.1276064858534944 0.0000216195274810 2.9838450071775564 0.7683188401185658 0.0000000000000000 -0.0000000000000000 -0.0000000000000000 0.0000000000000000 
169 2 -0.0073586073672326 0.2759083057461708 0.0634226357915036 15.6881866710235851 5.8635329601031936 5.1465311655147996 0.0000232629059200 2.9425275824626755 0.7570933512564734 0.0000000000000000 -0.0000000000000000 -0.0000000000000000 0.0000000000000000 
178 2 -0.1506903937378651 -0.1095413986345552 0.1148845460301065 12.6533547433074993 10.0129102350153545 2.2877029052055771 0.0000228137333462 2.9391171967397254 0.7050549099489757 0.0000000000000000 0.0000000000000000 0.0000000000000000 -0.0000000000000000 
194 2 -0.0706162496925705 -0.2834293000336164 0.0919260509886630 15.0661940002525210 10.2030572022459491 0.9544775753706874 0.0000254865021279 2.8769970334466590 0.6199416920187003 0.0000000000000000 0.0000000000000000 -0.0000000000000000 -0.0000000000000000 
37 1 0.1523697165402819 -0.2793463534142533 0.1618366405988603 2.3399531441569121 13.0984470661995385 3.3358820496504484 0.0000270947681884 2.8700946195445400 0.7168460295957789 0.0000000000000000 0.0000000000000000 0.0000000000000000 -0.0000000000000000 
45 1 0.2360932077998928 -0.1175085916338454 0.0398282708832509 3.8143764359531422 11.2404775261117376 0.8796568816213481 0.0000245866113143 2.9171133616215208 0.7482006953571533 0.0000000000000000 -0.0000000000000000 -0.0000000000000000 0.0000000000000000 
89 1 0.2211862668281032 -0.1559958202259052 0.0768643325254633 2.5051147371778919 13.6505779802884231 2.0421593557663500 0.0000286081269569 2.8459095333036686 0.7021965963228212 0.0000000000000000 -0.0000000000000000 0.0000000000000000 0.0000000000000000 
141 2 0.2088527307004961 -0.2570003273094205 0.1242809347911610 2.5575871080487405 11.4618389076841876 1.6897576812830561 0.0000258298682782 2.8863830787021545 0.7015769210417472 0.0000000000000000 0.0000000000000000 -0.0000000000000000 0.0000000000000000 
148 2 0.0415400292762705 -0.2073198070030689 0.1150814529280624 1.0077469276524043 10.7144834971497396 1.6724991361834929 0.0000262400090825 2.8755696060892819 0.6747464121734108 0.0000000000000000 -0.0000000000000000 -0.0000000000000000 0.0000000000000000 
190 2 -0.1557486512992037 -0.0155057953827505 0.0557077950092630 0.0454527159036751 15.8464604790093571 2.5115546202012164 0.0000314407202129 2.8081711303145265 0.7103458131446685 0.0000000000000000 -0.0000000000000000 -0.0000000000000000 0.0000000000000000 
197 2 0.2261056476385624 -0.2212572267750661 0.0044742236294625 3.4935909632265636 14.7759627396488966 1.8520586157164081 0.0000290585472137 2.8463043227006599 0.7395940454423786 0.0000000000000000 0.0000000000000000 0.0000000000000000 0.0000000000000000 
199 2 0.2168850074384021 -0.2151531942839639 0.1261198388029442 4.8899049341152363 11.6366646316002420 3.6216079770011946 0.0000207990012228 3.0061012239080025 0.7673212300760605 0.0000000000000000 -0.0000000000000000 0.0000000000000000 0.0000000000000000 
213 2 -0.0176378113839280 -0.2689768974155953 0.2343030159824615 1.3803908297089655 13.2407119156552149 3.4764967845400818 0.0000275771580378 2.8697969077232917 0.7521486686803450 0.0000000000000000 -0.0000000000000000 0.0000000000000000 0.0000000000000000 
11 1 -0.1381215443822537 -0.1169786689738561 0.0445693312409172 9.3253860261421728 11.1026805493046599 0.3719277500135310 0.0000216838947975 2.9766703479245176 0.7526252227198201 0.0000000000000000 0.0000000000000000 0.0000000000000000 -0.0000000000000000 
95 1 -0.1590431523599007 -0.1017978927429625 0.1389914731848781 9.8836467394396852 11.2293233515197457 1.2761902913473027 0.0000217266873770 2.9660659475117104 0.7251777862377322 0.0000000000000000 0.0000000000000000 -0.0000000000000000 -0.0000000000000000 
104 1 -0.1048851583192841 -0.2900134803741508 -0.0017338138149585 8.2810742589182809 15.2414753880166192 1.5767585588810509 0.0000266040125234 2.8911073405343206 0.7801199593685922 0.0000000000000000 -0.0000000000000000 -0.0000000000000000 0.0000000000000000 
111 2 0.1915323673669585 -0.3156214317719429 -0.0292731821491055 5.4540856428077742 15.9263911394626003 4.7095784922096406 0.0000284800114751 2.8576593419025569 0.7511997620138210 0.0000000000000000 0.0000000000000000 -0.0000000000000000 0.0000000000000000 
128 2 -0.0055303250582823 -0.4280788899881122 0.0958351897049221 9.2640109140036628 15.2303085011066361 4.9584168850284183 0.0000249377717198 2.9214942637019856 0.7826681251563934 0.0000000000000000 0.0000000000000000 0.0000000000000000 0.0000000000000000 
138 2 -0.1394345973621833 -0.0933537379469058 0.1014011905819531 9.5689793423487171 11.9001609668728747 2.7332749658015043 0.0000210024558005 2.9942404101044175 0.7734377926534146 0.0000000000000000 0.0000000000000000 -0.0000000000000000 -0.0000000000000000 
150 2 -0.1439999238154867 -0.2892400707690361 0.0523583305107023 9.2209816665065230 14.4835620506394793 1.2961761665410674 0.0000248454968074 2.9067733029671921 0.7030419433231510 0.0000000000000000 0.0000000000000000 0.0000000000000000 0.0000000000000000 
153 2 0.1532818087253054 -0.2348334845468788 0.0342785564841004 5.8220224739969941 13.5549324134110840 3.4027457451982333 0.0000227851604548 2.9663602476626574 0.7809237838326756 0.0000000000000000 -0.0000000000000000 -0.0000000000000000 0.0000000000000000 
22 1 -0.1147256927356082 -0.0991257461988050 0.1988981261277880 14.1414523710621669 14.6534272280662687 1.8098177211459494 0.0000296561689212 2.8491402729226154 0.7987331247123201 0.0000000000000000 -0.0000000000000000 -0.0000000000000000 0.0000000000000000 
52 1 -0.0555703157541139 -0.0150131775444019 0.1071842261521253 10.9816819782723485 11.3169372678468445 2.8973527791211500 0.0000215252996156 2.9727404801509603 0.7373990298710835 0.0000000000000000 0.0000000000000000 0.0000000000000000 0.0000000000000000 
61 1 -0.2163425562479292 -0.1602724850087300 0.1768363353266934 11.6964613209835910 11.6274924152720054 1.6188395764013168 0.0000238523370556 2.9199618312955646 0.7013080873181643 0.0000000000000000 0.0000000000000000 0.0000000000000000 -0.0000000000000000 
145 2 -0.0929994364502445 -0.1378710624389264 0.0993292786688208 12.7722267172933837 15.2360146761612238 0.4150656383812812 0.0000313711450059 2.8203728417677905 0.7781037769690461 0.0000000000000000 -0.0000000000000000 -0.0000000000000000 0.0000000000000000 
147 2 -0.1928900260696937 -0.2376832131515423 0.1490612446879201 11.1218360463273793 14.1491541978832736 0.9593627533379835 0.0000276536241247 2.8676365250077751 0.7417650914112518 0.0000000000000000 -0.0000000000000000 0.0000000000000000 -0.0000000000000000 
181 2 -0.1203756067883830 -0.0415048466934692 0.1491806423415085 14.7955427392976411 15.6572399843092693 2.9263219504936591 0.0000295400551767 2.8427483154847657 0.7633265796582824 0.0000000000000000 0.0000000000000000 -0.0000000000000000 -0.0000000000000000 
193 2 -0.0413859905372569 -0.2093159025028095 0.0451858069076975 15.4592060462148773 10.9793445314293105 0.5233444758326222 0.0000273052658085 2.8534124915879708 0.6401781731881503 0.0000000000000000 0.0000000000000000 0.0000000000000000 -0.0000000000000000 
26 1 -0.1499347654898663 0.3422777573682675 0.1052550794202556 2.4917493202046721 4.7889337415685622 5.8734568254391517 0.0000260764923850 2.8906600926342181 0.7395880220862702 0.0000000000000000 0.0000000000000000 -0.0000000000000000 -0.0000000000000000 
72 1 -0.0291777104877702 0.0660542892085244 0.0997447563249267 4.8307181201875249 2.6821761313516519 8.6021792071011625 0.0000293613222517 2.8465691081339775 0.7692692154729154 0.0000000000000000 0.0000000000000000 -0.0000000000000000 -0.0000000000000000 
140 2 0.0080841095103859 0.0110769539830271 0.0669340671062415 5.0670367283164994 1.6163200305081564 5.9365037069862741 0.0000308818287371 2.8267295409672646 0.7715796078948736 0.0000000000000000 -0.0000000000000000 0.0000000000000000 -0.0000000000000000 
156 2 0.0537548799069547 0.4013422633415769 0.0360226857130699 1.3652973821955643 3.0400369616887217 10.3609537040346158 0.0000271453138357 2.8814105598620063 0.7771364480540148 0.0000000000000000 0.0000000000000000 -0.0000000000000000 -0.0000000000000000 
164 2 -0.1673117808951874 0.3582180097908659 0.0741036067399346 0.9684708211808554 3.3987675505809620 5.6129014725290425 0.0000283602167164 2.8602094167315038 0.7665541362442259 0.0000000000000000 -0.0000000000000000 -0.0000000000000000 0.0000000000000000 
173 2 0.0901812655789269 0.1440665289660501 -0.0021832946732802 2.1328426651614585 1.2997749665430209 10.3446841015586148 0.0000311188089403 2.8119381162410813 0.7126208041304132 0.0000000000000000 0.0000000000000000 -0.0000000000000000 0.0000000000000000 
16 1 -0.2001051996562504 0.0674169200047520 0.0329859300453030 5.7970708277526901 4.2992747002808738 6.4728080252631237 0.0000308288398551 2.8271148564932878 0.7759808316982972 0.0000000000000000 -0.0000000000000000 -0.0000000000000000 -0.0000000000000000 
40 1 -0.1165244022501928 0.0572897806657810 0.0646074005343816 6.0815750436211102 3.9987583945216385 6.0275853801133117 0.0000314179986951 2.8198549765776688 0.7780518692098615 0.0000000000000000 0.0000000000000000 -0.0000000000000000 -0.0000000000000000 
55 1 0.0742764934519433 -0.3820159854213034 0.0704166767639383 7.7165502870387748 0.1960897575709414 6.1317360113756534 0.0000269788077350 2.8821864596633553 0.7662593460807524 0.0000000000000000 -0.0000000000000000 -0.0000000000000000 0.0000000000000000 
65 1 -0.0329525279235229 -0.3242872262610793 0.0015460129402850 9.0945828774775102 1.3723054265718087 6.1663202846348151 0.0000298244113178 2.8387669403367335 0.7554733158661039 0.0000000000000000 -0.0000000000000000 0.0000000000000000 -0.0000000000000000 
85 1 -0.0265420702760006 -0.2671483552362628 -0.0140596644304363 9.9049134616847905 2.4142832151613298 8.6737809556840553 0.0000319979348966 2.8097589103546143 0.7498161913968447 0.0000000000000000 0.0000000000000000 -0.0000000000000000 -0.0000000000000000 
103 1 -0.1493822356844986 0.1190987202400445 -0.0622742752621959 7.3389878046234429 5.2823237804432628 6.4435333686446876 0.0000320709916094 2.7994388447668750 0.6941659935926180 0.0000000000000000 0.0000000000000000 -0.0000000000000000 0.0000000000000000 
105 1 0.0194027041946795 -0.0296308021861843 0.0767225675724810 5.6799509175057867 2.0001974032104801 9.3575002159855991 0.0000287682252368 2.8503292824119635 0.7377260649419848 0.0000000000000000 0.0000000000000000 0.0000000000000000 -0.0000000000000000 
112 2 -0.1578960916669119 -0.0167662600530381 0.0949112679775563 7.9657330287040935 4.3391889882189432 10.1418142322747205 0.0000318565158193 2.8158542493037588 0.7832801317325624 0.0000000000000000 0.0000000000000000 -0.0000000000000000 -0.0000000000000000 
125 2 0.0410731673089509 -0.1636285215210561 0.1240526270348446 6.4350225909778711 1.2271075961338156 9.0828396357164127 0.0000283067508143 2.8599540997931854 0.7542700844863575 0.0000000000000000 -0.0000000000000000 0.0000000000000000 0.0000000000000000 
136 2 -0.1767869786076911 0.0143332196473530 0.1078611947957702 5.8086203406788774 4.0900056578390922 7.5754990467228884 0.0000305228318883 2.8337792303188891 0.7923039584067169 0.0000000000000000 0.0000000000000000 0.0000000000000000 0.0000000000000000 
158 2 -0.0702858582289088 -0.3380432906724846 -0.0108956010930004 8.5751208704116735 1.3185393649840202 8.1489605174619211 0.0000294072669880 2.8485136905764143 0.7788214584172384 0.0000000000000000 0.0000000000000000 0.0000000000000000 -0.0000000000000000 
8 1 0.1432470615377528 -0.1371567920765364 -0.1408921603729375 12.0411920715036000 1.6920365316773553 5.7684846350679413 0.0000296571501176 2.8379848968909007 0.7472727890990444 0.0000000000000000 -0.0000000000000000 0.0000000000000000 0.0000000000000000 
15 1 0.0261412053278126 -0.0640033850722024 -0.1439940318654752 14.3884500134284146 1.1467037740481651 8.5028193759392945 0.0000312822765713 2.8179102748389453 0.7595019878850904 0.0000000000000000 0.0000000000000000 0.0000000000000000 -0.0000000000000000 
19 1 0.0292785266659707 -0.0530613772043469 -0.1353085403976278 13.6616554374267203 1.4495749869192347 8.1112061096516843 0.0000313146419629 2.8149430831500202 0.7462006256682033 0.0000000000000000 -0.0000000000000000 0.0000000000000000 0.0000000000000000 
75 1 0.1063488604458952 0.2066495971537922 0.0337608044736207 12.1767120064756238 3.5920748396352362 10.4422404223805838 0.0000327748494364 2.7888360627513133 0.6881818554014123 0.0000000000000000 -0.0000000000000000 -0.0000000000000000 -0.0000000000000000 
87 1 0.0723128191078595 -0.0374798370255636 -0.1209882666646902 14.6620073845474916 0.7847443899219810 10.3391815386533583 0.0000326110831313 2.7981575974139266 0.7310862730080256 0.0000000000000000 -0.0000000000000000 -0.0000000000000000 -0.0000000000000000 
100 1 0.2489819568892664 0.2830563540440441 -0.0004690767735655 12.7913008369886008 4.4608044586358631 9.6457820200032831 0.0000301786313815 2.8250152872422225 0.7101018082496996 0.0000000000000000 0.0000000000000000 0.0000000000000000 0.0000000000000000 
127 2 0.0850870767290199 -0.2101779877804752 -0.0794371797580884 11.5509355588051079 1.6327068349592904 6.7059043624755281 0.0000306480952960 2.8227287599375326 0.7345518109686522 0.0000000000000000 0.0000000000000000 0.0000000000000000 0.0000000000000000 
166 2 -0.0479227108008064 -0.2782064767862950 -0.1004614295221852 12.4254130137174617 0.0522288756557039 7.0252537303384219 0.0000277780111252 2.8579168158930788 0.7102357398917779 0.0000000000000000 -0.0000000000000000 0.0000000000000000 -0.0000000000000000 
179 2 0.2906786325905045 0.1817850691811402 -0.0577578907459844 12.0003051542232626 4.7982255930943012 7.4716619124648513 0.0000307381417280 2.8268972109760915 0.7586570872123287 0.0000000000000000 -0.0000000000000000 -0.0000000000000000 0.0000000000000000 
204 2 0.0938904248131195 0.1445498820593986 -0.1100129955631672 13.3323494005362839 2.5205568037411261 9.6940020716598898 0.0000322753652085 2.7975020168353524 0.7016346922113325 0.0000000000000000 -0.0000000000000000 0.0000000000000000 0.0000000000000000 
205 2 0.0342986741899241 -0.0526032147962314 -0.1224775260188271 13.6876993476561335 1.5710371988422978 6.9144996259433924 0.0000299410972200 2.8339499325620858 0.7485340214602847 0.0000000000000000 0.0000000000000000 -0.0000000000000000 -0.0000000000000000 
4 1 -0.1639303271436869 -0.0997548826235631 -0.1408382996323726 4.6558786365175502 10.4912036368558255 10.5433852300193394 0.0000225622321126 2.9501286758371696 0.7191570672771955 0.0000000000000000 -0.0000000000000000 -0.0000000000000000 0.0000000000000000 
63 1 -0.0727590179289267 0.0526357970084549 0.1901461950277547 1.7831388627023663 8.3416095745264940 6.1962173481623770 0.0000197141091375 3.0279901711910191 0.7671041305669519 0.0000000000000000 0.0000000000000000 0.0000000000000000 -0.0000000000000000 
68 1 -0.1108132020652323 0.0753122639329981 0.0944738724420593 3.8821011304289819 9.1042019974808976 6.6107988296006557 0.0000208091069684 3.0046795529015631 0.7836585693099360 0.0000000000000000 0.0000000000000000 0.0000000000000000 0.0000000000000000 
91 1 -0.2754559320323238 0.2645290920311642 0.0336898964218262 3.9579265194058153 5.3478184271335216 5.5495089936986854 0.0000268964550659 2.8794458737201443 0.7427113017066554 0.0000000000000000 -0.0000000000000000 -0.0000000000000000 0.0000000000000000 
109 2 0.0630924369210275 0.2736950861486891 0.1641979632027011 0.0665226233290164 7.2319211989557957 7.4880482349728359 0.0000187897432150 3.0418496032018942 0.7429860166435235 0.0000000000000000 0.0000000000000000 -0.0000000000000000 -0.0000000000000000 
116 2 -0.1939619696248661 0.1320385421566323 0.0950139641397634 4.1932581730421754 8.8038048561308742 7.0743016318896617 0.0000215425206959 2.9868587342303403 0.7850718492976876 0.0000000000000000 -0.0000000000000000 0.0000000000000000 -0.0000000000000000 
6 1 -0.1737475187095181 0.2590305943339359 -0.0815607129106594 6.2723777790024924 9.0836147406155021 7.8451259407451506 0.0000238858461288 2.9232619109327382 0.7130339296392195 0.0000000000000000 0.0000000000000000 -0.0000000000000000 0.0000000000000000 
43 1 0.1045453147856497 0.3650672777516282 -0.0197682257423488 9.2579678137012174 7.0188369770349190 7.9921696992927105 0.0000307278325355 2.8102811077536027 0.6583112725447838 0.0000000000000000 0.0000000000000000 0.0000000000000000 -0.0000000000000000 
46 1 -0.0969167142393046 0.3287156660967976 -0.0991983003280619 7.8133274338256573 8.5926347648547949 6.5499483363276036 0.0000255304887570 2.8891207432470449 0.6837783993202381 0.0000000000000000 -0.0000000000000000 -0.0000000000000000 0.0000000000000000 
69 1 -0.1780397110443855 0.3490989214988942 -0.0804458276408577 6.2299189255910594 7.5567079858937234 5.9883542177346962 0.0000263108262790 2.8767664092449916 0.6812309992539665 0.0000000000000000 0.0000000000000000 -0.0000000000000000 -0.0000000000000000 
86 1 0.0016425327067866 0.4070868771294385 -0.0366364984487101 8.7750731961741177 7.5505047516956152 7.8057382849227119 0.0000297078202799 2.8229473535030150 0.6593886921603289 0.0000000000000000 0.0000000000000000 -0.0000000000000000 -0.0000000000000000 
107 1 -0.3081227856777936 0.1000405643300941 -0.0049447899948354 5.3890900705495985 8.4987728072106776 9.9329836804547806 0.0000234681894956 2.9325693540317190 0.7106380645715576 0.0000000000000000 0.0000000000000000 0.0000000000000000 -0.0000000000000000 
134 2 0.0923276847134375 0.4150283156010973 -0.0110483532446424 9.3253734537292150 9.3527081476907536 9.2279978712487178 0.0000243798589994 2.9200091614310129 0.7339211631120462 0.0000000000000000 -0.0000000000000000 0.0000000000000000 0.0000000000000000 
146 2 -0.1042186738605351 0.1453379873009542 0.1323927453073210 8.3228310731246449 6.0632800013301287 8.8511874808708519 0.0000319824824215 2.8018308230403983 0.6980603865534135 0.0000000000000000 -0.0000000000000000 0.0000000000000000 -0.0000000000000000 
175 2 0.1008532231000890 0.3815456449143267 0.0107668444625448 8.9886916258141909 8.0260315790673538 8.7003207225862305 0.0000283589970548 2.8449272238137193 0.6834073575225024 0.0000000000000000 -0.0000000000000000 0.0000000000000000 -0.0000000000000000 
186 2 0.2291348801333188 0.3038851009066821 -0.2076286567278608 10.2221204973065483 5.9345425946927222 5.9909191268182358 0.0000314682875253 2.8084566067114864 0.7148777076958384 0.0000000000000000 -0.0000000000000000 0.0000000000000000 0.0000000000000000 
200 2 -0.2946675397119034 0.1525411067396539 0.1420825962204094 6.5184840951142800 6.4291095630965032 10.6327950711300243 0.0000279899605436 2.8612863332275840 0.7335821950160317 0.0000000000000000 0.0000000000000000 0.0000000000000000 0.0000000000000000 
206 2 0.0296615387982402 0.1477073240717418 -0.0442993810879354 6.8466928015482793 10.3024609972103605 10.3104199321664485 0.0000234703556705 2.9283594284393732 0.6904168727082328 0.0000000000000000 0.0000000000000000 0.0000000000000000 0.0000000000000000 
5 1 0.1105493673560667 -0.1610184402891753 -0.1113891644204022 14.6907633645737103 9.9655432218541975 10.0196377064754483 0.0000181057241983 3.0865276178283190 0.8055150968644755 0.0000000000000000 -0.0000000000000000 0.0000000000000000 -0.0000000000000000 
27 1 0.2723038144773509 0.2415826675603949 -0.0235593212228103 13.7401410523506797 6.6974358571032857 6.9385573999497270 0.0000231953004488 2.9428915342589437 0.7314314811220612 0.0000000000000000 -0.0000000000000000 -0.0000000000000000 0.0000000000000000 
56 1 0.0824284068136605 0.1444718927103161 0.0958755938953658 12.8479304433342669 9.8367927895001888 5.5246863934538357 0.0000205364757603 3.0245375868683428 0.8149584307402623 0.0000000000000000 0.0000000000000000 -0.0000000000000000 -0.0000000000000000 
74 1 0.3363875882262889 0.3852867403374034 0.1435692384595842 12.1209271426069378 6.7235038376359118 10.0000672516108207 0.0000254267386537 2.8953490540593281 0.7047191836470650 0.0000000000000000 -0.0000000000000000 -0.0000000000000000 0.0000000000000000 
98 1 0.2522384586458628 0.3505898343491088 -0.1323496264373106 10.8077774410380147 7.4691783490092343 6.5827009978040358 0.0000275102993414 2.8634455330647910 0.7115287871599267 0.0000000000000000 0.0000000000000000 0.0000000000000000 -0.0000000000000000 
110 2 0.2783744042975138 0.3597406496016136 0.1343430393841444 11.1763896419677220 6.5405351502858284 9.5818123365445160 0.0000283779582820 2.8486446989744030 0.6969185526911117 0.0000000000000000 0.0000000000000000 0.0000000000000000 0.0000000000000000 
180 2 0.2461566795840108 0.2698202133886486 0.1886614701739794 14.6124772939853447 7.6723993240916677 7.9828626476839348 0.0000189465501137 3.0258162576240060 0.7023328751565616 0.0000000000000000 0.0000000000000000 0.0000000000000000 0.0000000000000000 
208 2 0.3465329291932524 0.4071887435747324 0.1007427212807000 14.0320039433092845 6.5655604289697322 9.5804520217668809 0.0000221812405304 2.9696609636338396 0.7745477021671392 0.0000000000000000 -0.0000000000000000 0.0000000000000000 0.0000000000000000 
3 1 0.0417530604408717 -0.1688326539805573 -0.0267429884338264 4.4624324222652350 12.4193128445265835 10.5298550879103647 0.0000244912368660 2.9141661403108703 0.7255717356428919 0.0000000000000000 -0.0000000000000000 0.0000000000000000 -0.0000000000000000 
14 1 -0.0051473639998250 -0.0911567432921941 -0.0101097963150089 2.1595778835566022 15.9467142347761843 9.4182654536122712 0.0000311130309512 2.8109703497698844 0.6973806014691628 0.0000000000000000 -0.0000000000000000 -0.0000000000000000 -0.0000000000000000 
71 1 0.1497478484276886 -0.2912125146331941 0.0016601888561098 3.6030850723898427 14.2289148619688390 8.6052115715306829 0.0000279652048454 2.8523990458632795 0.6964984460755004 0.0000000000000000 -0.0000000000000000 0.0000000000000000 0.0000000000000000 
81 1 0.0976160094171284 -0.2171175018104702 -0.0160544310498628 2.8946259017315916 14.6794277730957159 10.0615786809549750 0.0000296346520217 2.8285874355952032 0.6922320055991874 0.0000000000000000 0.0000000000000000 -0.0000000000000000 -0.0000000000000000 
129 2 0.0450931258751928 -0.4785176407853428 -0.0087576794424833 3.0468825133209165 14.2294120643206643 6.0562499389093052 0.0000277807508766 2.8583974256433056 0.7105689150419519 0.0000000000000000 0.0000000000000000 0.0000000000000000 -0.0000000000000000 
144 2 0.1117404213304193 -0.2078742763747002 0.0575544731588214 3.8162998565884374 15.6435247024245410 8.1054556128369146 0.0000301988779011 2.8224174706822631 0.6958295344332986 0.0000000000000000 -0.0000000000000000 -0.0000000000000000 -0.0000000000000000 
161 2 -0.1585551879133811 -0.3919209132042314 -0.0552044419400241 0.1449180526095895 14.2556644286586920 8.1267727572179478 0.0000263722455332 2.8957997279623959 0.7745629676100512 0.0000000000000000 -0.0000000000000000 0.0000000000000000 -0.0000000000000000 
162 2 -0.1083846288329241 -0.3738195696019920 0.0037132771225680 2.2943403529625042 12.0554281229998370 7.4349335739996736 0.0000214531991894 2.9962335144462910 0.7885908123389741 0.0000000000000000 -0.0000000000000000 -0.0000000000000000 0.0000000000000000 
189 2 0.2200961915624588 -0.3358400789939634 -0.0056197945775941 4.1943602075238884 14.4966172204628663 6.5473978544670492 0.0000276030864072 2.8594613163545102 0.7056983777402178 0.0000000000000000 -0.0000000000000000 0.0000000000000000 0.0000000000000000 
209 2 0.0826304660886984 -0.2429923458954194 -0.0128179625627583 3.0451313559038513 14.0748012387220616 10.5072274826744856 0.0000280688413255 2.8504018983287081 0.6884019401263778 0.0000000000000000 0.0000000000000000 0.0000000000000000 0.0000000000000000 
215 2 -0.0936879086163197 -0.3111892058837368 0.0747081324263746 1.2803336529178106 14.6088227565218514 5.3567612279936299 0.0000286405431378 2.8545393714770553 0.7534627679539240 0.0000000000000000 -0.0000000000000000 -0.0000000000000000 -0.0000000000000000 
1 1 -0.0072226447485118 -0.2631379634897258 -0.0953282754892615 9.4614748272825384 14.0109317686786152 8.7749772553259326 0.0000220755556583 2.9935267203224631 0.8370337687773310 0.0000000000000000 -0.0000000000000000 0.0000000000000000 -0.0000000000000000 
23 1 0.1906655383718718 -0.3405456302967995 -0.0024620823636502 5.5258662489020578 15.1107867929307798 6.5386256920526975 0.0000272697617886 2.8706468883941803 0.7405334131336548 0.0000000000000000 -0.0000000000000000 -0.0000000000000000 0.0000000000000000 
132 2 0.1730277006255608 -0.2653320874516860 -0.0324583714601475 6.3112162871090858 14.5692299015547988 7.9644887065894494 0.0000247216457907 2.9221114818730634 0.7718041487733821 0.0000000000000000 -0.0000000000000000 -0.0000000000000000 -0.0000000000000000 
120 2 -0.0521429093852692 -0.3398004060860570 -0.1953839381577582 14.1809478927201891 15.2854477214436635 8.4680210114642200 0.0000286878116524 2.8547134187669805 0.7612489407688827 0.0000000000000000 0.0000000000000000 0.0000000000000000 -0.0000000000000000 
135 2 -0.1476705009550435 -0.3654866762822499 -0.0796728137920477 11.0576596286031617 13.9942638465912434 8.2857091081220222 0.0000219616339999 2.9677832989763866 0.7372685362967727 0.0000000000000000 -0.0000000000000000 -0.0000000000000000 0.0000000000000000 
137 2 0.0491143743480761 0.1322507516683669 -0.0399024333662115 11.8395741658138700 10.9095595687413169 7.3509674902768323 0.0000193555686530 3.0503680644049815 0.7947941771177387 0.0000000000000000 -0.0000000000000000 -0.0000000000000000 0.0000000000000000 
151 2 -0.1017179551327764 -0.3341627312225546 -0.0521975432402214 14.1538673930054468 12.8200932367163905 7.7123592165139341 0.0000212819176409 3.0031197567513095 0.8090556569380050 0.0000000000000000 -0.0000000000000000 -0.0000000000000000 -0.0000000000000000 
195 2 -0.1043882295215365 -0.2823293804934069 -0.1743698101384287 13.9443204115800619 12.7009374600912945 9.6762497255006465 0.0000222764835147 2.9646827974959047 0.7543827568015516 0.0000000000000000 -0.0000000000000000 0.0000000000000000 0.0000000000000000 
201 2 -0.0810158974037047 -0.3773449067779257 -0.1245252145661301 11.2423236507685331 13.7409441166795983 9.4587961485133167 0.0000227624741368 2.9593696497376061 0.7686752935414221 0.0000000000000000 0.0000000000000000 0.0000000000000000 0.0000000000000000 
214 2 -0.0980626340418585 -0.3473895561927254 0.1107598508366945 11.1276980141062349 15.0074762038715299 5.3471063497675138 0.0000244157762155 2.9244568079612159 0.7507278496195556 0.0000000000000000 0.0000000000000000 0.0000000000000000 -0.0000000000000000 
25 1 0.0851787670407745 0.1496716706423398 -0.0056863556800314 0.9849398196155945 1.2868073593855585 10.9496122308235435 0.0000315121461922 2.8055829601118258 0.6993752371109876 0.0000000000000000 -0.0000000000000000 0.0000000000000000 -0.0000000000000000 
28 1 0.2021479145301041 0.1899835105274709 -0.0628575657638552 0.7647876915670052 1.3848707951684969 12.0751345751305674 0.0000313599324459 2.8056522566186701 0.6810349744516223 0.0000000000000000 -0.0000000000000000 0.0000000000000000 -0.0000000000000000 
48 1 0.0525260514878744 0.3651463288399033 0.0515860624738166 2.3572057777441171 2.7289370367833428 10.7127167975223294 0.0000279050597596 2.8604242265912925 0.7379796009794872 0.0000000000000000 -0.0000000000000000 -0.0000000000000000 0.0000000000000000 
49 1 -0.1840168815671468 0.2174690703125265 -0.0487346825688204 3.8218739392277796 4.6192517518308991 14.6263046563246171 0.0000244038939384 2.9174625552976332 0.7202780653165534 0.0000000000000000 -0.0000000000000000 -0.0000000000000000 0.0000000000000000 
83 1 -0.0991605690824719 0.2951680529506245 0.0122716335501050 3.9026151097453772 3.1752601601730488 10.8890139412291642 0.0000273011260835 2.8736776967647302 0.7540300273880024 0.0000000000000000 0.0000000000000000 -0.0000000000000000 0.0000000000000000 
94 1 0.0229847706638876 0.3379150696427768 0.0042757879317233 0.5296939064883858 2.2050522542836588 15.4334877202967498 0.0000299597565285 2.8340203298397579 0.7491693068823574 0.0000000000000000 -0.0000000000000000 -0.0000000000000000 0.0000000000000000 
97 1 0.0423956470301355 0.3335635326714185 -0.1140754393551352 1.9621220286769343 2.8089206906427595 15.6174044181918443 0.0000284559300185 2.8531539461206918 0.7360794069043587 0.0000000000000000 -0.0000000000000000 -0.0000000000000000 -0.0000000000000000 
115 2 0.2032762986154449 -0.1498035087655609 0.0233814401301676 4.2912913122785881 0.5570941828004472 12.6022455795309938 0.0000278207557801 2.8750332280429745 0.7828727366790200 0.0000000000000000 -0.0000000000000000 0.0000000000000000 -0.0000000000000000 
130 2 0.0323450503841385 0.1936390715280653 0.0215529949593406 0.6127880314447277 1.6165087707856580 15.7273472633220930 0.0000309403502758 2.8188567515582648 0.7361957767582076 0.0000000000000000 -0.0000000000000000 0.0000000000000000 -0.0000000000000000 
165 2 -0.3312442852678190 0.2261918002111690 -0.0159034081995505 4.2077917474052988 5.3018401503001531 11.8995148011834040 0.0000237386962917 2.9424430918493409 0.7814591664837960 0.0000000000000000 0.0000000000000000 0.0000000000000000 -0.0000000000000000 
177 2 0.0747636059371740 0.3562888055251994 -0.0382323348319644 2.0849862686030760 2.7273566483820231 12.9676201696694910 0.0000284034818508 2.8517586913013817 0.7266247421794518 0.0000000000000000 -0.0000000000000000 0.0000000000000000 0.0000000000000000 
192 2 0.1267244245155544 0.2881729468194744 0.0223778949019933 0.1503308421852370 2.0284188265664334 13.9990898316118741 0.0000307227050547 2.8201513971310552 0.7236700382379466 0.0000000000000000 0.0000000000000000 -0.0000000000000000 0.0000000000000000 
18 1 -0.0772427321214497 0.1437935482748469 0.1371789638598895 10.1532740472814407 3.5842463095339192 11.8504246212869813 0.0000328023332828 2.7944546529148448 0.7272433959117601 0.0000000000000000 0.0000000000000000 0.0000000000000000 -0.0000000000000000 
38 1 -0.1398955793613037 -0.0636060117354548 0.0398959663827494 7.5564541115519308 3.2121452990341979 11.7722142086462362 0.0000301367413602 2.8400714857249207 0.7929829270886974 0.0000000000000000 0.0000000000000000 -0.0000000000000000 0.0000000000000000 
54 1 -0.1441532471122216 -0.0737360525787237 0.0563095079766552 10.0582571644691594 2.8337900663500721 11.3056132941000556 0.0000330408584462 2.7926561825052287 0.7360678936418341 0.0000000000000000 -0.0000000000000000 0.0000000000000000 0.0000000000000000 
70 1 -0.0895250460658462 0.1136415518822983 -0.0221958666862456 5.3510734992823092 3.4759484797145217 13.7363218978270094 0.0000278121381265 2.8683091588934504 0.7565898708071632 0.0000000000000000 0.0000000000000000 0.0000000000000000 -0.0000000000000000 
84 1 -0.1452000078018551 -0.1036130201921693 -0.0261529512724651 7.8192848849626841 2.0736997909128356 15.8995403927878272 0.0000302864895465 2.8226397456952927 0.7070327817915920 0.0000000000000000 0.0000000000000000 0.0000000000000000 -0.0000000000000000 
171 2 -0.1466416143659262 -0.1826473657823328 -0.0048878886144587 7.3152908032441575 1.7440264696697612 13.6259237715487931 0.0000285230779799 2.8646329343643373 0.7965222176510399 0.0000000000000000 0.0000000000000000 0.0000000000000000 -0.0000000000000000 
172 2 -0.2224484092723279 -0.2041641854940412 -0.0427686682879174 7.8445877190719191 1.7246235730094817 15.0601074592529383 0.0000295019391055 2.8361983338933783 0.7227576922175338 0.0000000000000000 0.0000000000000000 -0.0000000000000000 -0.0000000000000000 
187 2 -0.2216056402213659 -0.3356806388693038 0.0103118255042665 9.5067968844063575 1.6604348105366897 10.8691454109033891 0.0000307427711309 2.8309985525512591 0.7892585339151973 0.0000000000000000 -0.0000000000000000 -0.0000000000000000 0.0000000000000000 
191 2 -0.0983165094679058 -0.0688419871248217 0.0535016392817150 9.4409226175683649 2.3433953755293029 15.2291216249837973 0.0000316375729839 2.7994889382210917 0.6584017993752314 0.0000000000000000 -0.0000000000000000 0.0000000000000000 -0.0000000000000000 
198 2 -0.0677060234330015 0.2175388557073309 0.0452079116030495 8.1329397087581832 4.5547301356932799 15.8403395701234295 0.0000285324555529 2.8500879627903921 0.7122983879479604 0.0000000000000000 -0.0000000000000000 -0.0000000000000000 -0.0000000000000000 
29 1 0.2087182239024757 0.3676247967069013 0.0685713350704182 12.1899856223187175 5.1152064427869126 15.2684815879977140 0.0000241435059651 2.9452930679682470 0.8145000286600285 0.0000000000000000 -0.0000000000000000 -0.0000000000000000 0.0000000000000000 
32 1 0.0077644165520407 -0.0938134742125898 0.0426046411615364 14.4761472012204138 0.0760211354610528 13.4569233689669758 0.0000332368473920 2.7909797859053151 0.7331871969384818 0.0000000000000000 0.0000000000000000 -0.0000000000000000 -0.0000000000000000 
44 1 0.1369103813179376 0.4354411830646493 0.1549881373532071 12.3369644837384111 3.5440894137322996 13.4583356486696193 0.0000306021893905 2.8149289815031091 0.6810342002969435 0.0000000000000000 0.0000000000000000 0.0000000000000000 -0.0000000000000000 
47 1 0.0871778496690162 0.0993865235870455 0.0066724893577190 13.8549788138908081 1.4426343186404638 11.9837654514942269 0.0000336823612017 2.7805170970365092 0.6920685397576901 0.0000000000000000 0.0000000000000000 -0.0000000000000000 -0.0000000000000000 
60 1 -0.1621157349317577 -0.0797480885776396 -0.0478464364627219 11.2895856735642806 2.0272135177541202 11.4794009870084359 0.0000336482803848 2.7812847426994898 0.7047702390978855 0.0000000000000000 -0.0000000000000000 0.0000000000000000 -0.0000000000000000 
80 1 0.0534050527396903 0.4332467943547881 -0.0461969816195452 15.5134296468542168 4.8587011233388306 14.3644042496698621 0.0000226025765982 2.9926829162634210 0.8529036831142105 0.0000000000000000 0.0000000000000000 0.0000000000000000 0.0000000000000000 
90 1 -0.0483068676213757 0.0114636924573586 0.1006741047248298 11.9575446940521495 1.2732101357821446 14.3439832452256599 0.0000336057477883 2.7794007260798232 0.6860932231617739 0.0000000000000000 0.0000000000000000 0.0000000000000000 0.0000000000000000 
121 2 0.0049995920683455 0.0474232142608441 0.1295713738924515 12.0902250082558016 1.2972158890276533 14.8086780424878484 0.0000329967464463 2.7854817930335400 0.6769705230253652 0.0000000000000000 -0.0000000000000000 -0.0000000000000000 -0.0000000000000000 
122 2 -0.0030045813529781 0.0262537035129189 0.1301907148101335 12.0808930363974127 0.9141463598734527 15.3675463570622046 0.0000325379418343 2.7930239373568746 0.6908319729191489 0.0000000000000000 0.0000000000000000 0.0000000000000000 -0.0000000000000000 
126 2 0.2085729180642031 0.3172316988380367 -0.0032141203197305 12.3815874862990238 3.7709041631353148 11.1534899016212190 0.0000323101414732 2.7948535225280988 0.6938821277337204 0.0000000000000000 0.0000000000000000 0.0000000000000000 -0.0000000000000000 
142 2 0.0971918404584433 0.3590274019485197 0.1032892228743607 12.2426183496162615 2.9287262106117646 13.7444252894646368 0.0000326133304770 2.7911822567972244 0.6930148319861750 0.0000000000000000 -0.0000000000000000 -0.0000000000000000 -0.0000000000000000 
211 2 0.0129689633301683 0.0735137502225215 0.0997354794717961 12.6022425376393379 1.6146666490556543 13.3660758540691873 0.0000343697389622 2.7713765915507276 0.6923062009927353 0.0000000000000000 -0.0000000000000000 0.0000000000000000 -0.0000000000000000 
33 1 -0.0393552266101910 -0.3100155941925747 -0.2663806818300661 1.4113764055694127 9.9096000114096725 14.2572410001341279 0.0000228847618944 2.9418613596644470 0.7059624709906106 0.0000000000000000 -0.0000000000000000 0.0000000000000000 -0.0000000000000000 
124 2 -0.2149047445243647 0.1413126972346631 -0.1047287521816576 3.5325478582330279 6.2648717875044380 14.4097019950602458 0.0000224849918327 2.9767266365093770 0.8110593066445522 0.0000000000000000 -0.0000000000000000 -0.0000000000000000 0.0000000000000000 
53 1 0.0782073211980727 0.1038806906256044 0.0969860821765686 7.6030019908752777 9.7724095804328517 13.3563175743963960 0.0000233961310682 2.9316356180994538 0.7141833885454485 0.0000000000000000 -0.0000000000000000 -0.0000000000000000 -0.0000000000000000 
73 1 -0.1083075635344524 0.0085858951908207 -0.0072498118459232 5.8981440761873865 9.5796864646484767 11.9944086400612555 0.0000240409808119 2.9078532270959485 0.6537094482157434 0.0000000000000000 -0.0000000000000000 -0.0000000000000000 0.0000000000000000 
82 1 -0.1670958105171800 0.1476065972481283 0.0309414834479563 5.4150450181514120 5.7056229315779250 13.0576356389947623 0.0000255870381992 2.8994676634147649 0.7451520731361363 0.0000000000000000 -0.0000000000000000 0.0000000000000000 -0.0000000000000000 
88 1 0.0726692326057601 0.2620713644677147 0.2096347050098658 8.2756986586679524 7.4299915274903698 13.0008235482952816 0.0000251577085098 2.9082052065867181 0.7440514414321278 0.0000000000000000 0.0000000000000000 -0.0000000000000000 -0.0000000000000000 
93 1 -0.0982170798541171 0.2029969514684478 0.2071221770765890 7.8477308573714923 6.0606918301292971 12.5660908623568286 0.0000282254986920 2.8611908940613837 0.7576553632819688 0.0000000000000000 -0.0000000000000000 0.0000000000000000 -0.0000000000000000 
157 2 0.0901437406831431 0.2242459663863676 0.1874726293149131 8.6267280516297369 7.9587451351543574 11.6936620977941050 0.0000259822513641 2.8905011656743280 0.7262444772406332 0.0000000000000000 -0.0000000000000000 -0.0000000000000000 0.0000000000000000 
167 2 -0.0165201618360774 -0.0220044879644716 0.1173416837078720 6.2935060439276258 9.0203211276813953 14.7311931621969165 0.0000226202957807 2.9559636056267102 0.7380203754397248 0.0000000000000000 -0.0000000000000000 -0.0000000000000000 0.0000000000000000 
176 2 -0.1190866628297900 0.1950603642509935 0.1095153970712323 6.7581527940682289 6.7453218405947979 13.6513773958777413 0.0000257752104516 2.8976276031412800 0.7520044043151745 0.0000000000000000 -0.0000000000000000 -0.0000000000000000 0.0000000000000000 
7 1 0.0601014452853549 -0.1945170925438691 -0.0971772062458255 12.8660022017444557 8.7222886625119500 14.5843562584852844 0.0000204323217602 3.0183849605190489 0.7826574005405874 0.0000000000000000 -0.0000000000000000 0.0000000000000000 0.0000000000000000 
59 1 -0.0082921853523624 -0.2854825837232374 -0.1070504065394829 13.4431536145008810 8.6884617482271747 15.3642630684144752 0.0000211642260035 2.9858406817504459 0.7460283091957763 0.0000000000000000 -0.0000000000000000 -0.0000000000000000 0.0000000000000000 
62 1 0.0021801892467910 -0.3896836650543259 -0.1637690744364113 14.8570411583436872 9.1382607742091917 15.3898677439696971 0.0000224088312954 2.9397036630380411 0.6700090124011074 0.0000000000000000 0.0000000000000000 -0.0000000000000000 -0.0000000000000000 
212 2 0.2971271156051876 0.3781850892947290 0.1521640323993784 12.9058741311153007 6.4498055983094167 12.0085075964534589 0.0000225019770286 2.9713142454070316 0.7893569708697008 0.0000000000000000 -0.0000000000000000 -0.0000000000000000 -0.0000000000000000 
35 1 0.0164790048859924 -0.0751864772107751 -0.0230809593290622 4.5430448213601329 11.3831979368669209 12.2936254414448864 0.0000242065275941 2.9123193938323335 0.6970441796876931 0.0000000000000000 -0.0000000000000000 -0.0000000000000000 -0.0000000000000000 
42 1 0.0989215329758817 -0.0731364928453569 -0.0190913752010476 3.5888673999874583 11.4278977162656332 14.1928742895477900 0.0000247448304658 2.9048604939497320 0.6949153682934197 0.0000000000000000 -0.0000000000000000 0.0000000000000000 0.0000000000000000 
51 1 0.1163150815328613 -0.2164497504973720 -0.1189335616269280 1.8656104302646153 12.4579806573930831 14.7101992479672070 0.0000281484462396 2.8606982500170615 0.7450932945588418 0.0000000000000000 0.0000000000000000 0.0000000000000000 0.0000000000000000 
117 2 0.0554912593373793 -0.0065890778730783 0.0327491636970183 0.2712683881323142 15.7072344006027542 15.0767912043335084 0.0000323162970733 2.8090922995014465 0.7756666030631677 0.0000000000000000 0.0000000000000000 0.0000000000000000 0.0000000000000000 
118 2 0.0606276895266873 -0.2831841585042801 -0.0968865250976777 0.2046075561260870 14.7061360677486004 11.5491060671358365 0.0000303155805453 2.8287652875227334 0.7335199079666508 0.0000000000000000 -0.0000000000000000 0.0000000000000000 0.0000000000000000 
149 2 0.2542854058789568 -0.0913719114785955 -0.0126315820597876 3.1681278214421758 15.4778605275050900 13.3369748871099532 0.0000289777440058 2.8625877186086641 0.8117570041977794 0.0000000000000000 -0.0000000000000000 0.0000000000000000 -0.0000000000000000 
183 2 0.1342511768909354 0.0137406916621300 -0.0041479724067727 5.2102500552731854 11.7893847617806653 14.4050833214716043 0.0000238237243867 2.9267639531368026 0.7227975072502046 0.0000000000000000 0.0000000000000000 -0.0000000000000000 -0.0000000000000000 
203 2 0.1582181292111120 -0.2116697225746983 -0.0418387265472358 3.1882636255408894 13.8421576749626620 11.3545825499235704 0.0000278263212545 2.8602569577949328 0.7230951227763711 0.0000000000000000 0.0000000000000000 -0.0000000000000000 0.0000000000000000 
10 1 -0.1701139680216201 -0.2114594951744522 -0.1580253801464986 10.2935423904408694 12.8619436843609876 13.0659460887132699 0.0000233494553786 2.9551301876163061 0.7984844244834793 0.0000000000000000 0.0000000000000000 -0.0000000000000000 -0.0000000000000000 
50 1 0.0736302036299251 -0.0313842383029249 -0.0040702250432131 8.3350172417180097 11.0917314590289173 14.3786733313144541 0.0000217505346596 2.9735514085852213 0.7419881411786169 0.0000000000000000 -0.0000000000000000 0.0000000000000000 0.0000000000000000 
58 1 0.0376721820615555 -0.1280002210847986 -0.0119257655235572 7.3685863256001429 14.4830898618328732 12.3172086322656256 0.0000229550652627 2.9823105339548839 0.8384700684216615 0.0000000000000000 0.0000000000000000 -0.0000000000000000 0.0000000000000000 
113 2 0.0933726060183360 0.0133859036291050 -0.0292355048994997 5.8777038495668341 12.1152073947491559 13.0384931499443173 0.0000237441639865 2.9261874240881900 0.7209324356597661 0.0000000000000000 -0.0000000000000000 0.0000000000000000 0.0000000000000000 
133 2 0.0817809457439554 -0.1823951249214858 -0.0811565333144071 6.3588132053766255 14.4542748341431491 15.8223067579874783 0.0000243373043846 2.9518138275387464 0.8469892352685471 0.0000000000000000 -0.0000000000000000 0.0000000000000000 0.0000000000000000 
9 1 -0.0005086332216937 -0.2473721415805789 -0.0831923306376586 15.8777738059205333 11.5519935857186322 15.3987177685172227 0.0000281434550064 2.8472693419927149 0.6779924359145477 0.0000000000000000 0.0000000000000000 0.0000000000000000 0.0000000000000000 
24 1 -0.2157902188551450 -0.2770530534758278 -0.1295062495277593 10.8792958699831228 14.0335973954850797 13.0545910176049613 0.0000264038858053 2.9024368071558437 0.8130210573287727 0.0000000000000000 0.0000000000000000 -0.0000000000000000 -0.0000000000000000 
78 1 -0.1225398687292104 -0.4086899938639267 -0.1360583197086929 14.3628276669608468 13.5271987715916016 12.5733533359039917 0.0000284284117825 2.8607348115154299 0.7701303410679755 0.0000000000000000 -0.0000000000000000 -0.0000000000000000 -0.0000000000000000 
92 1 -0.1058565034338037 -0.2339316886581076 -0.0462924267870486 13.3730228893872649 14.4127355452331187 14.9618913599177255 0.0000313175384095 2.8210642897665044 0.7785033736264321 0.0000000000000000 -0.0000000000000000 -0.0000000000000000 -0.0000000000000000 
99 1 0.0918731796440882 0.0717801207913470 -0.0462207385228068 10.8481373917769073 10.8286830804734517 10.9997161844119304 0.0000206397278685 3.0143471429194602 0.7781259836314461 0.0000000000000000 -0.0000000000000000 0.0000000000000000 0.0000000000000000 
101 1 -0.0219973078420259 -0.3932841394719108 -0.1915850291688449 15.9257537413092471 11.9204673388597282 13.7463523898838851 0.0000267502737681 2.8786219300606772 0.7335566007721313 0.0000000000000000 -0.0000000000000000 0.0000000000000000 -0.0000000000000000 
106 1 -0.0106548872620640 -0.3753397171219795 -0.1399151157170442 15.0515931414745161 11.4376993693628890 11.1457491282317402 0.0000209807994402 2.9980450630495392 0.7638285964312445 0.0000000000000000 0.0000000000000000 0.0000000000000000 -0.0000000000000000 
160 2 -0.1404611532634783 -0.3083480391113267 -0.1835560764126115 10.7094889737362902 13.1617950994887938 12.5205921513885023 0.0000242785051942 2.9433454301739368 0.8293772840551731 0.0000000000000000 0.0000000000000000 -0.0000000000000000 -0.0000000000000000 
163 2 -0.2096375782471568 -0.2719416726904798 -0.1262256981029953 13.1725263549203113 12.2815336819713821 15.2407807391989856 0.0000270257331226 2.8726127916202184 0.7107821301284006 0.0000000000000000 0.0000000000000000 -0.0000000000000000 -0.0000000000000000 
170 2 -0.1121345047490954 -0.3581862366371596 -0.1715843549753442 14.7884971963523597 12.8701740555670199 13.0837205992346295 0.0000276296769293 2.8704596413331624 0.7609350886421669 0.0000000000000000 0.0000000000000000 -0.0000000000000000 0.0000000000000000 
