ITEM: TIMESTEP
0
ITEM: NUMBER OF ATOMS
60
ITEM: BOX BOUNDS pp pp pp
0.0000000000000000e+00 1.0517862088614400e+01
0.0000000000000000e+00 1.0517862088614400e+01
0.0000000000000000e+00 1.0517862088614400e+01
ITEM: ATOMS id type fx fy fz x y z rho_SPH width_SPH omega_SPH u_SPH vx vy vz 
13 1 0.0624049544042778 0.1615592733888428 0.0876537499333815 1.6378583559339015 1.5038856939520584 0.7302576023895219 0.0000179689787685 2.3474164076358326 0.6533926313220501 0.0000000000000000 -0.0000000000000000 0.0000000000000000 -0.0000000000000000 
30 1 -0.1798848602897226 0.0292993138166282 -0.3248530695279485 4.3332398380274180 3.0845791983117627 2.1797973206090733 0.0000246383497172 2.2076562721301380 0.6004172370224715 0.0000000000000000 0.0000000000000000 0.0000000000000000 0.0000000000000000 
33 2 -0.2076609580783671 -0.1462439911404571 -0.3396169372325467 3.7176096038656707 0.0501531434383235 3.1238817679035793 0.0000246710088190 2.1991869850121333 0.6122371096827075 0.0000000000000000 0.0000000000000000 0.0000000000000000 0.0000000000000000 
36 2 -0.0570153868115419 -0.0015955151148977 -0.0669403917269052 7.0093377406414916 2.7551858723099536 0.1010055030435293 0.0000245153832265 2.2036868460540000 0.6482678390448382 0.0000000000000000 -0.0000000000000000 -0.0000000000000000 0.0000000000000000 
45 2 0.1092481113522355 0.0419534009359588 -0.2266860982939924 6.5179431088308641 2.8332141009149350 3.4491644252868583 0.0000321020596782 2.1516592066248386 0.7338392101730375 0.0000000000000000 0.0000000000000000 0.0000000000000000 0.0000000000000000 
53 2 0.0621631465677796 -0.1858603827242903 0.0693707014744381 1.4320441741391987 6.7581808804813939 0.0644683044277260 0.0000150166835946 2.4112997004665804 0.6361814804232025 0.0000000000000000 0.0000000000000000 -0.0000000000000000 0.0000000000000000 
2 1 -0.1932357994092317 0.0875299558080475 -0.1961543041285795 5.7846606298103920 4.2591590835541089 0.7347888292948779 0.0000229764959924 2.2314633152463133 0.6154753190365335 0.0000000000000000 -0.0000000000000000 0.0000000000000000 0.0000000000000000 
12 1 -0.0849953428076500 0.1069355741911055 -0.1675700490786566 5.8629568427370256 5.8229894251588448 2.4799126317496358 0.0000263480590449 2.1916355185335252 0.6333509025782192 0.0000000000000000 -0.0000000000000000 -0.0000000000000000 0.0000000000000000 
17 1 -0.1816078163375657 0.0488735172925730 -0.1871378454701088 4.0532554962350043 5.6183755567923068 2.8471168079053935 0.0000243743109259 2.2298385854333320 0.6582175421702838 0.0000000000000000 0.0000000000000000 0.0000000000000000 0.0000000000000000 
41 2 0.0188093588154258 -0.0215838956047804 -0.1528161530977096 5.9943046089817251 3.7843427750058916 2.8446961292337094 0.0000304561203892 2.1289460488316179 0.6490925399158886 0.0000000000000000 0.0000000000000000 -0.0000000000000000 -0.0000000000000000 
20 1 0.2180662514852364 0.0667977597210561 -0.0673363080097153 9.1766662948608015 6.4762695884288153 2.2224242348496546 0.0000205930551959 2.2784197188704018 0.6731639691116569 0.0000000000000000 0.0000000000000000 0.0000000000000000 -0.0000000000000000 
21 1 0.2048579060818038 0.0628212801850790 -0.0162913047928290 9.1638655349981288 5.9836908547161745 1.7162829976978915 0.0000196620849141 2.2695346074995211 0.5986641719770808 0.0000000000000000 0.0000000000000000 -0.0000000000000000 0.0000000000000000 
11 1 -0.1082209148829619 0.0309394383512854 0.0024670607727656 6.1862861832720260 7.3807219956330616 0.1437295124029507 0.0000214439982392 2.2801587665163616 0.6474140909395482 0.0000000000000000 0.0000000000000000 0.0000000000000000 -0.0000000000000000 
50 2 -0.0172158003298696 -0.1011442865533513 -0.2247614067475338 6.0498268561458524 9.9951583286611179 3.3178514700062034 0.0000284682437995 2.2059551308154450 0.7067608387656619 0.0000000000000000 0.0000000000000000 0.0000000000000000 -0.0000000000000000 
60 2 -0.0578089150243483 -0.0274886554017588 -0.1467082919088702 6.1552250819968037 7.8721015965899923 1.7458388025199989 0.0000237968938681 2.2751146117603467 0.7261854599641819 0.0000000000000000 0.0000000000000000 -0.0000000000000000 0.0000000000000000 
22 1 0.1453084987090328 -0.0438839874870553 0.0767522070059150 9.3682077114696192 9.6470594168466342 1.0477987731843763 0.0000225278468054 2.3112760256833891 0.7086587828811012 0.0000000000000000 0.0000000000000000 -0.0000000000000000 0.0000000000000000 
14 1 0.0557302949530569 -0.0612750852054505 -0.0041756736333821 1.5143571964340836 0.0932850718171707 6.2779262084133407 0.0000312975007520 2.1113360596115203 0.5963548611102385 0.0000000000000000 -0.0000000000000000 -0.0000000000000000 -0.0000000000000000 
26 1 -0.1788720632098554 0.1784300181357664 -0.1321361471408963 1.6582492604505115 3.1820261962381005 3.8035601393497624 0.0000214025094987 2.3295224440861069 0.7166843971645108 0.0000000000000000 0.0000000000000000 -0.0000000000000000 -0.0000000000000000 
16 1 -0.2142818019799025 0.0863759090002282 -0.0437385868361290 3.8115872293284911 2.9163744216539902 4.3072284415794444 0.0000304691221520 2.1246276858987914 0.6360485044692908 0.0000000000000000 -0.0000000000000000 -0.0000000000000000 -0.0000000000000000 
34 2 -0.1538106725494108 0.1941741643255580 0.3625274391067792 5.2636299359097212 2.9049275247403528 6.6624056854082072 0.0000267696966494 2.2314290115940318 0.7533847270658528 0.0000000000000000 0.0000000000000000 -0.0000000000000000 -0.0000000000000000 
47 2 -0.1128029750789542 0.1521012166750843 0.1872529482973229 4.1528562782248590 0.8402332062564291 6.0074724798286692 0.0000310036850222 2.1567584849550840 0.6836700837308067 0.0000000000000000 -0.0000000000000000 -0.0000000000000000 -0.0000000000000000 
58 2 -0.1938810120110106 0.1058484324396164 0.1103456783076606 3.8529859474373431 2.7150422716478499 5.0083400622909595 0.0000308695759376 2.1365019559527108 0.6876911961613247 0.0000000000000000 -0.0000000000000000 0.0000000000000000 0.0000000000000000 
8 1 0.2836505307703306 -0.0439398080014762 -0.2472432037103243 8.0363382584971799 1.0742400958505356 3.7801523401756794 0.0000302389194153 2.1349827239934767 0.7002590426611465 0.0000000000000000 -0.0000000000000000 0.0000000000000000 0.0000000000000000 
15 1 0.2118972753228749 0.0955195206183512 -0.2362567208738749 9.5276201788668722 0.7770845306958091 5.5754087889862829 0.0000338324437596 2.0641880062009328 0.6029715927440568 0.0000000000000000 0.0000000000000000 0.0000000000000000 -0.0000000000000000 
19 1 0.1651326844574434 0.0781990942113671 -0.2178003627381897 8.9558303640443970 0.8487854854832372 5.4696946966718780 0.0000347709615375 2.0542902396923743 0.5995451503789589 0.0000000000000000 -0.0000000000000000 0.0000000000000000 0.0000000000000000 
49 2 0.1400989602579513 0.0606865031832144 -0.2655713560116128 7.6110563756554583 1.0929564446348456 4.3888615481918860 0.0000331999084631 2.0909531889812403 0.6506380875487493 0.0000000000000000 -0.0000000000000000 -0.0000000000000000 -0.0000000000000000 
4 1 -0.1907324394351661 -0.2376806066222313 0.1302100211623132 3.1812338803097187 6.8162119013922178 6.9010030163184997 0.0000238231920270 2.2318455060262172 0.7065735416732325 0.0000000000000000 -0.0000000000000000 0.0000000000000000 0.0000000000000000 
31 2 0.0734802675008848 0.1964235799560901 0.0004551917980006 0.0225843994850235 4.6755867011797916 4.9660204113043775 0.0000190327017699 2.3319304755226460 0.6775800001810289 0.0000000000000000 -0.0000000000000000 0.0000000000000000 0.0000000000000000 
38 2 -0.2224430747786849 0.0417488165545895 0.0317390182299530 2.7151348508424000 5.8031443439523231 4.7194290606679941 0.0000223494101081 2.2460096493950852 0.6337083927583274 0.0000000000000000 -0.0000000000000000 -0.0000000000000000 0.0000000000000000 
6 1 -0.1486022875579025 -0.0411633723295604 0.1457843331642014 4.0774577170735773 5.8852396719008722 5.1904270922446845 0.0000259204042598 2.1932749655598460 0.6299765318865075 0.0000000000000000 0.0000000000000000 -0.0000000000000000 0.0000000000000000 
56 2 0.0350400850345182 -0.0614811966161373 0.2024661759743212 6.1814051020537990 6.2408729356300814 6.1454419789536088 0.0000262466551257 2.2559855368095345 0.7330048852023303 0.0000000000000000 -0.0000000000000000 0.0000000000000000 0.0000000000000000 
5 1 0.1117939195686068 -0.2290062436291645 0.0777145824770448 9.6919126951891830 6.6251225595157246 6.6438246083035359 0.0000193693251712 2.4053463458765592 0.7220926915785377 0.0000000000000000 -0.0000000000000000 0.0000000000000000 -0.0000000000000000 
27 1 0.1972155798948969 0.1718525848384281 -0.0413290737339098 8.9235561147379752 4.5257515057706836 4.5916238949317441 0.0000218289587116 2.2707277694162249 0.6177049800085334 0.0000000000000000 -0.0000000000000000 -0.0000000000000000 0.0000000000000000 
32 2 0.1001300776713456 0.1803275170647998 0.1511892826369568 7.3629297365090540 4.3517116805087683 6.4266292001865155 0.0000245035866123 2.2413100698419206 0.6669554641751083 0.0000000000000000 0.0000000000000000 -0.0000000000000000 0.0000000000000000 
23 1 -0.1536699704319527 -0.1156263230601657 -0.3004744674556883 3.4896839853814812 9.9332503688196088 4.2422908579126339 0.0000303561598877 2.1114171380576203 0.6513978348219785 0.0000000000000000 -0.0000000000000000 0.0000000000000000 0.0000000000000000 
51 2 -0.1886592667240278 -0.1556772554717625 -0.3519031920412623 2.0689279871084354 9.3890996262926461 4.0874689983303361 0.0000242350138447 2.2519661557095327 0.7288566436498540 0.0000000000000000 -0.0000000000000000 0.0000000000000000 -0.0000000000000000 
1 1 0.0368222909148845 -0.2503661305030653 0.0090414695096767 6.3701653488558536 9.2122694178948770 5.7358869022735401 0.0000321487716100 2.1295900425219547 0.6852763352864056 0.0000000000000000 -0.0000000000000000 0.0000000000000000 -0.0000000000000000 
54 2 -0.1295217909887732 -0.0542196244823933 -0.0768528328834191 4.1760756796183234 9.5027805271813328 5.2388475110947601 0.0000323838444007 2.1115336386799370 0.6476575208659702 0.0000000000000000 -0.0000000000000000 0.0000000000000000 -0.0000000000000000 
42 2 0.1204476957706777 -0.2021951640456519 -0.2552198285407998 9.3808747401615484 10.0239485534435637 5.4879868568962511 0.0000314691093211 2.1049470185049675 0.6192191851131751 0.0000000000000000 -0.0000000000000000 -0.0000000000000000 -0.0000000000000000 
57 2 0.0871791164021317 -0.2045623644312323 -0.0617369119058886 7.1530672330858920 9.2474492441116247 5.4704650503616818 0.0000322690172574 2.1165616215587404 0.6746772127703587 0.0000000000000000 -0.0000000000000000 0.0000000000000000 0.0000000000000000 
59 2 0.1241245345577225 -0.1449029040717167 -0.0104801305084496 7.6733707064494654 7.2265298573020189 4.9272943188690332 0.0000253494844207 2.2459618605561200 0.6931442754731533 0.0000000000000000 0.0000000000000000 -0.0000000000000000 0.0000000000000000 
25 1 0.1507148577155226 0.1973035081697043 0.0697404104525632 0.6262628147931871 0.8442121463824146 7.0635186074520542 0.0000329811215427 2.0799955376857793 0.6340468072319350 0.0000000000000000 -0.0000000000000000 0.0000000000000000 -0.0000000000000000 
28 1 0.1271296058227172 0.2124786124960349 0.0796833913598696 0.4307564258071993 0.9446826506152329 7.9416237532609317 0.0000312478081624 2.0969340282121012 0.6026822165592006 0.0000000000000000 0.0000000000000000 0.0000000000000000 -0.0000000000000000 
37 2 0.1396918285452919 0.1723875250939944 0.3104094988679321 2.7648138066652117 0.4566624519296996 8.2046439449697495 0.0000250937878747 2.2395124279442573 0.6621932571892660 0.0000000000000000 -0.0000000000000000 0.0000000000000000 0.0000000000000000 
52 2 0.1398018848177515 0.1842816809067522 0.2493742274461971 0.3548089545048779 1.0640177265292874 10.3834807148833477 0.0000233955879135 2.1904040169225989 0.5738066616855610 0.0000000000000000 0.0000000000000000 -0.0000000000000000 0.0000000000000000 
18 1 -0.1863386454219686 0.2440898696441525 0.2244156840465575 6.7173352693444670 2.3298006607724080 7.6879782984028067 0.0000269974763200 2.1983314112445846 0.6923201214552777 0.0000000000000000 0.0000000000000000 -0.0000000000000000 -0.0000000000000000 
29 1 0.0476612198729422 0.1045606057856395 -0.0509897529181220 8.0815033527913069 3.4379759084980828 10.1093326347559014 0.0000231713600586 2.2345661458265531 0.6520341092291092 0.0000000000000000 -0.0000000000000000 -0.0000000000000000 -0.0000000000000000 
43 2 -0.1350375435882461 0.0354648804573455 0.2310888063820686 8.0044060543037681 0.8144418750480877 9.7753270889469448 0.0000287770015498 2.1451754596331236 0.6614369299374359 0.0000000000000000 -0.0000000000000000 -0.0000000000000000 -0.0000000000000000 
44 2 -0.1456423534108926 0.0135766792484021 0.1910930514637283 7.8810322213480948 0.6245715797220509 10.0342463315751722 0.0000279215441039 2.1591905687981714 0.6720255702530757 0.0000000000000000 0.0000000000000000 -0.0000000000000000 -0.0000000000000000 
48 2 -0.0162906585312266 0.3310577975650715 0.1063269109261658 8.1273386694648941 2.4734502656601074 7.3374330235071614 0.0000298279801631 2.1784698357471530 0.7023700025110373 0.0000000000000000 0.0000000000000000 0.0000000000000000 -0.0000000000000000 
46 2 0.0557033629759082 0.0611683459443772 -0.0518382769458267 2.4254328825886042 4.0780379571946472 9.5867122212945635 0.0000131680228962 2.5788004198853218 0.7189635286020868 0.0000000000000000 -0.0000000000000000 -0.0000000000000000 -0.0000000000000000 
7 1 0.1260047572562139 -0.0266196864247752 -0.0726886303756231 8.4795616985786051 5.7514777285495704 9.6303493034540306 0.0000197904472646 2.3551737018467702 0.6688518422843874 0.0000000000000000 -0.0000000000000000 0.0000000000000000 0.0000000000000000 
3 1 -0.0509405203857228 -0.2377314084359987 0.0675636830486483 2.9959667665700436 8.2298375466637719 7.0646298530985607 0.0000269575061480 2.1868924027413552 0.6618680883938879 0.0000000000000000 -0.0000000000000000 0.0000000000000000 -0.0000000000000000 
9 1 0.1253675665475749 -0.2627572768376792 0.1498662562289694 0.0912490631782341 7.6336943935089581 10.1917785846847728 0.0000206734376751 2.3080491048356695 0.6886524031842447 0.0000000000000000 0.0000000000000000 0.0000000000000000 0.0000000000000000 
39 2 0.1091350586009143 -0.0957994145345546 0.3974101304012716 0.1653131519093723 10.4305504673489384 9.9046200003957701 0.0000272522694382 2.1480524726209627 0.5874834937937573 0.0000000000000000 0.0000000000000000 0.0000000000000000 0.0000000000000000 
40 2 0.0292419371098562 -0.2105540611855122 0.0489107912964787 0.0990788658273611 9.6742164395102268 7.7079473509584897 0.0000318050703088 2.1400220272452213 0.6852059589041842 0.0000000000000000 0.0000000000000000 0.0000000000000000 0.0000000000000000 
10 1 -0.0817806384694318 -0.1709694905160266 0.2044167528428999 6.7494868012752596 8.6069394660677148 8.5392697149847354 0.0000253768511530 2.2186722860040042 0.6971764682368571 0.0000000000000000 0.0000000000000000 -0.0000000000000000 -0.0000000000000000 
35 2 0.0518613386908365 -0.2013991761872416 0.3053530757443202 3.8130371202134761 7.9986201453548684 8.5383245377201771 0.0000223811987069 2.2677502081556464 0.6724433520483010 0.0000000000000000 0.0000000000000000 0.0000000000000000 -0.0000000000000000 
55 2 0.0182652609158997 0.0187443632308369 0.0607808967182845 4.1720915922505037 9.6063614777932340 10.4774707111725842 0.0000193102162643 2.4137860345597519 0.7380842499306237 0.0000000000000000 -0.0000000000000000 -0.0000000000000000 -0.0000000000000000 
24 1 -0.0932267108401583 -0.2177834326175936 0.1959038811921083 7.2818909624804302 9.1166977860829626 8.4991952166839511 0.0000278434365271 2.2018962318611308 0.7341461441394893 0.0000000000000000 0.0000000000000000 -0.0000000000000000 -0.0000000000000000 
ITEM: TIMESTEP
1
ITEM: NUMBER OF ATOMS
60
ITEM: BOX BOUNDS pp pp pp
0.0000000000000000e+00 1.0517862088614400e+01
0.0000000000000000e+00 1.0517862088614400e+01
0.0000000000000000e+00 1.0517862088614400e+01
ITEM: ATOMS id type fx fy fz x y z rho_SPH width_SPH omega_SPH u_SPH vx vy vz 
13 1 0.0435784117604487 0.1318546509834045 0.0542526954550576 1.6379116843706485 1.5040237551616862 0.7303325072989733 0.0000127781036823 3.0336385426919747 0.4608342897759143 0.0000000000000000 0.0905685661132786 0.2507381994902971 0.1212667963488473 
30 1 -0.1423663956489514 0.0559894731594972 -0.2628610807598233 4.3330861166044112 3.0846042361732358 2.1795197159455366 0.0000175997812292 2.7875181765037680 0.4393558069949079 0.0000000000000000 -0.2753812719366382 0.0728839196328472 -0.5022337919831322 
33 2 -0.1866779557744548 -0.1325150070067388 -0.2628389946974037 3.7174321462523539 0.0500281699725847 3.1235915467099522 0.0000177758667028 2.7818005897672609 0.4567031285022071 0.0000000000000000 -0.3369841068720872 -0.2382147658352851 -0.5148314483286761 
36 2 -0.0381065014096035 -0.0004406579658583 -0.0724602688757360 7.0092890178841687 2.7551845088552778 0.1009482988282532 0.0000181934622100 2.7875369676881192 0.4999632516252966 0.0000000000000000 -0.0812868408877163 -0.0017400209387189 -0.1191254665982386 
45 2 0.0782902274619047 0.0414298054948227 -0.2081393152508690 6.5180364672997806 2.8332499523839330 3.4489707096537052 0.0000261090177423 2.6304214098093945 0.5776779172012824 0.0000000000000000 0.1602617377831114 0.0712554971374066 -0.3715820287606457 
53 2 0.0346924055565569 -0.1689239534074894 0.0521135733735028 1.4320972959379628 6.7580220526485952 0.0645275854752164 0.0000102245109568 3.1721618078489784 0.4315223116543626 0.0000000000000000 0.0827683512370887 -0.3031825631294304 0.1038149379138267 
2 1 -0.1591136737032933 0.0852543186634512 -0.1402633975932305 5.7844954992818236 4.2592338826747289 0.7346212047448683 0.0000164879557982 2.8362276500236705 0.4606190399206657 0.0000000000000000 -0.3011018398959996 0.1476535852001939 -0.2874872724151089 
12 1 -0.0799880055946350 0.0657807066905314 -0.1635780541251102 5.8628842095814377 5.8230808074386449 2.4797694340043877 0.0000194883057176 2.7455438062876882 0.4742374553037486 0.0000000000000000 -0.1409872684562413 0.1475954809696762 -0.2829841131077320 
17 1 -0.1351422088627086 -0.0033697534895578 -0.1507751496709227 4.0531003024520942 5.6184173218781153 2.8469568884110132 0.0000182112840397 2.8060728603540026 0.4949826835124044 0.0000000000000000 -0.2706801702650724 0.0388854476842236 -0.2887650821865690 
41 2 -0.0088835628231621 -0.0188434971051251 -0.1420720337561389 5.9943206826045872 3.7843243303900351 2.8445655394971698 0.0000232494103072 2.6404891455450024 0.5106127807011384 0.0000000000000000 0.0084821339714292 -0.0345474117489690 -0.2519980371786537 
20 1 0.1847305604109386 0.0552772614347833 -0.0862646160874115 9.1768526443647787 6.4763266707572642 2.2223666923023240 0.0000151354260477 2.9200670910677173 0.4955456023237173 0.0000000000000000 0.3442118419954291 0.1043197628498446 -0.1312603661552818 
21 1 0.1685621096415454 0.0729290501196403 -0.0277121193041577 9.1640405972506525 5.9837445389260049 1.7162690758895116 0.0000134736212653 2.9388752508729508 0.4255866911487354 0.0000000000000000 0.3191077676236115 0.1160060602905657 -0.0376033255854915 
11 1 -0.0859322772812263 0.0366192373397768 0.0140916563464486 6.1861937025985094 7.3807484350703927 0.1437316206409204 0.0000155883673894 2.9002763275264973 0.4692702834186832 0.0000000000000000 -0.1659144907069270 0.0577325726410824 0.0141503267959210 
50 2 -0.0213913193080376 -0.0812097311096331 -0.1561449543097266 6.0498121443056192 9.9950718953524280 3.3176593991269385 0.0000224521086201 2.7177088285229343 0.5353902468902312 0.0000000000000000 -0.0329918891416830 -0.1558314526362787 -0.3255052579738173 
60 2 -0.0463658638938073 -0.0461030040732349 -0.1433837299758507 6.1551756811263481 7.8720781060348779 1.7457134322839332 0.0000185873983939 2.8450003779386437 0.5366820357084923 0.0000000000000000 -0.0890230296810983 -0.0628880862888192 -0.2478994526571781 
22 1 0.1379305989978497 -0.0300309077439830 0.0174513671282163 9.3683318855060591 9.6470219155861461 1.0478643621308885 0.0000173075726846 2.8939788686781425 0.5124991332238471 0.0000000000000000 0.2420432552279969 -0.0631643088697855 0.0805020914207743 
14 1 0.0405212318920232 -0.0625743589534958 0.0156161006811797 1.5144048210103320 0.0932327089152706 6.2779226400725037 0.0000231169218723 2.6175895347470188 0.4630937644330424 0.0000000000000000 0.0822521786958864 -0.1058361040728629 0.0097764688076820 
26 1 -0.1243966528897943 0.1764578740497442 -0.1037617284413719 1.6580964045178412 3.1821786744191485 3.8034472218060822 0.0000164376012395 2.9308984568516729 0.5188782186864921 0.0000000000000000 -0.2591596564452365 0.3032710574246972 -0.2015875992035183 
16 1 -0.1771806994093395 0.0867685566659942 -0.0521572967484116 3.8114041138429977 2.9164482345786782 4.3071910645717413 0.0000230381154403 2.6377065425501054 0.4984942489505851 0.0000000000000000 -0.3345260555589039 0.1479613882188493 -0.0819482621350097 
34 2 -0.1295688136141325 0.1804379307287545 0.3048746233072481 5.2634984963020752 2.9050934571529154 6.6627154848750934 0.0000216455516628 2.7618956117861755 0.5793922695840527 0.0000000000000000 -0.2421632248201956 0.3201264644210958 0.5703314586171435 
47 2 -0.1261565845794104 0.1263315889593195 0.1306389050473276 4.1527598819310265 0.8403631850408068 6.0076324976846918 0.0000242968099478 2.6491249741492577 0.5261187370634471 0.0000000000000000 -0.2042039752132491 0.2379360165444336 0.2716559246832063 
58 2 -0.1642943455800504 0.0938706294113935 0.0727015673949810 3.8528202655394201 2.7151327249057364 5.0084343586906943 0.0000242333072228 2.6389135523971561 0.5434225637623065 0.0000000000000000 -0.3060803758932665 0.1706708298849571 0.1564238538008510 
8 1 0.2573400844093012 -0.0586744069605561 -0.1600078734538107 8.0365806533443980 1.0742025468883729 3.7799410573748813 0.0000239667036540 2.6473738527790758 0.5696707166720938 0.0000000000000000 0.4623059831993416 -0.0876894426763746 -0.3480182545770063 
15 1 0.1772002457815725 0.0728932803425207 -0.2004591215002789 9.5278012566442989 0.7771661573352648 5.5752068947342082 0.0000255088244753 2.5547048002761685 0.5052853514572202 0.0000000000000000 0.3325050509330731 0.1439179226902461 -0.3731975032884327 
19 1 0.1495779896440163 0.0543735240317816 -0.1944965782169299 8.9559714789286566 0.8488523108737713 5.4695085743843341 0.0000262369358003 2.5368168247573677 0.5021538808833657 0.0000000000000000 0.2689374335366116 0.1132905320397457 -0.3523302203589017 
49 2 0.1418186734222533 0.0408462933814812 -0.2099008005631520 7.6111760978571930 1.0930083045613099 4.3886346029854337 0.0000257289640139 2.5790751207758120 0.5322450741423411 0.0000000000000000 0.2409139921521245 0.0867653116814873 -0.4063168873201626 
4 1 -0.1699548287704877 -0.1972823550949356 0.0971317754994536 3.1810708890387671 6.8160087903521207 6.9011142878824909 0.0000183747310238 2.8185098018947281 0.5440282864348003 0.0000000000000000 -0.3082269404986481 -0.3716995711749701 0.1942759631664307 
31 2 0.0566180459186142 0.1951696449506193 -0.0099538967826045 0.0226471923807957 4.6757545558406806 4.9660208002905923 0.0000139151640898 2.9934835472690007 0.4854890218931351 0.0000000000000000 0.1111761036335294 0.3346377659334914 -0.0081171614142875 
38 2 -0.1747108279987716 0.0234018311356879 0.0440355111132974 2.7149447611042308 5.8031800205928104 4.7194561833899353 0.0000161528988248 2.8588248354912622 0.4675319342619305 0.0000000000000000 -0.3393896684215539 0.0556747813943624 0.0647534676324597 
6 1 -0.1433163383053441 -0.0508995803099921 0.1305198040118738 4.0773307283149416 5.8852044955544018 5.1905516729076151 0.0000190349986977 2.7543454045119802 0.4661994888983431 0.0000000000000000 -0.2494603853693431 -0.0786728136164258 0.2361169532614111 
56 2 0.0250326926281543 -0.0457606152310137 0.1777197166181415 6.1814350457173468 6.2408203965947404 6.1456149973423235 0.0000208706888504 2.7859838571869959 0.5447186713306111 0.0000000000000000 0.0513354645378382 -0.0916439765773271 0.3248895783804258 
5 1 0.0802481781852721 -0.2202176794538903 0.0625691172443102 9.6920082291900549 6.6249268611918550 6.6438910196523704 0.0000148220632538 3.0282585258697567 0.5086917620429282 0.0000000000000000 0.1641104454063248 -0.3838863403732408 0.1198800716810733 
27 1 0.1712307390356169 0.1661240531896371 -0.0333234432429561 8.9237246462060025 4.5258983631762835 4.5915885769843872 0.0000155148518539 2.8855838321636282 0.4361587477119659 0.0000000000000000 0.3148574724772091 0.2888194685042577 -0.0637946468772587 
32 2 0.0980908440368629 0.1485196116790585 0.1280992654211901 7.3630153031209451 4.3518657802061300 6.4267583996735258 0.0000184240834784 2.8103716736714146 0.4935108782767921 0.0000000000000000 0.1693905874329540 0.2810178049497774 0.2386672951128107 
23 1 -0.1228225282733158 -0.0892534917499336 -0.2476004604440258 3.4895526660114675 9.9331515598209563 4.2420340860940371 0.0000233050369660 2.6314764992801130 0.5372387826141730 0.0000000000000000 -0.2362779184602654 -0.1750809747263949 -0.4683599147564754 
51 2 -0.1293957539657978 -0.1131717502447960 -0.2825990823090131 2.0687667674766241 9.3889665915880993 4.0871682778619531 0.0000190086854004 2.8221733009088332 0.5501473584579570 0.0000000000000000 -0.2717953600778706 -0.2297461368691012 -0.5422167955507380 
1 1 0.0467620355613682 -0.2241305322948380 -0.0110773753036580 6.3701968155115170 9.2120554663828287 5.7358946287023063 0.0000253014129152 2.6165400844816711 0.5368162458587040 0.0000000000000000 0.0714273651841967 -0.4054832746899932 -0.0017397925275935 
54 2 -0.1346877845585481 -0.0349621674951323 -0.0787200301181021 4.1759649961845469 9.5027341935553853 5.2387818361579477 0.0000249063150829 2.6024490177539490 0.5119166460429297 0.0000000000000000 -0.2257814907815500 -0.0762107047087301 -0.1329454954873358 
42 2 0.0870574271524043 -0.1277980523464769 -0.2170013066104388 9.3809776692861124 10.0237757666493206 5.4877687576345355 0.0000237054710273 2.6113155480913353 0.4997907389220222 0.0000000000000000 0.1773244436782004 -0.2819971993462779 -0.4035387122216790 
57 2 0.0924234648280534 -0.1558159684321499 -0.0643708083016660 7.1531417323951070 9.2472744344155586 5.4704122928036805 0.0000253129048130 2.6070525002100435 0.5436815436135175 0.0000000000000000 0.1534802001568741 -0.3079629384011136 -0.1077659241098347 
59 2 0.1037170665282097 -0.1293575376617852 -0.0018692097761409 7.6734767776332857 7.2264060298683157 4.9272853630259874 0.0000195186815309 2.7966738459807061 0.5136278565373027 0.0000000000000000 0.1947030733033496 -0.2343705040542929 -0.0105531847354416 
25 1 0.1191570410940508 0.1380237818712982 0.0686504399648071 0.6263916088582298 0.8443807529899484 7.0635782044360287 0.0000253359439756 2.5754123540548655 0.5327880979964724 0.0000000000000000 0.2306202547998107 0.2865554561690538 0.1182625287256631 
28 1 0.1017257459674067 0.1497230031716551 0.0646984538629464 0.4308650649882950 0.9448642251769769 7.9416918470643241 0.0000232580266047 2.6096821675532942 0.4909490698824726 0.0000000000000000 0.1955693785642361 0.3095210329887916 0.1233821605014455 
37 2 0.0755166385875959 0.1443751420609879 0.2682843621251823 2.7649331809506954 0.4568097664709203 8.2049092068144880 0.0000188803250929 2.7977297931687297 0.4878838903877601 0.0000000000000000 0.1839073714017336 0.2706909735047902 0.4945254628659543 
52 2 0.1100771529474259 0.1430775515854344 0.1841189176810248 0.3549284228394484 1.0641752052752891 10.3836938187601415 0.0000162477125452 2.8026175808089464 0.4357233459842295 0.0000000000000000 0.2135352647412895 0.2797463164613878 0.3704435327434872 
18 1 -0.1441396501840958 0.2306869338417986 0.2108110607419067 6.7171760328101122 2.3300092488772819 7.6881700738431702 0.0000208856302931 2.7380171544531224 0.5259073508813109 0.0000000000000000 -0.2824117259880268 0.4057226701851981 0.3719249881946108 
29 1 0.0091987445903203 0.0695318643592945 -0.0555855884244503 8.0815440819028588 3.4380652612378628 10.1092890612313440 0.0000170984513354 2.8338691027378555 0.4915937854072516 0.0000000000000000 0.0485899404505195 0.1487715097446406 -0.0910744411856820 
43 2 -0.0990107089696059 0.0390262724368326 0.2038329429434367 8.0042906573585988 0.8144721817224899 9.7755245669342585 0.0000220459376144 2.6762384564242954 0.5285242838375532 0.0000000000000000 -0.2000069954613130 0.0636567524687295 0.3716643529388075 
44 2 -0.1073391484956719 0.0233305733476480 0.1577477821791700 7.8809077620146057 0.6245831817348629 10.0344096310087689 0.0000214535928960 2.6986843393699855 0.5332387088121734 0.0000000000000000 -0.2161864895407223 0.0315392600534076 0.2981035161281110 
48 2 -0.0203869163421304 0.2822406232072749 0.0899849762817574 8.1273247482087800 2.4737331726021221 7.3375238856510085 0.0000235255690857 2.6797195273768182 0.5337949349482892 0.0000000000000000 -0.0313429879140594 0.5240969463317189 0.1677592133446571 
46 2 0.0545074584294235 0.0522593295078338 -0.0397010047514189 2.4254804841500093 4.0780902288820275 9.5866679226599505 0.0000095656112033 3.3498714422968803 0.4747194942462060 0.0000000000000000 0.0941811571575618 0.0969301343694077 -0.0782253082382119 
7 1 0.1091099617817658 -0.0206297846710814 -0.0407350166310922 8.4796693765152575 5.7514549805758355 9.6302871870553535 0.0000145314167862 2.9868243062818030 0.4693850229648479 0.0000000000000000 0.2009183492275532 -0.0403772497668298 -0.0969266918430432 
3 1 -0.0350421746165311 -0.2040919884546975 0.0389035446685526 2.9959232351173699 8.2296343922107553 7.0646875899502621 0.0000203968615417 2.7318378977049291 0.5007253172546973 0.0000000000000000 -0.0734769018829418 -0.3775621871595759 0.0909820521969045 
9 1 0.1031011928171649 -0.2405386952525655 0.1494776806377966 0.0913561966006778 7.6334698530866243 10.1919066535735681 0.0000154434113126 2.9358434648123026 0.5021916058978657 0.0000000000000000 0.1952390142542097 -0.4300938550296116 0.2558057185557665 
39 2 0.0893545805907220 -0.0681544449893295 0.3481374035989159 0.1654064137685476 10.4304686015248667 9.9049596090246688 0.0000196200104560 2.7034195650758290 0.4566659471333656 0.0000000000000000 0.1696202211768550 -0.1401075140672232 0.6371110256937743 
40 2 0.0319318073550955 -0.1254069945605351 0.0384251143172596 0.0991038546573091 9.6740365095825318 7.7079891478969671 0.0000250301718906 2.6275977681753586 0.5351567069543934 0.0000000000000000 0.0522763007108068 -0.2870970435259647 0.0746332941468082 
10 1 -0.0787388494847309 -0.1532352309847345 0.1944903167429394 6.7494169152598404 8.6067933633143721 8.5394444002477581 0.0000195114834852 2.7797881845603407 0.5231357017198964 0.0000000000000000 -0.1371726562699493 -0.2770506147902602 0.3408878450669894 
35 2 0.0563164997714885 -0.1820640999495813 0.2673848154203972 3.8130814385556078 7.9984480387756589 8.5385854785756070 0.0000166706543137 2.8711738258429422 0.4943168240542134 0.0000000000000000 0.0924438623655215 -0.3276902813488011 0.4894357618431217 
55 2 0.0301565524692494 -0.0004082102645515 0.0463206552888223 4.1721072009120395 9.6063774958738257 10.4775226517634721 0.0000149514876124 3.0349175032322364 0.5219630102649839 0.0000000000000000 0.0413790801858613 0.0156692426584099 0.0915241168950414 
24 1 -0.0804660389170374 -0.1967399405442650 0.1867301909287597 7.2818112951719662 9.1165116782631301 8.4993626272339053 0.0000222174168161 2.7256334064680594 0.5583410188531539 0.0000000000000000 -0.1484299268748586 -0.3542328280964155 0.3269816812971318 
ITEM: TIMESTEP
2
ITEM: NUMBER OF ATOMS
60
ITEM: BOX BOUNDS pp pp pp
0.0000000000000000e+00 1.0517862088614400e+01
0.0000000000000000e+00 1.0517862088614400e+01
0.0000000000000000e+00 1.0517862088614400e+01
ITEM: ATOMS id type fx fy fz x y z rho_SPH width_SPH omega_SPH u_SPH vx vy vz 
13 1 0.0349878479416916 0.1133215944478372 0.0386229986677816 1.6380394930661279 1.5043871703510390 0.7305001359822196 0.0000091959658350 3.6409451237122998 0.3411675283245184 0.0000000000000000 0.1577077195823872 0.4602546717188910 0.2006341418850052 
30 1 -0.1220987172550386 0.0636270307981525 -0.2261741446071890 4.3326890754835450 3.0847249661510285 2.1787928530251071 0.0000128278107301 3.3090676276446063 0.3346790977288364 0.0000000000000000 -0.5013811333250048 0.1751027454633979 -0.9201410612383277 
33 2 -0.1680451226195424 -0.1168972446534985 -0.2211746482222570 3.7169356356519265 0.0496767139066530 3.1228521050069218 0.0000130841427088 3.3002412055810755 0.3509501306926573 0.0000000000000000 -0.6401143219239365 -0.4513511363940637 -0.9284475015342759 
36 2 -0.0295439713521091 0.0000417440421886 -0.0698081812450417 7.0091751669597162 2.7551823922680763 0.1007672521103328 0.0000137994819432 3.2909975530760494 0.3916121812043062 0.0000000000000000 -0.1390978591317558 -0.0020809146409743 -0.2407016157325330 
45 2 0.0619586532181493 0.0397830901282442 -0.1895737771642281 6.5182636323064305 2.8333566119092097 3.4484212612293370 0.0000215047454938 3.0132310860583549 0.4725424281112228 0.0000000000000000 0.2801120546945620 0.1406563453333053 -0.7114495552225623 
53 2 0.0226871726416910 -0.1547241827920250 0.0419774439644785 1.4322097108416729 6.7575745153551345 0.0646759343035536 0.0000070308961668 3.8645122176876674 0.3087146979461776 0.0000000000000000 0.1318023299609090 -0.5797575454268021 0.1842208434140881 
2 1 -0.1379575913373866 0.0830861723801292 -0.1126433303006551 5.7840584261306001 4.2594543907245095 0.7342138547500477 0.0000121021054092 3.3742184773933048 0.3547171460084397 0.0000000000000000 -0.5549654364378762 0.2915097151227458 -0.5036098634842509 
12 1 -0.0723428661947827 0.0438361808654190 -0.1534582135130539 5.8626748682001137 5.8232846161207847 2.4793466635234203 0.0000146958482365 3.2291937851442869 0.3688084663446436 0.0000000000000000 -0.2711623056532100 0.2412690892631927 -0.5539088931460037 
17 1 -0.1104703738994553 -0.0265754553424600 -0.1294158138040140 4.0527141358944743 5.6184533276876758 2.8465392777410203 0.0000138528772827 3.3016252073332257 0.3860676108523991 0.0000000000000000 -0.4805695165382772 0.0132956336971568 -0.5282035404855926 
41 2 -0.0186178637612369 -0.0158012459668309 -0.1282714371098255 5.9943215732496675 3.7842736801823933 2.8441921331593520 0.0000181497390614 3.0758190631302953 0.4093767211892591 0.0000000000000000 -0.0150193348151660 -0.0641532340297327 -0.4830212760174883 
20 1 0.1613548045963513 0.0481195033227219 -0.0904818636929222 9.1773547185447910 6.4764782279545150 2.2221617141173442 0.0000112803747118 3.4729192341903179 0.3770844330831702 0.0000000000000000 0.6399606599069417 0.1926779370022327 -0.2822998718678499 
21 1 0.1430942375923995 0.0725584342568026 -0.0317574063469644 9.1645037505333757 5.9839228668367550 1.7162077910467206 0.0000094017600033 3.5522407923925865 0.3126327426750602 0.0000000000000000 0.5854351122864453 0.2403330497440098 -0.0884232783815517 
11 1 -0.0711508972193223 0.0366567688525016 0.0191712141976893 6.1859543542906117 7.3808374607783440 0.1437578130565426 0.0000115058391531 3.4441885545444575 0.3560130513748501 0.0000000000000000 -0.3001506297339169 0.1203509159859001 0.0425752636422544 
50 2 -0.0213618925980796 -0.0673847523305598 -0.1210494224639917 6.0497608723675684 9.9948466657558459 3.3172004594902558 0.0000179251860991 3.1395920860631987 0.4270803434329156 0.0000000000000000 -0.0695268402306672 -0.2828135422276234 -0.5623829695199811 
60 2 -0.0384096655306525 -0.0508698217906384 -0.1350102455836907 6.1550470359374412 7.8719758204174148 1.7453430036146846 0.0000146261273592 3.3139735382678221 0.4190750968333215 0.0000000000000000 -0.1614683427459213 -0.1457566543317799 -0.4858022867850721 
22 1 0.1276861958167570 -0.0240894759161877 -0.0082093640947441 9.3686917979800750 9.6469330882288951 1.0479597773672180 0.0000133974325707 3.3820208331363455 0.3953953718062879 0.0000000000000000 0.4690272916151179 -0.1094131281230235 0.0883998870187663 
14 1 0.0363161480670851 -0.0621394035389750 0.0211001565057642 1.5145217007914755 0.0930733996090250 6.2779457613509564 0.0000175275422379 3.0649080233396790 0.3691413691616056 0.0000000000000000 0.1479139101413792 -0.2124108152966918 0.0411525128682132 
26 1 -0.0962601339975817 0.1659952581405133 -0.0872138238183005 1.6577309411376211 3.1826327383529502 3.8031569641513552 0.0000127101353322 3.4327215753622458 0.3997427983582983 0.0000000000000000 -0.4477229141973216 0.5959159343128900 -0.3647866233217637 
16 1 -0.1526617659168896 0.0825553646664943 -0.0548300966905961 3.8109181772173732 2.9166703444304281 4.3070645450551748 0.0000178298903836 3.0786983693789898 0.3982159546136828 0.0000000000000000 -0.6163944298982712 0.2926579129539262 -0.1733748243080561 
34 2 -0.1140010272257993 0.1682088089614896 0.2673114120354239 5.2631456094600813 2.9055677776691953 6.6635463483254416 0.0000176398829452 3.1846709747171431 0.4655830797988587 0.0000000000000000 -0.4503069367214133 0.6180641166818917 1.0592956295652729 
47 2 -0.1265359879120692 0.1088829662487966 0.1012049812462792 4.1524478702744325 0.8407090782895179 6.0080157916780355 0.0000193519299067 3.0593002776274560 0.4229206923259853 0.0000000000000000 -0.4201435588122266 0.4389396812238612 0.4697791689582166 
58 2 -0.1443960193878743 0.0838555197972172 0.0539656923696043 3.8523737866855563 2.7153836133076199 5.0086529099985615 0.0000193814526394 3.0544142382554704 0.4397132704266519 0.0000000000000000 -0.5698731269621079 0.3225475165495451 0.2646679349762498 
8 1 0.2345459481388195 -0.0613812699330912 -0.1193964003621755 8.0372628704635787 1.0740647169651827 3.7794563036665254 0.0000193844594050 3.0649444511189423 0.4655128972439943 0.0000000000000000 0.8826494226574830 -0.1902835657307106 -0.5867844436609104 
15 1 0.1559800282072498 0.0629046785427073 -0.1759330547557092 9.5282851889687379 0.7773723665411896 5.5746623939797058 0.0000198945458138 2.9789829238355279 0.4164582947375229 0.0000000000000000 0.6172257647995856 0.2599646842002464 -0.6948451441717893 
19 1 0.1368611509753906 0.0444770211303151 -0.1732751845751928 8.9563682389114714 0.8490120665473166 5.4689900362311601 0.0000204741027541 2.9547491811888733 0.4141070451000434 0.0000000000000000 0.5137152999453652 0.1977637136230897 -0.6666112478294290 
49 2 0.1299952659715314 0.0333678933938887 -0.1760109089061851 7.6115382036397623 1.0931299752582087 4.3880489144172454 0.0000204706022400 2.9894762806963699 0.4366919535893498 0.0000000000000000 0.4731938265389097 0.1501853814975501 -0.7360994884751217 
4 1 -0.1564612679731575 -0.1724787245424260 0.0792047833575513 3.1806174264287215 6.8154685022498676 6.9013915682448319 0.0000143728049796 3.3042840620379748 0.4280732321392534 0.0000000000000000 -0.5871672960296876 -0.6876805783756963 0.3449651690952759 
31 2 0.0475035454318043 0.1864620228940604 -0.0136369662091693 0.0228067516922905 4.6762559767116585 4.9660041769815484 0.0000102809066718 3.5658385326910200 0.3646262520195945 0.0000000000000000 0.2001536816374510 0.6607628381112347 -0.0282768403512532 
38 2 -0.1476992919844511 0.0148208890398877 0.0476402360613758 2.7144560715055568 5.8032556935151121 4.7195585676032588 0.0000118939431586 3.3992543051907864 0.3567694066215907 0.0000000000000000 -0.6149066983477937 0.0883381802325389 0.1430953930631788 
6 1 -0.1326504891636395 -0.0543810840083594 0.1182276860537232 4.0769587963028382 5.8850823262736389 5.1908993261512073 0.0000142322018833 3.2469216406250538 0.3586098331041199 0.0000000000000000 -0.4852890890911058 -0.1686408826806446 0.4486852487852813 
56 2 0.0180391353123298 -0.0376245209335273 0.1600922370202588 6.1815077729828749 6.2406896476769260 6.1460917581103693 0.0000167141313473 3.2177171904868960 0.4306921476057719 0.0000000000000000 0.0881426904036818 -0.1629011227774678 0.6135683150927719 
5 1 0.0632158197115273 -0.2059559041788376 0.0550389489981877 9.6922409160799958 6.6243547868349779 6.6440643684468981 0.0000113810817524 3.5498777167516407 0.3873324731316842 0.0000000000000000 0.2867082553135552 -0.7480749086527390 0.2203825779553418 
27 1 0.1505235894001688 0.1546573280182869 -0.0291932440311663 8.9241858296829282 4.5263291447076925 4.5914963056379889 0.0000111933835621 3.4381200242545766 0.3256145670251903 0.0000000000000000 0.5898140927630504 0.5629446523249243 -0.1172185654549077 
32 2 0.0939920466233959 0.1274941361526107 0.1110217456104242 7.3632685176839203 4.3522737161186678 6.4271065347767413 0.0000140596225659 3.2979732873922543 0.3830297514717649 0.0000000000000000 0.3335358926023919 0.5168866046802226 0.4430092393291344 
23 1 -0.1033052597798735 -0.0735921814868377 -0.2139727496059161 3.4892114295445609 9.9329002068701548 4.2413541380831212 0.0000183912263157 3.0692480368090056 0.4375023807690490 0.0000000000000000 -0.4295164450655933 -0.3142414831771498 -0.8627993943022726 
51 2 -0.1032324016089997 -0.0905205483704114 -0.2397005417493219 2.0683843963882795 9.3886401340189067 4.0863845647392347 0.0000150450759952 3.2883781760701210 0.4329482705447907 0.0000000000000000 -0.4705888052232112 -0.4038123142466321 -0.9885503075373726 
1 1 0.0479824083998723 -0.2023710914619085 -0.0191999565210399 6.3703082035862222 9.2114584513454982 5.7358834226884854 0.0000202676153109 3.0200383706429932 0.4344428891817729 0.0000000000000000 0.1523916593681771 -0.7699521711448940 -0.0276134237239905 
54 2 -0.1299229033087271 -0.0269223481629369 -0.0730297007775413 4.1756241166367598 9.5026281057719153 5.2385816201037851 0.0000195969641592 3.0191835784816696 0.4138865098093126 0.0000000000000000 -0.4519057539148681 -0.1290943981654441 -0.2626239160984800 
42 2 0.0690600233158489 -0.0953956316312523 -0.1907953313031714 9.3812293890489062 10.0233845590448709 5.4871797794718074 0.0000183815719340 3.0487158040796389 0.4064390131303789 0.0000000000000000 0.3107353188545386 -0.4727283740099009 -0.7520231782108691 
57 2 0.0907345734844609 -0.1265313958941441 -0.0624366053376003 7.1533741934862052 9.2468333182348221 5.4702495185134614 0.0000203083484716 3.0141123416833757 0.4455896706145630 0.0000000000000000 0.3099987322848554 -0.5492441588253685 -0.2161297744143377 
59 2 0.0907252711096543 -0.1172085654857265 -0.0003209684780477 7.6737601125960717 7.2260611162939101 4.9272732124995624 0.0000152073487058 3.2590424272520271 0.4019456319694784 0.0000000000000000 0.3608646545858699 -0.4450746854963156 -0.0124248114934183 
25 1 0.1021145459644754 0.1095839394586220 0.0645149659175129 0.6267240553027867 0.8447852572947527 7.0637551325095060 0.0000200829376856 2.9946653330620272 0.4401849690924945 0.0000000000000000 0.4197088928258221 0.4981497571518319 0.2320596301303220 
28 1 0.0827594539072219 0.1187348098377788 0.0579339074350917 0.4311475645643277 0.9453016926812106 7.9418705175819344 0.0000178648494782 3.0571684107618191 0.3985374926147330 0.0000000000000000 0.3532220426228314 0.5389328743562460 0.2281782008969368 
37 2 0.0458724407459855 0.1265420166352557 0.2394562800187102 2.7651816214080149 0.4572038338767092 8.2056329958954812 0.0000144169806052 3.2773352612085871 0.3791083222255972 0.0000000000000000 0.2876409595571223 0.5022044598802456 0.9284175308432453 
52 2 0.0910600470907111 0.1217687127752089 0.1463219561433934 0.3552360250343605 1.0645772191622100 10.3842216019488340 0.0000116016312406 3.3622948874739493 0.3331929933620599 0.0000000000000000 0.3854179710442777 0.5060718925552812 0.6528232797783278 
18 1 -0.1198937968988080 0.2129941215349740 0.1951654327027275 6.7167704458924913 2.3306121061127785 7.6887221483791963 0.0000163848828648 3.1886407165085249 0.4151107774776068 0.0000000000000000 -0.5080427053916948 0.7848723278271759 0.7188540414748108 
29 1 -0.0058199613587296 0.0525374809224135 -0.0547147282844805 8.0816005326722085 3.4382734515175719 10.1091504858735295 0.0000128599783232 3.3526350518081331 0.3807967138300546 0.0000000000000000 0.0514772949813912 0.2530864222505103 -0.1853320769607303 
43 2 -0.0770909053392589 0.0371573512689225 0.1818304452887001 8.0040060403128468 0.8145691885530252 9.7760704176528233 0.0000172930971177 3.1239266708602100 0.4261158288707685 0.0000000000000000 -0.3504954284612430 0.1287598135436118 0.7012347500545616 
44 2 -0.0856216956861119 0.0248688433190964 0.1378072786348244 7.8805998483690134 0.6246346582421577 10.0348425386074300 0.0000168456205815 3.1512227131065327 0.4282050476746655 0.0000000000000000 -0.3810820538728578 0.0727282901151493 0.5506714334731940 
48 2 -0.0175306115492048 0.2472257211287795 0.0781826626023466 8.1272759834890653 2.4744984595527710 7.3377685419338512 0.0000187910053173 3.0935293673978332 0.4260578591078557 0.0000000000000000 -0.0637455833019140 0.9765548116275242 0.3114676316705700 
46 2 0.0527300297331137 0.0453677626142193 -0.0334682837508408 2.4256212449029193 4.0782318174633856 9.5865557706780873 0.0000069284235796 4.0151246641746026 0.3435649370154151 0.0000000000000000 0.1858214389105974 0.1803578086099159 -0.1407524554971372 
7 1 0.0960532464161620 -0.0164937031549191 -0.0263696380397059 8.4799635352770597 5.7513969740500368 9.6301554500703439 0.0000107711988483 3.5364648790222000 0.3527564254025755 0.0000000000000000 0.3762414990584991 -0.0721012946164605 -0.1542712787626050 
3 1 -0.0285536359274095 -0.1772297353733276 0.0236598958601276 2.9958198127662778 8.2290824222894532 7.0648118172029548 0.0000157004826145 3.1971297183803751 0.3926432856932637 0.0000000000000000 -0.1278229901438504 -0.7034223952725172 0.1444459239802278 
9 1 0.0884164956653527 -0.2187885667911738 0.1404196090176229 0.0916395412067425 7.6328342057988996 10.1922901961218848 0.0000116644263084 3.4709092974487987 0.3837442107833212 0.0000000000000000 0.3589013233398795 -0.8226140495229733 0.5035387619034266 
39 2 0.0774242420761988 -0.0558924153330570 0.3108655171987590 0.1656523923517260 10.4302702523208026 9.9058942224471576 0.0000145306552656 3.2004344420738251 0.3591951751423003 0.0000000000000000 0.3121418203071061 -0.2461123210176920 1.2002649597586870 
40 2 0.0289351786990911 -0.0869142501610239 0.0340524331937157 0.0991834184287827 9.6736422454231743 7.7080966175467838 0.0000200491318181 3.0318557023640715 0.4332879806879597 0.0000000000000000 0.1042904596307687 -0.4685371259246509 0.1365693110050910 
10 1 -0.0742475401904487 -0.1403600176046261 0.1815477390627541 6.7492124559627200 8.6063853648381343 8.5399514906748699 0.0000151856480252 3.2491328023233321 0.4088118055282721 0.0000000000000000 -0.2679078692484911 -0.5279437657124644 0.6622328707138692 
35 2 0.0574576995365127 -0.1659222302927648 0.2414924886999140 3.8132220079382071 7.9979647647921706 8.5393034092438622 0.0000125871972319 3.3890992826800597 0.3795188777105498 0.0000000000000000 0.1896701202671274 -0.6250635777214208 0.9242991694662936 
55 2 0.0339212840008498 -0.0077561830930546 0.0392654788058032 4.1721743504108755 9.6063928162785519 10.4776537594063743 0.0000115974323058 3.5488120886175407 0.3991982535460569 0.0000000000000000 0.0961370858876045 0.0086923232951027 0.1646621358562550 
24 1 -0.0681048728152132 -0.1792912153509542 0.1734304046741927 7.2815941026266797 9.1159893204267703 8.4998491800465459 0.0000178849263995 3.1496747246786470 0.4445721136798831 0.0000000000000000 -0.2753918731563006 -0.6755719573935133 0.6347585513350655 
