ITEM: TIMESTEP
0
ITEM: NUMBER OF ATOMS
40
ITEM: BOX BOUNDS pp pp pp
0.0000000000000000e+00 8.3480326719615103e+00
0.0000000000000000e+00 8.3480326719615103e+00
0.0000000000000000e+00 8.3480326719615103e+00
ITEM: ATOMS id type fx fy fz x y z rho_SPH width_SPH omega_SPH u_SPH vx vy vz 
23 2 -0.1924851220640044 -0.0003835240860901 -0.2239179800357040 1.3947932802507792 1.2685192330349468 0.6013964341885358 0.0000178185915072 2.4162581485800056 0.7317028627843860 0.0000000000000013 -30.9005714304209214 9.7209154753089635 6.2953376388053419 
26 3 -0.0773561244115461 0.1123372561962227 0.1332326443692903 0.0105167619667631 3.7204739306209103 3.8814697736539006 0.0000211278593701 2.3534726504423706 0.7736870124583729 0.0000000000000066 11.7157977337137993 -5.5310833642853590 10.5249147309705116 
8 1 -4.5918413868820762 -2.2431290752311095 4.9459632946123548 6.1018962247090860 3.1017618656468722 1.4019079133862395 0.0000000000000000 1.5000000000000000 0.0000000000000000 0.0000000000000000 -0.0530925559376260 0.0088519443460776 0.1421653795108789 
10 1 5.4010688948577794 -0.6809793306444653 0.3174564551519957 7.3111457884193491 3.2510721249799119 0.9128881107959678 0.0000000000000000 1.5000000000000000 0.0000000000000000 0.0000000000000000 0.0710852365431675 0.0363833950437072 -0.0471277981210461 
12 2 0.3312437611358427 0.3734123412282193 -0.2651804722753859 4.7309277500302267 3.3326238225910454 0.6115091448503214 0.0000260540417011 2.1515400276723424 0.5799634045870082 -0.0000000000000047 0.2413316460586375 5.2490599342714352 27.7600348141869340 
18 2 0.1297457200355401 0.2819588176236592 -0.2533410057105845 6.2854106288784921 0.9051135860935108 3.0655586625323110 0.0000247391523855 2.2102911410429900 0.6281995034197095 0.0000000000000012 12.4433134705100095 8.8935552587849465 -5.2743805461549007 
31 3 0.0481318265608843 0.5121358648547663 -0.0467049783934902 5.5347270976059333 2.2947045520015101 0.1445123504239184 0.0000260943923078 2.1622014759745540 0.6037121152494646 -0.0000000000000009 -24.4304318168479355 21.7741933298951871 1.4405207951424073 
36 3 0.1517272288644195 0.1853685969240867 -0.4995357464548184 4.6544319045572795 2.8999104663515385 2.3094959105124939 0.0000277136632738 2.1171113471766407 0.5431231548187547 -0.0000000000000109 -5.1550447271068318 -7.8347515518496786 7.7427500111898322 
40 3 0.0820516510635579 0.2945662910655246 -0.3310805587002777 5.1173083849831364 2.2497665837015566 2.6104595557289327 0.0000270982382386 2.1320178537720516 0.5376547692689880 -0.0000000000000068 7.1778744738210536 6.8043421393299788 -1.9037616816291558 
4 1 0.9116747113432349 1.9618631253018770 1.6541179730554707 3.8130185960715521 6.7519700709536616 0.9907348471891684 0.0000000000000000 1.5000000000000000 0.0000000000000000 0.0000000000000000 0.0250978385992731 -0.0194100934440950 -0.1208589251681385 
6 1 -1.1429907215109558 1.4367133504169358 1.0709193209392771 1.1039608373666054 6.5346621297579546 0.7579360874439974 0.0000000000000000 1.5000000000000000 0.0000000000000000 0.0000000000000000 -0.1222455454685703 0.0703107161931284 0.0023767033585618 
16 2 -0.0605998847976466 -0.0286290707623362 0.1820739318077343 3.2729543446491705 4.8021265781802898 4.0467544660939261 0.0000257588411221 2.1656835853802505 0.5769720076349928 -0.0000000000000011 0.2711548851219451 -7.1862777436071354 -14.7261801540954629 
28 3 -0.0694770540294833 -0.0537774345569675 -0.0403395391806420 2.9108987033918825 8.2566511390376434 2.5505761485730178 0.0000206006904632 2.4180353745728840 0.7576902075427165 -0.0000000000000040 -0.0161283312865456 18.4396049700871103 -10.0101853619516792 
33 3 -0.0067193022059823 0.0851413533879352 0.1032808380358713 2.2379201799564861 4.4720217868297016 3.6861446242498963 0.0000229530638404 2.2181628381268386 0.6205459972131855 0.0000000000000175 3.2360192504472116 24.9526682834499809 14.4660806110568831 
21 2 0.0676866055344251 -0.4314524497821993 -0.2533270516446455 4.9751475049913010 5.7523045782602358 0.1519353991139852 0.0000242112641913 2.2421223752778632 0.6811434877054946 -0.0000000000000012 22.2529116814603825 -3.4533678832238626 29.5442110068134518 
22 2 0.0807831062573065 -0.1171805622542693 -0.6235840034226939 4.6552033486664515 4.6452308688873156 1.9779265807610302 0.0000241933979207 2.1976567240012583 0.6037081848860884 -0.0000000000000007 6.6089624497675308 -6.4841028994115986 4.6990263832678068 
7 1 0.1718218428550064 0.6398999516946188 0.5204874459459256 1.4380722518264288 1.1211490022140298 4.2935069221114084 0.0000000000000000 1.5000000000000000 0.0000000000000000 0.0000000000000000 -0.0437246125549343 0.0296312221266695 -0.0257844474620106 
24 2 0.1081560894203285 -0.2603674630878803 0.1126540253798302 1.2042495418152863 0.0208454444689643 4.8454505337979059 0.0000274719202491 2.1580589765935745 0.6236401286404103 0.0000000000000039 15.8745643219972408 -28.8321903052685364 -16.2411935171285187 
29 3 0.0814479118219363 0.2130442439129027 0.2522617232458610 4.1610493149274879 2.3192538113972780 5.2430982160589936 0.0000249499756821 2.2988628106131754 0.7467672696722959 -0.0000000000000021 4.5954408688181188 -14.1006948804709484 -5.7255793752627362 
32 3 0.0657032259022596 -0.2231982803011796 0.1149590876708036 2.2574083297213536 0.2847808103441842 6.4850912246089480 0.0000252037840624 2.2116219739582963 0.6411320717444616 -0.0000000000000006 2.2879906370695844 -15.6591134935278227 18.8064383238938895 
3 1 -0.3608688919791624 -4.0785902207955020 -2.4638642231718819 5.8004302857561214 2.7628389806540565 7.1116215084633359 0.0000000000000000 1.5000000000000000 0.0000000000000000 0.0000000000000000 0.0056719293257784 -0.0201965549341677 0.0351770975204570 
25 2 0.2127696041694381 0.1329835956707836 -0.0389565187078211 7.5325900449915419 0.5444216970082811 4.4736274867499670 0.0000264266032062 2.1567602635693923 0.6034829696789465 -0.0000000000000034 -12.0154874237128517 7.3568333110298809 -15.1745666884703940 
27 3 0.1564425703428894 0.0567667974290469 0.3454312318878153 5.8198018690848281 3.5284192189599435 5.0422855198102132 0.0000248371374431 2.2578707798222331 0.6771525725759076 -0.0000000000000006 -0.8618273653651940 -12.1700711474618863 -13.8690769171410384 
38 3 0.0913448718655912 0.1990025746204022 0.1024300872129883 6.3272468795946963 0.5933784472286248 7.6612197093780621 0.0000275810294195 2.1594849922519845 0.6448427431118776 0.0000000000000017 -17.2247520261241540 -2.7511119282905296 29.7523830467887365 
39 3 0.0126695005542955 0.1875370980542129 0.0611055612488912 6.2830583577871071 0.5406497026648384 8.0212984515792556 0.0000273933931499 2.1648628924672204 0.6658283609153294 0.0000000000000004 7.6542524132342802 0.1905940630128477 -6.6629961744046309 
1 1 -2.2636774333788581 0.2331827269875377 -2.1153639910383655 3.3676919395364311 5.1072175783310723 7.0002769345732716 0.0000000000000000 1.5000000000000000 0.0000000000000000 0.0000000000000000 0.0685154867763447 -0.0041661889199873 -0.0302579635705916 
2 1 -0.8720516889406486 0.7807453515412711 -1.2392698673566422 1.5999398354397489 7.0590224244884885 5.8316641178570956 0.0000000000000000 1.5000000000000000 0.0000000000000000 0.0000000000000000 -0.0063559617387082 -0.0800543512185017 -0.0796633335162517 
13 2 -0.0350452286348719 -0.0860686215136606 0.2588944386097500 2.2360465148171000 6.5905360211675843 5.5014021575754244 0.0000304483011801 2.0935984500888845 0.5465197798802545 0.0000000000000045 -4.4282834169991752 -1.6300797292237785 -3.6872592404376392 
14 2 0.0501242911620239 0.0869571978195625 0.3573114092485683 2.4137196041100490 5.5197254120456378 5.5805304996768497 0.0000285206818921 2.1227897095560424 0.5827910715826108 -0.0000000000000001 -28.8577094985790268 -16.8867931363810300 -18.9062050622490148 
30 3 -0.1086357338656070 -0.1566480474851542 0.1150396663455166 3.0751908899942086 6.2835060983738202 6.7727289175294905 0.0000274998825636 2.1646551453596787 0.6426571180065875 -0.0000000000000072 9.6010253845348323 14.6090239685893089 5.5529462062306107 
34 3 0.0395511308224626 -0.0813921927886158 -0.2212886338631523 0.2534899657816552 8.1534395469061547 7.9602083065389593 0.0000242565792010 2.1953203171445015 0.5675647498938570 0.0000000000000262 13.9043267781941182 -30.9873907602456917 -21.2122715858391118 
35 3 0.2408752661003966 -0.1674332369520209 0.2651527596372656 0.1800066086938942 7.7376627933644393 6.0583743660942888 0.0000316671319886 2.0947134252170265 0.5602163579197109 0.0000000000000036 11.8578916033155455 3.2319486330512603 -33.8951392428034737 
5 1 0.7606968342866713 1.7027763972539587 -0.9699426740130584 5.1722826061110716 4.6847963184533006 7.4316462988515317 0.0000000000000000 1.5000000000000000 0.0000000000000000 0.0000000000000000 0.1203122900729023 -0.0074263503667667 0.1021973403117437 
9 1 0.9982896667450402 0.3040264638407348 -2.4532962861662897 7.8627773413622046 4.3354927489067494 6.1202611331112626 0.0000000000000000 1.5000000000000000 0.0000000000000000 0.0000000000000000 -0.0652641056176275 -0.0139237388260643 0.0217759471363971 
11 2 -0.3138541380743309 -0.1900851131539263 0.2817936770493814 5.0729879318010811 7.3404700068116480 4.6274860407346541 0.0000266610745088 2.2474454634721681 0.7038277398715651 -0.0000000000000004 7.6287984001839417 14.0763125270745384 -5.0209322839110397 
15 2 0.0820099625470223 -0.1687447261620109 0.3770624142266871 7.7296979311395866 5.1314647147335180 5.2616137929578928 0.0000252604000917 2.2503893806996587 0.7006394687497369 -0.0000000000000016 5.6725837367247323 7.1189045864928922 -11.2858299997062730 
17 2 -0.2586305356587241 0.0068263796735613 0.1313790900284282 6.7794638492797477 4.5463731260658582 7.5910634840185471 0.0000237556814723 2.2587210800809174 0.6857106367885716 -0.0000000000000071 28.4901813084499125 1.7848644467785906 7.1980517796636523 
19 2 -0.1137358218647798 -0.2607736665269828 -0.1845659717843427 8.3067342569916374 5.9573762415405964 8.1468341189235964 0.0000216114688271 2.3108040998172257 0.6960389531454957 -0.0000000000000015 -19.6831299062345053 8.6061049508975440 14.2867075639728114 
20 2 -0.0187070037154136 -0.5178922902644574 0.4533095618859424 5.4238442787835170 6.7097402984911341 6.7403679845171904 0.0000280959472060 2.1876743049110443 0.6539181260312896 0.0000000000000012 -3.5986202243278860 1.6662612064770943 0.5331783054432967 
37 3 0.2106597977657389 -0.0405204691489911 0.0672428643241441 7.3562198098619467 7.9326429699286640 4.5083116668129444 0.0000278480489604 2.1451874663602197 0.6380448822216607 0.0000000000000025 -24.3424348764178440 -0.9681582612837670 4.9929766137589375 
ITEM: TIMESTEP
1
ITEM: NUMBER OF ATOMS
40
ITEM: BOX BOUNDS pp pp pp
0.0000000000000000e+00 8.3480326719615103e+00
0.0000000000000000e+00 8.3480326719615103e+00
0.0000000000000000e+00 8.3480326719615103e+00
ITEM: ATOMS id type fx fy fz x y z rho_SPH width_SPH omega_SPH u_SPH vx vy vz 
23 2 -0.1412042305894833 0.0085670149645508 -0.1764666276538312 1.3947932493502075 1.2685192427558623 0.6013964404838733 0.0000135166743552 3.0795218879420192 0.5120269074627827 0.0000000000000008 -30.9005717155766710 9.7209154823022033 6.2953372966548597 
26 3 -0.0654587959506313 0.0897630625186515 0.1074977227555150 0.0105167736825608 3.7204739250898271 3.8814697841788153 0.0000168981978199 2.9518853457393002 0.5686111071915477 0.0000000000000097 11.7157976116706610 -5.5310831915796150 10.5249149366877379 
8 1 -4.4504422856847157 -2.1680079919404487 4.9099983641419254 6.1018962246559934 3.1017618656557242 1.4019079135284049 0.0000000000000000 1.5000000000000000 0.0000000000000000 0.0000000000000000 -0.0530925560947287 0.0088519442694375 0.1421653796821186 
10 1 5.6500920635525214 -0.6176508147533000 0.2956148732248708 7.3111457884904345 3.2510721250162953 0.9128881107488400 0.0000000000000000 1.5000000000000000 0.0000000000000000 0.0000000000000000 0.0710852367351729 0.0363833950211445 -0.0471277981103945 
12 2 0.1879520323877130 0.2403324697029410 -0.1371139442494308 4.7309277502715590 3.3326238278401057 0.6115091726103560 0.0000185175029060 2.7268264839099561 0.4532070060549495 -0.0000000000000067 0.2413320897397570 5.2490604587498462 27.7600344704044169 
18 2 0.0951344444028299 0.2116332874897291 -0.1524388411456678 6.2854106413218060 0.9051135949870662 3.0655586572579301 0.0000180710088294 2.7870787721819830 0.4681092536416079 0.0000000000000022 12.4433136626823746 8.8935556805863172 -5.2743808929159082 
31 3 0.0440320835212998 0.3021455757036298 -0.0652943454039372 5.5347270731755014 2.2947045737757037 0.1445123518644392 0.0000189328970667 2.7324828448063916 0.4765017810901527 -0.0000000000000008 -24.4304317380888492 21.7741940257430855 1.4405206994328772 
36 3 0.1099925052629925 0.1063746440767851 -0.2737371671935563 4.6544318994022351 2.8999104585167870 2.3094959182552435 0.0000193360305061 2.6769144770358286 0.4286275797553510 -0.0000000000000175 -5.1550445034530457 -7.8347513025391695 7.7427493503859575 
40 3 0.0550566139689104 0.2424615724257229 -0.2131477575867765 5.1173083921610107 2.2497665905058990 2.6104595538251707 0.0000186688838925 2.6964275075133486 0.4030295633944531 -0.0000000000000096 7.1778745909875434 6.8043425982495744 -1.9037621467019310 
4 1 0.8514854921073097 1.9978742091726289 1.7322896082980872 3.8130185960966498 6.7519700709342514 0.9907348470683095 0.0000000000000000 1.5000000000000000 0.0000000000000000 0.0000000000000000 0.0250978386299067 -0.0194100933752976 -0.1208589251093023 
6 1 -1.1273006067260301 1.3454339062831318 1.2192101840018514 1.1039608372443599 6.5346621298282654 0.7579360874463741 0.0000000000000000 1.5000000000000000 0.0000000000000000 0.0000000000000000 -0.1222455455080148 0.0703107162414660 0.0023767033983510 
16 2 0.0144379015738514 0.0218598506244621 0.1716870735781515 3.2729543449203251 4.8021265709940124 4.0467544513677458 0.0000181923605443 2.7407770244848702 0.4364965202005883 -0.0000000000000023 0.2711548456740130 -7.1862777493918033 -14.7261798517873910 
28 3 -0.0193655112648445 -0.0307156715863670 -0.0160134160662561 2.9108987033757541 8.2566511574772488 2.5505761385628323 0.0000163388878070 3.0036469512516750 0.5364247929799777 -0.0000000000000052 -0.0161284072073626 18.4396048978831431 -10.0101854101083525 
33 3 0.1013390918003064 0.0913062572962359 0.0787829861175938 2.2379201831925055 4.4720218117823700 3.6861446387159771 0.0000164856892104 2.8287526371309868 0.4677651099387092 0.0000000000000262 3.2360193313049819 24.9526684342340879 14.4660807666403493 
21 2 0.0748939668318613 -0.2406368226453323 -0.2287674745098416 4.9751475272442125 5.7523045748068675 0.1519354286581960 0.0000183685422250 2.8167188357282664 0.5102282126580199 -0.0000000000000026 22.2529118033032560 -3.4533684575607979 29.5442105948373879 
22 2 0.0595011228928611 -0.1142399167525565 -0.3345317425545742 4.6552033552754137 4.6452308624032126 1.9779265854600561 0.0000173132927230 2.7904015625050658 0.4587146021196308 -0.0000000000000009 6.6089625696480550 -6.4841030971730182 4.6990255645056518 
7 1 0.2091946145551493 0.7219880184803114 0.3755533728200094 1.4380722517827043 1.1211490022436610 4.2935069220856237 0.0000000000000000 1.5000000000000000 0.0000000000000000 0.0000000000000000 -0.0437246125483144 0.0296312221503313 -0.0257844474464426 
24 2 0.0323265353046110 -0.2710315965560836 0.1543424396450711 1.2042495576898506 0.0208454156367738 4.8454505175567126 0.0000203294923112 2.7055970104016636 0.4844811643238731 0.0000000000000052 15.8745644420473049 -28.8321907593780153 -16.2411932889654800 
29 3 0.1020556548946515 0.1758638361723701 0.1652179725381355 4.1610493195229292 2.3192537972965832 5.2430982103334145 0.0000199518307936 2.8360953294550271 0.5471329598078430 -0.0000000000000028 4.5954410256319242 -14.1006945481277857 -5.7255790185035691 
32 3 0.0470122680369676 -0.2217478364014162 0.1064387838334941 2.2574083320093443 0.2847807946850706 6.4850912434153862 0.0000186528465543 2.7788442825657351 0.4793004161807683 -0.0000000000000003 2.2879907333911209 -15.6591138737585442 18.8064385130904448 
3 1 -0.3642102250656862 -4.0360640834440611 -2.4714962880290354 5.8004302857617933 2.7628389806338598 7.1116215084985130 0.0000000000000000 1.5000000000000000 0.0000000000000000 0.0000000000000000 0.0056719293131807 -0.0201965550751536 0.0351770974347090 
25 2 0.1106550655777859 0.0634174055848475 0.0566742416626468 7.5325900329760547 0.5444217043651146 4.4736274715754005 0.0000191195378404 2.7231788949792417 0.4660771247809700 -0.0000000000000055 -12.0154871473288338 7.3568334788652470 -15.1745666733296325 
27 3 0.0308621924183073 0.0559085946666478 0.2314173022407754 5.8198018682230011 3.5284192067898723 5.0422855059411367 0.0000188457554946 2.8137028869119680 0.4902459968353258 -0.0000000000000011 -0.8618272053030597 -12.1700710511746184 -13.8690764241925066 
38 3 0.0939965605065316 0.0560783745625342 -0.0012496288990582 6.3272468623699440 0.5933784444775130 7.6612197391304449 0.0000206300690946 2.7045898624709732 0.4910808281274069 0.0000000000000028 -17.2247518677397942 -2.7511117103099476 29.7523831332529589 
39 3 0.0331046646788401 0.0805336714758748 -0.0295758181214421 6.2830583654413594 0.5406497028554326 8.0212984449162601 0.0000208238023108 2.7110261247788250 0.5157865460343117 -0.0000000000000006 7.6542524523508009 0.1905942920939393 -6.6629961474607464 
1 1 -2.3084935756121512 0.1360913510783870 -1.9842133886624995 3.3676919396049465 5.1072175783269058 7.0002769345430140 0.0000000000000000 1.5000000000000000 0.0000000000000000 0.0000000000000000 0.0685154866969067 -0.0041661889135715 -0.0302579636418186 
2 1 -0.8022972258324579 0.7926002628366065 -1.2427470483149032 1.5999398354333929 7.0590224244084343 5.8316641177774322 0.0000000000000000 1.5000000000000000 0.0000000000000000 0.0000000000000000 -0.0063559617677987 -0.0800543511911660 -0.0796633335593748 
13 2 -0.0457567456716003 -0.0722343360970550 0.1706863396139554 2.2360465103888165 6.5905360195375042 5.5014021538881650 0.0000216013703480 2.6193675771295748 0.4289130605949412 0.0000000000000075 -4.4282834860488691 -1.6300798645022887 -3.6872588733374370 
14 2 0.0511654020072603 0.1016457023032733 0.2164479749379435 2.4137195752523395 5.5197253951588445 5.5805304807706451 0.0000205593966742 2.6669268954755756 0.4558900025809585 0.0000000000000022 -28.8577094120214603 -16.8867929752095662 -18.9062045719403322 
30 3 -0.0728732665743724 -0.0917267778414767 0.0302984115685717 3.0751908995952340 6.2835061129828444 6.7727289230824370 0.0000206200599204 2.7090763896293915 0.4977081322909107 -0.0000000000000074 9.6010252294254936 14.6090237563394751 5.5529463304299247 
34 3 -0.0824092901150551 -0.1299560223619314 -0.3217398051421461 0.2534899796859820 8.1534395159187643 7.9602082853266873 0.0000168242645172 2.7877207318129473 0.4125000574521136 0.0000000000000438 13.9043267415694842 -30.9873909408542687 -21.2122720498865256 
35 3 0.1095826971855429 -0.1636834799850025 0.2114062745064603 0.1800066205517860 7.7376627965963882 6.0583743321991497 0.0000228292819813 2.6023178227598538 0.4339824386592052 0.0000000000000064 11.8578919028009864 3.2319483500939685 -33.8951388355577876 
5 1 0.7284784942507772 1.6388622473746186 -0.9108068130144741 5.1722826062313842 4.6847963184458745 7.4316462989537291 0.0000000000000000 1.5000000000000000 0.0000000000000000 0.0000000000000000 0.1203122900987756 -0.0074263503087083 0.1021973402790671 
9 1 1.0158077997886681 0.2407793292907059 -2.4224735937872590 7.8627773412969404 4.3354927488928254 6.1202611331330390 0.0000000000000000 1.5000000000000000 0.0000000000000000 0.0000000000000000 -0.0652641055826341 -0.0139237388165987 0.0217759470516843 
11 2 -0.1884452454557088 -0.1369708320693881 0.2804336602179662 5.0729879394298791 7.3404700208879605 4.6274860357137220 0.0000208280142944 2.7733881910370104 0.5171010720633278 0.0000000000000001 7.6287979709417266 14.0763122475873974 -5.0209318034571195 
15 2 0.0336445709725535 -0.0123168847278121 0.2703035349346989 7.7296979368121708 5.1314647218524225 5.2616137816720627 0.0000195801973636 2.8010192234453464 0.5241907647870903 -0.0000000000000016 5.6725838355578384 7.1189044317658716 -11.2858294464967646 
17 2 -0.2052217017103265 0.0811149714139555 0.0444190815361215 6.7794638777699285 4.5463731278507229 7.5910634912165991 0.0000180561691737 2.8360249430387610 0.5101933999111649 -0.0000000000000113 28.4901809120628826 1.7848645219292709 7.1980519298927774 
19 2 -0.1373866292458549 -0.1072694416433709 -0.2408186373235933 8.3067342373085076 5.9573762501467016 8.1468341332103034 0.0000163584819523 2.9147118525865996 0.5056880573651718 -0.0000000000000024 -19.6831301208323346 8.6061046363846376 14.2867072004584656 
20 2 0.0207990022559862 -0.3428888581364300 0.2581254127115953 5.4238442751848970 6.7097403001573950 6.7403679850503693 0.0000212949437653 2.7128433077398180 0.4890071830882446 0.0000000000000038 -3.5986202225401596 1.6662604708926609 0.5331789134032801 
37 3 0.1482624947628306 -0.0454942485565699 0.1357867227728429 7.3562197855195119 7.9326429689605060 4.5083116718059211 0.0000209010281483 2.6914938245715820 0.5105255441586118 0.0000000000000011 -24.3424345696991686 -0.9681583347880340 4.9929767872587920 
