ITEM: TIMESTEP
0
ITEM: NUMBER OF ATOMS
30
ITEM: BOX BOUNDS pp pp pp
0.0000000000000000e+00 8.3480326719615103e+00
0.0000000000000000e+00 8.3480326719615103e+00
0.0000000000000000e+00 8.3480326719615103e+00
ITEM: ATOMS id type fx fy fz x y z 
1 1 -3.43324e-06 5.8991e-06 1.77018e-07 1.39479 1.26852 0.601396 
16 2 1.83435e-06 1.82261e-06 -5.56728e-06 0.0105168 3.72047 3.88147 
18 2 -4.73964e-06 1.37551e-06 4.4824e-06 4.16105 2.31925 5.2431 
19 2 3.83665e-06 1.28969e-05 2.347e-06 2.25741 0.284781 6.48509 
6 1 4.35275e-06 1.16191e-05 -1.2004e-05 1.20425 0.0208454 4.84545 
2 1 1.10866e-06 2.47318e-06 -2.87592e-06 3.27295 4.80213 4.04675 
20 2 -1.20659e-05 -3.82961e-06 -1.04118e-05 2.23792 4.47202 3.68614 
17 2 -2.32462e-06 -5.41729e-06 -2.90209e-06 2.9109 8.25665 2.55058 
3 1 2.64259e-06 2.1968e-07 -6.44831e-06 2.23605 6.59054 5.5014 
4 1 -6.96977e-07 -1.26517e-05 5.91268e-06 2.41372 5.51973 5.58053 
23 2 -4.73374e-06 -2.0547e-08 6.66472e-07 0.180007 7.73766 6.05837 
22 2 4.39311e-06 -8.04542e-07 1.37638e-05 0.25349 8.15344 7.96021 
21 2 -1.34633e-06 -5.25982e-06 1.06487e-05 3.07519 6.28351 6.77273 
7 1 -9.48881e-06 -6.12105e-07 -9.24052e-06 4.73093 3.33262 0.611509 
8 1 5.03697e-06 -5.44696e-06 -1.72357e-06 6.28541 0.905114 3.06556 
24 2 3.8282e-06 3.66246e-07 -5.00922e-06 5.53473 2.2947 0.144512 
25 2 -3.20287e-06 -2.91215e-06 3.74053e-06 4.65443 2.89991 2.3095 
26 2 3.47146e-06 -4.93695e-06 6.65966e-06 5.11731 2.24977 2.61046 
9 1 2.77837e-06 8.65486e-06 -2.42417e-06 7.53259 0.544422 4.47363 
27 2 5.88764e-06 2.82818e-06 2.49672e-06 5.8198 3.52842 5.04229 
28 2 -2.0461e-06 3.35811e-06 1.64859e-06 6.32725 0.593378 7.66122 
29 2 -9.81799e-07 -1.12386e-06 5.72902e-06 6.28306 0.54065 8.0213 
10 1 -2.99494e-06 5.65737e-06 5.29e-06 4.97515 5.7523 0.151935 
11 1 5.18567e-06 1.34316e-05 -1.20996e-07 4.6552 4.64523 1.97793 
12 1 -6.23279e-07 2.99846e-08 -6.93365e-06 5.07299 7.34047 4.62749 
13 1 -3.51356e-06 -5.56412e-06 -2.96026e-06 7.7297 5.13146 5.26161 
14 1 1.09574e-05 -3.33421e-06 1.78909e-07 6.77946 4.54637 7.59106 
15 1 -4.01839e-06 -1.1536e-06 4.99927e-07 5.42384 6.70974 6.74037 
30 2 -5.39262e-06 -7.86566e-06 -1.09342e-05 7.35622 7.93264 4.50831 
5 1 6.289e-06 -9.69934e-06 1.53146e-05 8.30673 5.95738 8.14683 
