ITEM: TIMESTEP
0
ITEM: NUMBER OF ATOMS
210
ITEM: BOX BOUNDS pp pp pp
0.0000000000000000e+00 1.5969212012997900e+01
0.0000000000000000e+00 1.5969212012997900e+01
0.0000000000000000e+00 1.5969212012997900e+01
ITEM: ATOMS id type fx fy fz x y z rho_SPH width_SPH omega_SPH u_SPH vx vy vz 
13 1 0.0636329574863237 0.2863289884924846 -0.1503004360876713 2.6361213437688091 2.4354808611614263 1.1889211753213957 0.0000364765287160 2.1059822881483234 0.8119840345099077 0.0000000000000000 -0.0000000000000000 -0.0000000000000000 0.0000000000000000 
31 1 0.1637301306099155 -0.0743880078566527 -0.0941129284895120 5.2029980897876653 2.2314349359550083 1.9691513635513795 0.0000317614967478 2.2274488651163087 0.9611857664812961 0.0000000000000000 -0.0000000000000000 -0.0000000000000000 0.0000000000000000 
36 1 -0.0569483806837063 0.3454668009261397 0.0813304969100280 1.8784096760113662 5.0544341163284887 4.8510119060967218 0.0000332301378533 2.0840119919540552 0.7288663527744421 0.0000000000000000 -0.0000000000000000 0.0000000000000000 0.0000000000000000 
39 1 0.1456860667886682 -0.2803017635651012 0.0610782311401005 3.1046737749230968 0.0372201614295236 4.3432495749246121 0.0000377574159922 2.0953142402523781 0.8062164082315273 0.0000000000000000 0.0000000000000000 0.0000000000000000 0.0000000000000000 
67 1 -0.1182737875911251 0.0318417887287809 0.0084184839908812 1.2888110541140345 0.9357838815836910 2.8463526362173872 0.0000432326951860 2.0019626460742472 0.6921684598915890 0.0000000000000000 -0.0000000000000000 0.0000000000000000 -0.0000000000000000 
79 1 0.0573597164700052 0.1813891820580279 0.0356999090784843 2.3752104248063439 1.7170366405657966 3.1455585541284452 0.0000415581726290 2.0246152303885414 0.7358410284428564 0.0000000000000000 -0.0000000000000000 0.0000000000000000 0.0000000000000000 
96 1 -0.2887078521529459 0.0936904169025688 0.1039436697342658 0.3033308348367855 2.0702141513291785 5.1003923391945616 0.0000340295255374 2.1379575393877368 0.8549875237349808 0.0000000000000000 0.0000000000000000 0.0000000000000000 -0.0000000000000000 
156 2 -0.0382826484422847 0.2882977205414806 -0.0705678781582108 4.2229015164229260 4.5271130953891596 1.5701811674610244 0.0000294537372601 2.2392387627976715 0.9605059800318620 0.0000000000000000 0.0000000000000000 -0.0000000000000000 -0.0000000000000000 
165 2 -0.0361960736647215 -0.0131230573898030 0.1381020911929767 1.9536597076398867 1.1060868000160622 4.6991530523529468 0.0000381875671152 2.0762810126174021 0.8113461276470126 0.0000000000000000 0.0000000000000000 0.0000000000000000 -0.0000000000000000 
171 2 0.0521450799824604 0.0632762439194064 0.0505467913613081 2.1891396860517900 1.2525294212906883 3.1176423843848582 0.0000430244406430 2.0018682422894778 0.7062149201391774 0.0000000000000000 0.0000000000000000 0.0000000000000000 -0.0000000000000000 
179 2 0.0040508424510659 0.0338247477562517 -0.0701676905358345 1.1696872460208181 0.7111354165445287 1.0675757255308793 0.0000398045229378 2.0582355172426925 0.7779480051317247 0.0000000000000000 -0.0000000000000000 0.0000000000000000 0.0000000000000000 
182 2 -0.3098640408080829 0.3191973779576520 -0.0633375328614668 0.1084589493272304 3.8574590681280578 4.6827534387619840 0.0000312951296327 2.1469261790530512 0.8375183675672774 0.0000000000000000 -0.0000000000000000 -0.0000000000000000 0.0000000000000000 
193 2 0.1889602198394688 -0.2158466766454603 -0.1873127166802355 4.8123200184050772 0.8657671358197940 0.9207228163636827 0.0000304913647129 2.2622748127833479 0.9511497049636345 0.0000000000000000 0.0000000000000000 0.0000000000000000 -0.0000000000000000 
30 1 -0.0852358202751284 0.1818915381611945 -0.2259330539864563 6.6586208258604165 4.7403695106737409 3.3926083711503572 0.0000314756419945 2.2444669025880692 0.9403575442643877 0.0000000000000000 -0.0000000000000000 0.0000000000000000 0.0000000000000000 
34 1 -0.2153070924351203 -0.1944161037471250 0.0569063344587139 7.9160441021429051 1.7109833904724101 0.0839693004117784 0.0000364691351845 2.0588416432489769 0.7624951606742096 0.0000000000000000 -0.0000000000000000 0.0000000000000000 0.0000000000000000 
57 1 -0.0575307498503122 -0.1961344712151345 0.2924323323960518 9.6462616477765977 0.9722536806888668 1.6560860019384505 0.0000335089922872 2.1624497450357287 0.8566723722211425 0.0000000000000000 -0.0000000000000000 0.0000000000000000 -0.0000000000000000 
120 2 0.1849479155861651 -0.0825987340209790 -0.2530382671633187 9.8400127097555288 4.3635750867789449 5.1248068195321110 0.0000354138702228 2.1018874736411703 0.8386156876011065 0.0000000000000000 0.0000000000000000 0.0000000000000000 -0.0000000000000000 
151 2 -0.0509423043031876 0.3071167174152746 -0.0921348148745077 5.3358651614453931 4.3130362093824077 1.2529048075334386 0.0000298146476783 2.2276534867508575 0.9497361926606571 0.0000000000000000 -0.0000000000000000 -0.0000000000000000 -0.0000000000000000 
181 2 0.1299074366878937 0.2435260480344703 0.1242977083786160 9.3941946961059255 3.8138622158425504 1.3485064280227250 0.0000350525785634 2.1163783795912172 0.7929998781834170 0.0000000000000000 0.0000000000000000 -0.0000000000000000 -0.0000000000000000 
185 2 0.3273723329435175 0.1155525257641068 -0.3204977914186588 10.4806834107629747 5.2223092484897879 5.1455808672588805 0.0000341548632119 2.0982740428145163 0.8236677933592597 0.0000000000000000 0.0000000000000000 0.0000000000000000 0.0000000000000000 
204 2 0.0498404652216925 -0.0133671617979253 -0.0978496504759035 8.7888734296514759 3.6478947129879340 3.6994596532051305 0.0000334024996664 2.1782504422679452 0.8836012655416172 0.0000000000000000 -0.0000000000000000 0.0000000000000000 0.0000000000000000 
66 1 0.0638826089218196 -0.1918725890937833 0.1810612267273078 10.9931534268240796 0.8525834684028681 3.3704427237371757 0.0000292581891587 2.2748238728504422 0.9512221659154735 0.0000000000000000 0.0000000000000000 -0.0000000000000000 0.0000000000000000 
111 2 0.2275952502571396 0.5028114017217223 0.2418793570220181 10.6621289753141841 4.2281178530907173 0.1995464571261551 0.0000320309445420 2.1651442676156583 0.8473592592739831 0.0000000000000000 -0.0000000000000000 -0.0000000000000000 0.0000000000000000 
140 2 0.1472237673800578 0.2312913200581447 0.2629476303407733 11.5846102649845140 2.2813169683743180 1.5246117912735593 0.0000318310207850 2.2227870650590065 0.9073268498213676 0.0000000000000000 -0.0000000000000000 0.0000000000000000 -0.0000000000000000 
152 2 -0.1913664805714475 -0.1441227483624236 0.1800878465290587 14.3818450127962656 0.0310165897362293 3.7741347349607790 0.0000307656720288 2.1677430203101631 0.8883589810758235 0.0000000000000000 -0.0000000000000000 0.0000000000000000 -0.0000000000000000 
207 2 -0.1065968253738353 0.1286665633956384 0.0358613757664335 13.6169654385163135 1.8385902468521633 4.0240726535412739 0.0000292888930377 2.2524669939070674 0.9495735506429621 0.0000000000000000 0.0000000000000000 -0.0000000000000000 -0.0000000000000000 
41 1 -0.0582051108250685 -0.1370980865931418 -0.0825756403276829 1.0479823628532303 7.8307292796942871 1.6228118483354246 0.0000262534817307 2.2691612756595365 0.8790745452035551 0.0000000000000000 0.0000000000000000 -0.0000000000000000 -0.0000000000000000 
76 1 0.0236239203816298 0.1480481569623442 -0.0039341010970633 5.2670174663807234 8.4514012314872691 2.5424192640078478 0.0000229483784580 2.4316204248644153 1.0352598615360689 0.0000000000000000 0.0000000000000000 -0.0000000000000000 0.0000000000000000 
77 1 -0.0604226734180989 0.2383467524552779 -0.1041419586975670 1.8873348212906433 5.5972871890823601 3.3157547005407313 0.0000297792049928 2.1749911917715625 0.8390047539516458 0.0000000000000000 0.0000000000000000 -0.0000000000000000 0.0000000000000000 
128 2 0.2207914566981355 -0.2865957604906113 -0.0003555144115318 2.2808236366898487 10.2169387683069868 0.1370995980355691 0.0000322507333626 2.1258069710712810 0.7424901538853089 0.0000000000000000 0.0000000000000000 0.0000000000000000 0.0000000000000000 
136 2 -0.1166480537295666 0.2181323376241608 0.0131362044133185 1.5079583806025718 6.7640735488577040 3.8081683671778412 0.0000280960803656 2.1848259844045623 0.8196170172335717 0.0000000000000000 0.0000000000000000 0.0000000000000000 0.0000000000000000 
199 2 0.0059667941356117 -0.0993104763634253 -0.1406213812118394 2.5168297745906680 7.5777065810084601 0.5582900381492495 0.0000244061293666 2.3384201866952248 0.9588043216829172 0.0000000000000000 -0.0000000000000000 0.0000000000000000 0.0000000000000000 
2 1 0.0892191922065647 0.3627199327862013 -0.0567268018916471 8.8955131783415684 6.5118506223968442 0.9718530812322836 0.0000259038107054 2.2964581535958297 0.9602034470234510 0.0000000000000000 -0.0000000000000000 0.0000000000000000 0.0000000000000000 
12 1 -0.0190817873883656 0.3664302528380861 -0.0974307100500825 8.9202222289108306 8.8118917869554956 3.9482139086175807 0.0000244507923575 2.3701240719617993 0.9202408552067085 0.0000000000000000 -0.0000000000000000 -0.0000000000000000 0.0000000000000000 
17 1 -0.1013335432870981 0.3173386779736144 -0.1427070003468226 6.1599567082886084 8.4847428884159299 4.3037888204183012 0.0000251691007699 2.2790067808495409 0.9139750050858981 0.0000000000000000 0.0000000000000000 0.0000000000000000 0.0000000000000000 
64 1 -0.0441350954071396 0.3306010199954260 -0.2247961408068994 8.0166583706572592 6.8266267791423569 2.7114724225449054 0.0000280308494731 2.2359145316074245 0.8892273406018747 0.0000000000000000 0.0000000000000000 0.0000000000000000 0.0000000000000000 
116 2 0.0693172623068765 0.1635923210150841 -0.3253792168153240 9.0507396377378626 5.6662364871297255 4.3786141247462238 0.0000360246148144 2.0839576057750895 0.7630614262886199 0.0000000000000000 -0.0000000000000000 0.0000000000000000 -0.0000000000000000 
149 2 0.3158409724290716 0.2400658763789365 -0.1532491382295290 10.2558206748221163 5.3797299948548964 2.5342630759497951 0.0000291914126914 2.1970861679751805 0.8645806899940297 0.0000000000000000 -0.0000000000000000 0.0000000000000000 -0.0000000000000000 
20 1 -0.0260043307509286 0.0192202266359765 0.3134194518565890 13.8334013116745904 9.8181480783910615 3.5322387953535577 0.0000256283850138 2.2001120292663989 0.8364625757938153 0.0000000000000000 -0.0000000000000000 0.0000000000000000 -0.0000000000000000 
21 1 -0.0905830208896177 -0.1941764668360319 0.2332677380783830 13.8752571485026674 9.1822931020226761 2.7027772792241258 0.0000276933550404 2.1587412403103516 0.7708624831118004 0.0000000000000000 0.0000000000000000 -0.0000000000000000 0.0000000000000000 
102 1 -0.1200880282616139 -0.0655272323360060 0.0092966265713299 14.8935880810876284 7.3370627597235476 3.1276064858534944 0.0000239916721447 2.3207234300233663 0.9187383579042753 0.0000000000000000 -0.0000000000000000 -0.0000000000000000 0.0000000000000000 
166 2 -0.1447884877519336 0.2945084509836726 0.0568665181602978 15.6881866710235851 5.8635329601031936 5.1465311655147996 0.0000272645001974 2.2143603229197169 0.8319885204919956 0.0000000000000000 -0.0000000000000000 0.0000000000000000 -0.0000000000000000 
175 2 -0.2143103725899581 -0.1600063400745271 0.1891317334367654 12.6533547433074993 10.0129102350153545 2.2877029052055771 0.0000284589421006 2.1591980503188868 0.7600100613817764 0.0000000000000000 -0.0000000000000000 0.0000000000000000 -0.0000000000000000 
191 2 -0.0880933870265546 -0.2722474685420755 0.1277486210878501 15.0661940002525210 10.2030572022459491 0.9544775753706874 0.0000348503224663 2.0816554327491641 0.7009387736084246 0.0000000000000000 -0.0000000000000000 0.0000000000000000 -0.0000000000000000 
37 1 0.1116090879269524 -0.3373591863347175 0.2765964483533208 2.3399531441569121 13.0984470661995385 3.3358820496504484 0.0000312712499667 2.1401804473643962 0.8270317034873916 0.0000000000000000 0.0000000000000000 0.0000000000000000 -0.0000000000000000 
45 1 0.3566201690190123 -0.1320576198332487 0.0902241559592106 3.8143764359531422 11.2404775261117376 0.8796568816213481 0.0000287464116795 2.2026010620261500 0.8456567315370579 0.0000000000000000 -0.0000000000000000 -0.0000000000000000 0.0000000000000000 
89 1 0.2363192533306754 -0.1648389112413122 0.0728953327896404 2.5051147371778919 13.6505779802884231 2.0421593557663500 0.0000339273724296 2.1252385221676100 0.8258162872849989 0.0000000000000000 -0.0000000000000000 0.0000000000000000 0.0000000000000000 
138 2 0.2670549707024991 -0.2595897715730567 0.2285151403740519 2.5575871080487405 11.4618389076841876 1.6897576812830561 0.0000321012134105 2.1219590134702893 0.7698969701632046 0.0000000000000000 0.0000000000000000 -0.0000000000000000 -0.0000000000000000 
145 2 0.0562342337601059 -0.1965194779937929 0.2549532593055837 1.0077469276524043 10.7144834971497396 1.6724991361834929 0.0000330264387563 2.1289497883744835 0.7733450947929474 0.0000000000000000 -0.0000000000000000 -0.0000000000000000 0.0000000000000000 
187 2 -0.2824809329638353 -0.1361761576333966 0.1045210769807400 0.0454527159036751 15.8464604790093571 2.5115546202012164 0.0000378652499446 2.0722868321014127 0.7803963303877512 0.0000000000000000 -0.0000000000000000 -0.0000000000000000 0.0000000000000000 
194 2 0.3390105431203482 -0.2536067431788456 -0.0531808958739059 3.4935909632265636 14.7759627396488966 1.8520586157164081 0.0000328110685097 2.1899311556203709 0.8838629803051866 0.0000000000000000 0.0000000000000000 -0.0000000000000000 -0.0000000000000000 
196 2 0.2645099331598387 -0.2294786904845379 0.1671563356554085 4.8899049341152363 11.6366646316002420 3.6216079770011946 0.0000224516529909 2.3917891577094101 0.9547348289267461 0.0000000000000000 -0.0000000000000000 0.0000000000000000 0.0000000000000000 
210 2 -0.1238447591028297 -0.3269784907597889 0.3742544640866351 1.3803908297089655 13.2407119156552149 3.4764967845400818 0.0000298226764833 2.1970971438047382 0.9014617911362222 0.0000000000000000 0.0000000000000000 -0.0000000000000000 -0.0000000000000000 
11 1 -0.1946566462897122 -0.1585199101708916 0.0424741739270418 9.3253860261421728 11.1026805493046599 0.3719277500135310 0.0000248777428047 2.2417160339539288 0.8705442325509780 0.0000000000000000 0.0000000000000000 0.0000000000000000 -0.0000000000000000 
95 1 -0.2396083031880423 -0.1387213097439099 0.1514763136223394 9.8836467394396852 11.2293233515197457 1.2761902913473027 0.0000266456022070 2.1552002723166028 0.7640890243166446 0.0000000000000000 0.0000000000000000 -0.0000000000000000 -0.0000000000000000 
104 1 -0.1229418157841528 -0.2959049352815629 0.1031323312608997 8.2810742589182809 15.2414753880166192 1.5767585588810509 0.0000278457606615 2.2358659683490734 0.9248475248377253 0.0000000000000000 -0.0000000000000000 -0.0000000000000000 0.0000000000000000 
108 2 0.3189737376656742 -0.2916622193188581 -0.1097845206978418 5.4540856428077742 15.9263911394626003 4.7095784922096406 0.0000311179233897 2.2086937404934859 0.9005929016281635 0.0000000000000000 -0.0000000000000000 -0.0000000000000000 0.0000000000000000 
125 2 0.0297614378590641 -0.4398737931226711 0.0532775514416734 9.2640109140036628 15.2303085011066361 4.9584168850284183 0.0000241424252694 2.3691274871179591 0.9893815264640970 0.0000000000000000 -0.0000000000000000 0.0000000000000000 0.0000000000000000 
135 2 -0.2168102260227616 -0.0490184577198293 0.2427372605596406 9.5689793423487171 11.9001609668728747 2.7332749658015043 0.0000236434677835 2.2283889263500312 0.8309782919668370 0.0000000000000000 -0.0000000000000000 -0.0000000000000000 0.0000000000000000 
147 2 -0.1821007191808965 -0.2654526027262472 0.1287816906988650 9.2209816665065230 14.4835620506394793 1.2961761665410674 0.0000279103067696 2.2206790935534384 0.8671670397164217 0.0000000000000000 -0.0000000000000000 0.0000000000000000 -0.0000000000000000 
150 2 0.2442743819653433 -0.2472015137665262 0.0445028071940832 5.8220224739969941 13.5549324134110840 3.4027457451982333 0.0000239818566478 2.3772229303495820 0.9582752157829673 0.0000000000000000 0.0000000000000000 0.0000000000000000 0.0000000000000000 
22 1 -0.1679503967147288 -0.1534300183752255 0.3042509688865588 14.1414523710621669 14.6534272280662687 1.8098177211459494 0.0000313373006632 2.2090560636790206 0.9536178008224712 0.0000000000000000 -0.0000000000000000 -0.0000000000000000 0.0000000000000000 
52 1 -0.0985846138784547 0.0302627714311853 0.2594817651979433 10.9816819782723485 11.3169372678468445 2.8973527791211500 0.0000256331843575 2.1799838835409444 0.7748141569520908 0.0000000000000000 0.0000000000000000 0.0000000000000000 0.0000000000000000 
61 1 -0.2247037266947718 -0.1034578353164281 0.2246593910164377 11.6964613209835910 11.6274924152720054 1.6188395764013168 0.0000294245279128 2.1557659955548600 0.7730599109610123 0.0000000000000000 0.0000000000000000 0.0000000000000000 -0.0000000000000000 
142 2 -0.0973240012278993 -0.1920806850281333 0.2169339118036618 12.7722267172933837 15.2360146761612238 0.4150656383812812 0.0000348463645720 2.1461885184915683 0.8915244464165852 0.0000000000000000 -0.0000000000000000 -0.0000000000000000 -0.0000000000000000 
144 2 -0.2182378053935527 -0.2037791264515341 0.2326381382110601 11.1218360463273793 14.1491541978832736 0.9593627533379835 0.0000307616116276 2.2152593730655141 0.8836459231695107 0.0000000000000000 -0.0000000000000000 -0.0000000000000000 -0.0000000000000000 
178 2 -0.2584338053468175 -0.1396675057930042 0.2417422141039269 14.7955427392976411 15.6572399843092693 2.9263219504936591 0.0000327934290712 2.1205920056095713 0.8535545542998919 0.0000000000000000 0.0000000000000000 0.0000000000000000 -0.0000000000000000 
190 2 -0.0722268542369428 -0.1314715615843743 0.0675958685817482 15.4592060462148773 10.9793445314293105 0.5233444758326222 0.0000361940422941 2.0738019136384569 0.7289773398544602 0.0000000000000000 -0.0000000000000000 -0.0000000000000000 0.0000000000000000 
26 1 -0.1135868601443853 0.3394054950921800 0.2400327934856972 2.4917493202046721 4.7889337415685622 5.8734568254391517 0.0000307928070473 2.1533003942580242 0.8342955447469935 0.0000000000000000 0.0000000000000000 -0.0000000000000000 -0.0000000000000000 
72 1 -0.0756190287682456 0.1240642366957751 0.0982231733438159 4.8307181201875249 2.6821761313516519 8.6021792071011625 0.0000332000588982 2.1591540750680425 0.8913089276755730 0.0000000000000000 0.0000000000000000 -0.0000000000000000 -0.0000000000000000 
137 2 0.0567935294932634 0.0216938522751454 -0.0173957832839905 5.0670367283164994 1.6163200305081564 5.9365037069862741 0.0000336667386596 2.2071081818060740 0.9165046711139895 0.0000000000000000 -0.0000000000000000 -0.0000000000000000 0.0000000000000000 
153 2 0.0154601107611188 0.6097327170732707 -0.0764509389611053 1.3652973821955643 3.0400369616887217 10.3609537040346158 0.0000308311074179 2.1525780110317436 0.8778944186137092 0.0000000000000000 0.0000000000000000 -0.0000000000000000 0.0000000000000000 
161 2 -0.1998406978282381 0.3105907887807488 0.2117355528848121 0.9684708211808554 3.3987675505809620 5.6129014725290425 0.0000324969946078 2.1310849470102937 0.8541969924845650 0.0000000000000000 -0.0000000000000000 0.0000000000000000 -0.0000000000000000 
170 2 0.0850291350065639 0.1673499141487369 -0.1005266097823440 2.1328426651614585 1.2997749665430209 10.3446841015586148 0.0000393918072725 2.0432185463792107 0.7470784598743812 0.0000000000000000 0.0000000000000000 -0.0000000000000000 0.0000000000000000 
16 1 -0.1982321659227735 0.0828403025998127 0.0027179284951582 5.7970708277526901 4.2992747002808738 6.4728080252631237 0.0000347953656518 2.0920568601177800 0.8483126266358688 0.0000000000000000 -0.0000000000000000 -0.0000000000000000 -0.0000000000000000 
40 1 -0.0873329194683034 0.0397763742343758 -0.0129942382045540 6.0815750436211102 3.9987583945216385 6.0275853801133117 0.0000348541572460 2.1070590161301883 0.8709895027917846 0.0000000000000000 0.0000000000000000 -0.0000000000000000 -0.0000000000000000 
55 1 0.1632027127195043 -0.4023515838079345 -0.0446457233770961 7.7165502870387748 0.1960897575709414 6.1317360113756534 0.0000288051610526 2.2169037321842873 0.8912104331785645 0.0000000000000000 -0.0000000000000000 -0.0000000000000000 0.0000000000000000 
65 1 -0.0178239782787526 -0.3459346144995517 -0.1093911447330807 9.0945828774775102 1.3723054265718087 6.1663202846348151 0.0000309884796106 2.2112384540966188 0.9224631565141906 0.0000000000000000 -0.0000000000000000 0.0000000000000000 -0.0000000000000000 
85 1 -0.0835140950283854 -0.2967655502370898 -0.1325241275330580 9.9049134616847905 2.4142832151613298 8.6737809556840553 0.0000352929205159 2.1915266702517902 0.9270537617800917 0.0000000000000000 0.0000000000000000 -0.0000000000000000 -0.0000000000000000 
103 1 -0.1639781439957803 0.0836569503339489 -0.0917445813574065 7.3389878046234429 5.2823237804432628 6.4435333686446876 0.0000372718859076 2.1167543922989864 0.8306928732657972 0.0000000000000000 0.0000000000000000 0.0000000000000000 0.0000000000000000 
105 1 0.0400748001293382 -0.0231218426150694 0.1193670618309721 5.6799509175057867 2.0001974032104801 9.3575002159855991 0.0000332859411591 2.1531677401222078 0.8835294155057315 0.0000000000000000 0.0000000000000000 0.0000000000000000 -0.0000000000000000 
109 2 -0.2057831616191668 0.0131890247829228 0.0695098091010990 7.9657330287040935 4.3391889882189432 10.1418142322747205 0.0000346707893218 2.2005127179993509 0.9423836396912763 0.0000000000000000 0.0000000000000000 -0.0000000000000000 -0.0000000000000000 
122 2 0.1023618792269287 -0.2184511383188152 0.1492090703683165 6.4350225909778711 1.2271075961338156 9.0828396357164127 0.0000321121277213 2.1855672224027409 0.8985100254230021 0.0000000000000000 0.0000000000000000 0.0000000000000000 -0.0000000000000000 
133 2 -0.1936416789799432 0.0723685709182572 0.1337567474481811 5.8086203406788774 4.0900056578390922 7.5754990467228884 0.0000339334721002 2.1225061334242072 0.8747847518754405 0.0000000000000000 0.0000000000000000 0.0000000000000000 0.0000000000000000 
155 2 -0.0311499745625294 -0.3708514570521497 -0.0727165436785147 8.5751208704116735 1.3185393649840202 8.1489605174619211 0.0000318493758564 2.2045152914890656 0.9232661019090118 0.0000000000000000 0.0000000000000000 -0.0000000000000000 0.0000000000000000 
8 1 0.0752932620080098 -0.1465516902743383 -0.2784225413467727 12.0411920715036000 1.6920365316773553 5.7684846350679413 0.0000323784941650 2.1416650235566674 0.8458746013513136 0.0000000000000000 -0.0000000000000000 0.0000000000000000 0.0000000000000000 
15 1 0.1201894744717774 -0.1227329850501220 -0.2136894969548027 14.3884500134284146 1.1467037740481651 8.5028193759392945 0.0000363598948867 2.0809980400184087 0.8206083127326073 0.0000000000000000 0.0000000000000000 0.0000000000000000 -0.0000000000000000 
19 1 0.0788094238610789 -0.0947783223034450 -0.2165987000475612 13.6616554374267203 1.4495749869192347 8.1112061096516843 0.0000374534564495 2.0560809531925974 0.7784480667943402 0.0000000000000000 -0.0000000000000000 0.0000000000000000 0.0000000000000000 
75 1 0.1335729904660028 0.2599568661211577 -0.0419563686444552 12.1767120064756238 3.5920748396352362 10.4422404223805838 0.0000423246133668 2.0218970110442660 0.7471745183103322 0.0000000000000000 -0.0000000000000000 -0.0000000000000000 -0.0000000000000000 
87 1 0.0652443568039722 -0.1444555903413492 -0.1536376163125479 14.6620073845474916 0.7847443899219810 10.3391815386533583 0.0000378423001895 2.1183755646822400 0.8659345587896863 0.0000000000000000 -0.0000000000000000 -0.0000000000000000 -0.0000000000000000 
100 1 0.3329645140131304 0.3617167886182255 -0.0775788407700273 12.7913008369886008 4.4608044586358631 9.6457820200032831 0.0000369656433054 2.0891907196995070 0.8090815563517570 0.0000000000000000 0.0000000000000000 0.0000000000000000 0.0000000000000000 
124 2 -0.0035419969254418 -0.2268784538595134 -0.2060681773778241 11.5509355588051079 1.6327068349592904 6.7059043624755281 0.0000343313829639 2.1214457027335820 0.8354458122843598 0.0000000000000000 -0.0000000000000000 -0.0000000000000000 0.0000000000000000 
163 2 -0.0926471626873387 -0.4305176235401316 -0.2117115495278144 12.4254130137174617 0.0522288756557039 7.0252537303384219 0.0000316872012417 2.1481270748830550 0.8060696759691848 0.0000000000000000 0.0000000000000000 -0.0000000000000000 -0.0000000000000000 
176 2 0.3020970114037929 0.1477898922178872 -0.1822772068835001 12.0003051542232626 4.7982255930943012 7.4716619124648513 0.0000338143440981 2.2164955616998934 0.9182207027285884 0.0000000000000000 -0.0000000000000000 -0.0000000000000000 0.0000000000000000 
201 2 0.1669482218997704 0.1537389530431876 -0.1704608652928827 13.3323494005362839 2.5205568037411261 9.6940020716598898 0.0000395972791413 2.0730282925702137 0.8107827417324861 0.0000000000000000 0.0000000000000000 0.0000000000000000 0.0000000000000000 
202 2 0.0615731004945487 -0.0525688517052456 -0.2484696572467943 13.6876993476561335 1.5710371988422978 6.9144996259433924 0.0000346699217347 2.0952484754606653 0.8040292319078470 0.0000000000000000 -0.0000000000000000 0.0000000000000000 0.0000000000000000 
4 1 -0.2423627406409627 -0.2018117597581919 -0.2204161365957327 4.6558786365175502 10.4912036368558255 10.5433852300193394 0.0000247217806068 2.2483396663933259 0.8668406787178754 0.0000000000000000 -0.0000000000000000 -0.0000000000000000 0.0000000000000000 
63 1 -0.0735886594443270 0.1805733036166982 0.2636850335535717 1.7831388627023663 8.3416095745264940 6.1962173481623770 0.0000215788764342 2.3576049267973125 0.9094339719816942 0.0000000000000000 0.0000000000000000 0.0000000000000000 -0.0000000000000000 
68 1 -0.1576884001106732 0.1475176356626968 0.1417111759755248 3.8821011304289819 9.1042019974808976 6.6107988296006557 0.0000224396619707 2.2620411061922456 0.9019710009827157 0.0000000000000000 0.0000000000000000 0.0000000000000000 0.0000000000000000 
91 1 -0.2094163349524766 0.3012253906424017 0.0545577475582254 3.9579265194058153 5.3478184271335216 5.5495089936986854 0.0000306827390597 2.1976527939019621 0.8754578510294468 0.0000000000000000 -0.0000000000000000 -0.0000000000000000 0.0000000000000000 
106 2 0.1247167833407717 0.3340592873544394 0.2703059528910798 0.0665226233290164 7.2319211989557957 7.4880482349728359 0.0000215032024107 2.3009837124923456 0.8631348794661867 0.0000000000000000 -0.0000000000000000 -0.0000000000000000 0.0000000000000000 
113 2 -0.2340685409633912 0.1753826850507392 0.1612809958976325 4.1932581730421754 8.8038048561308742 7.0743016318896617 0.0000230812292966 2.2490815839444980 0.8930964529119798 0.0000000000000000 -0.0000000000000000 0.0000000000000000 0.0000000000000000 
6 1 -0.2426974409631252 0.3308946262753904 -0.0467700727987742 6.2723777790024924 9.0836147406155021 7.8451259407451506 0.0000265643481245 2.2421962910286508 0.8536932397913523 0.0000000000000000 0.0000000000000000 -0.0000000000000000 0.0000000000000000 
43 1 0.0989832588035497 0.3588019308332757 -0.0103919554185547 9.2579678137012174 7.0188369770349190 7.9921696992927105 0.0000397414222530 2.0299162448505337 0.7214733923476048 0.0000000000000000 0.0000000000000000 0.0000000000000000 -0.0000000000000000 
46 1 -0.1296652566359770 0.4675272952217344 -0.1653164097086770 7.8133274338256573 8.5926347648547949 6.5499483363276036 0.0000306012120522 2.1612462713052372 0.7891310791753410 0.0000000000000000 -0.0000000000000000 -0.0000000000000000 0.0000000000000000 
69 1 -0.2287442089500629 0.3881729140604079 -0.1046757144077685 6.2299189255910594 7.5567079858937234 5.9883542177346962 0.0000310932534281 2.1784102598149002 0.8112909049727333 0.0000000000000000 0.0000000000000000 -0.0000000000000000 -0.0000000000000000 
86 1 -0.0390112880541197 0.4662607124467726 -0.0459486525152456 8.7750731961741177 7.5505047516956152 7.8057382849227119 0.0000387638057254 2.0295186204826061 0.6986748454561243 0.0000000000000000 0.0000000000000000 -0.0000000000000000 -0.0000000000000000 
131 2 0.1223174958060722 0.5589856870275068 0.0221892852954567 9.3253734537292150 9.3527081476907536 9.2279978712487178 0.0000276849788149 2.2222909671595890 0.8603821508983589 0.0000000000000000 0.0000000000000000 -0.0000000000000000 -0.0000000000000000 
143 2 -0.1820909049643126 0.0899918333640154 0.1764386060022231 8.3228310731246449 6.0632800013301287 8.8511874808708519 0.0000372977052713 2.1150750508788692 0.8538442852319331 0.0000000000000000 0.0000000000000000 0.0000000000000000 -0.0000000000000000 
172 2 0.0790718365458649 0.4865751690489210 0.0628838836179827 8.9886916258141909 8.0260315790673538 8.7003207225862305 0.0000359550490940 2.0587692027542719 0.7251915176001413 0.0000000000000000 0.0000000000000000 -0.0000000000000000 -0.0000000000000000 
183 2 0.3015051798521485 0.2518666636532768 -0.2956301960169324 10.2221204973065483 5.9345425946927222 5.9909191268182358 0.0000366374034735 2.0804024271319657 0.7961014729080258 0.0000000000000000 0.0000000000000000 -0.0000000000000000 -0.0000000000000000 
197 2 -0.4071596858441430 0.1865854752633471 0.0936424237324916 6.5184840951142800 6.4291095630965032 10.6327950711300243 0.0000303088561903 2.2483019690615196 0.9132931265894035 0.0000000000000000 0.0000000000000000 0.0000000000000000 0.0000000000000000 
203 2 0.0238765617189270 0.1768501559019022 -0.1133241816650929 6.8466928015482793 10.3024609972103605 10.3104199321664485 0.0000260521384405 2.2819018891672149 0.8792751583892998 0.0000000000000000 0.0000000000000000 -0.0000000000000000 0.0000000000000000 
5 1 0.1722660870518636 -0.1376819693793414 -0.0667222878390709 14.6907633645737103 9.9655432218541975 10.0196377064754483 0.0000176344409244 2.5640356105716009 1.0257642295999290 0.0000000000000000 -0.0000000000000000 0.0000000000000000 -0.0000000000000000 
27 1 0.2736324425669888 0.2616937902041810 -0.0716494893312715 13.7401410523506797 6.6974358571032857 6.9385573999497270 0.0000265052749821 2.2560030519719434 0.8839078690422822 0.0000000000000000 -0.0000000000000000 -0.0000000000000000 0.0000000000000000 
56 1 0.0845388532798813 0.2174853420887393 0.1534155251544151 12.8479304433342669 9.8367927895001888 5.5246863934538357 0.0000213586812406 2.3894581984481853 0.9713773725141797 0.0000000000000000 0.0000000000000000 -0.0000000000000000 -0.0000000000000000 
74 1 0.3640883654741742 0.5161043193968614 0.2043657597982743 12.1209271426069378 6.7235038376359118 10.0000672516108207 0.0000306519558787 2.1601590255461520 0.8218007414699106 0.0000000000000000 -0.0000000000000000 -0.0000000000000000 0.0000000000000000 
98 1 0.3298712997587185 0.4278043787332617 -0.2282951394254038 10.8077774410380147 7.4691783490092343 6.5827009978040358 0.0000319806254065 2.1741835805030645 0.8372908954383366 0.0000000000000000 0.0000000000000000 0.0000000000000000 -0.0000000000000000 
107 2 0.2906466447053893 0.4374293467461149 0.1795983080151013 11.1763896419677220 6.5405351502858284 9.5818123365445160 0.0000341287941312 2.1459719352496798 0.8306765477936764 0.0000000000000000 0.0000000000000000 -0.0000000000000000 -0.0000000000000000 
177 2 0.3028400386861149 0.3557001138782804 0.2284625306932795 14.6124772939853447 7.6723993240916677 7.9828626476839348 0.0000227293103058 2.2460237745556384 0.8158639132870030 0.0000000000000000 -0.0000000000000000 0.0000000000000000 0.0000000000000000 
205 2 0.4799691419023596 0.4895433374907077 0.1665130829727020 14.0320039433092845 6.5655604289697322 9.5804520217668809 0.0000252218841128 2.2354378739967857 0.8560736383803468 0.0000000000000000 0.0000000000000000 -0.0000000000000000 -0.0000000000000000 
3 1 0.0555285300121025 -0.2671415673568966 -0.0989561224654046 4.4624324222652350 12.4193128445265835 10.5298550879103647 0.0000286323164116 2.1833830761151676 0.8081187158275857 0.0000000000000000 -0.0000000000000000 0.0000000000000000 -0.0000000000000000 
14 1 -0.0874524550799079 -0.1136438375882778 -0.1463095966291759 2.1595778835566022 15.9467142347761843 9.4182654536122712 0.0000379778552868 2.0842346879696492 0.7944240593520342 0.0000000000000000 -0.0000000000000000 -0.0000000000000000 -0.0000000000000000 
71 1 0.1246407960918314 -0.4271119012795431 -0.0640855761856166 3.6030850723898427 14.2289148619688390 8.6052115715306829 0.0000349344587706 2.0825907381438284 0.7370148206856557 0.0000000000000000 -0.0000000000000000 0.0000000000000000 0.0000000000000000 
81 1 0.0557400296678089 -0.3289967856889122 -0.0211557926130870 2.8946259017315916 14.6794277730957159 10.0615786809549750 0.0000378575803770 2.0446127693305063 0.7272422400800063 0.0000000000000000 0.0000000000000000 -0.0000000000000000 -0.0000000000000000 
126 2 -0.0654609709995695 -0.5585573307755459 -0.0294848182605063 3.0468825133209165 14.2294120643206643 6.0562499389093052 0.0000312344251761 2.1752996548714254 0.8499796773876918 0.0000000000000000 0.0000000000000000 0.0000000000000000 -0.0000000000000000 
141 2 0.0755865498906667 -0.1736243084228010 -0.0192691644064333 3.8162998565884374 15.6435247024245410 8.1054556128369146 0.0000367552347337 2.0965736535634765 0.7939343183624055 0.0000000000000000 -0.0000000000000000 -0.0000000000000000 0.0000000000000000 
158 2 -0.1961836730734102 -0.4885739709290521 -0.1572853058781958 0.1449180526095895 14.2556644286586920 8.1267727572179478 0.0000270695455461 2.3126088522824961 0.9502599141532911 0.0000000000000000 0.0000000000000000 0.0000000000000000 -0.0000000000000000 
159 2 -0.1869381657564340 -0.4552692326913610 -0.0085446970215348 2.2943403529625042 12.0554281229998370 7.4349335739996736 0.0000216937532854 2.4381067362367874 0.9644401865349173 0.0000000000000000 0.0000000000000000 0.0000000000000000 -0.0000000000000000 
186 2 0.2086299396944206 -0.4375119489249358 -0.0677803642015333 4.1943602075238884 14.4966172204628663 6.5473978544670492 0.0000332777277309 2.1038745140875443 0.7721560072823771 0.0000000000000000 -0.0000000000000000 0.0000000000000000 0.0000000000000000 
206 2 0.0400365797762619 -0.3797322337416152 0.0121676405881889 3.0451313559038513 14.0748012387220616 10.5072274826744856 0.0000354100249518 2.0675019005256954 0.7445949153907659 0.0000000000000000 0.0000000000000000 0.0000000000000000 0.0000000000000000 
1 1 -0.0374544295636560 -0.3197308897782299 -0.1369145875379366 9.4614748272825384 14.0109317686786152 8.7749772553259326 0.0000224120336197 2.3454002632375062 0.9949920313241358 0.0000000000000000 -0.0000000000000000 0.0000000000000000 -0.0000000000000000 
23 1 0.2972306112084783 -0.4023732191204478 -0.0765303685198727 5.5258662489020578 15.1107867929307798 6.5386256920526975 0.0000323175537474 2.1205173773906578 0.7874802100430324 0.0000000000000000 -0.0000000000000000 -0.0000000000000000 0.0000000000000000 
129 2 0.3017227051556864 -0.3810275135807911 -0.0322119139909736 6.3112162871090858 14.5692299015547988 7.9644887065894494 0.0000273084251659 2.2553859132524794 0.8963075040325785 0.0000000000000000 0.0000000000000000 0.0000000000000000 -0.0000000000000000 
117 2 -0.0127109881547040 -0.4929523595283719 -0.2531504950084632 14.1809478927201891 15.2854477214436635 8.4680210114642200 0.0000317520121343 2.1615493611007679 0.8576090046013944 0.0000000000000000 0.0000000000000000 0.0000000000000000 0.0000000000000000 
132 2 -0.1616763968382757 -0.4126884506713213 -0.1560903704851400 11.0576596286031617 13.9942638465912434 8.2857091081220222 0.0000240503568697 2.2541531183295938 0.8766946797316918 0.0000000000000000 -0.0000000000000000 -0.0000000000000000 -0.0000000000000000 
134 2 0.0717404964216698 0.1795855966277750 -0.0694545932378366 11.8395741658138700 10.9095595687413169 7.3509674902768323 0.0000199247147632 2.4634398429670243 0.9669623242366596 0.0000000000000000 -0.0000000000000000 0.0000000000000000 0.0000000000000000 
148 2 -0.0555501182805490 -0.3807339059507581 -0.1188455695727935 14.1538673930054468 12.8200932367163905 7.7123592165139341 0.0000211988957153 2.3580555801994389 0.9626330375368950 0.0000000000000000 -0.0000000000000000 -0.0000000000000000 0.0000000000000000 
192 2 -0.0583931549341937 -0.3576879671022085 -0.1936228294482533 13.9443204115800619 12.7009374600912945 9.6762497255006465 0.0000232120263942 2.3308039406904024 0.9119267871920050 0.0000000000000000 0.0000000000000000 0.0000000000000000 0.0000000000000000 
198 2 -0.0937984462972503 -0.4113032497042030 -0.1444635639018271 11.2423236507685331 13.7409441166795983 9.4587961485133167 0.0000247531255415 2.2593420298960138 0.9023659855205620 0.0000000000000000 -0.0000000000000000 -0.0000000000000000 -0.0000000000000000 
25 1 0.0205734008510431 0.1422143043388184 -0.0508181321749862 0.9849398196155945 1.2868073593855585 10.9496122308235435 0.0000400315813725 2.0406959505523168 0.7544414427362678 0.0000000000000000 -0.0000000000000000 0.0000000000000000 -0.0000000000000000 
28 1 0.1567904790260271 0.1747742106312243 -0.0189019300307275 0.7647876915670052 1.3848707951684969 12.0751345751305674 0.0000394991994184 2.0675544828877008 0.7864048032436298 0.0000000000000000 -0.0000000000000000 0.0000000000000000 -0.0000000000000000 
48 1 0.0630642675231886 0.5433218254340110 -0.0305847478119270 2.3572057777441171 2.7289370367833428 10.7127167975223294 0.0000343212063293 2.0791988235111352 0.7699604271695537 0.0000000000000000 -0.0000000000000000 -0.0000000000000000 0.0000000000000000 
49 1 -0.2024197544923115 0.2819836337925505 -0.0504571438222349 3.8218739392277796 4.6192517518308991 14.6263046563246171 0.0000285072648532 2.2179761801422666 0.8698717613140871 0.0000000000000000 -0.0000000000000000 -0.0000000000000000 0.0000000000000000 
83 1 -0.0448704221706716 0.4105299257541222 -0.0034477913446073 3.9026151097453772 3.1752601601730488 10.8890139412291642 0.0000315652217600 2.1760685656896168 0.8585099241029256 0.0000000000000000 0.0000000000000000 -0.0000000000000000 0.0000000000000000 
94 1 -0.0376258583538087 0.4373299227750799 0.0311181326563654 0.5296939064883858 2.2050522542836588 15.4334877202967498 0.0000357639335824 2.0777394562893923 0.8169215515687633 0.0000000000000000 -0.0000000000000000 -0.0000000000000000 0.0000000000000000 
97 1 0.0649547982241294 0.4397189828162623 -0.1364102039561294 1.9621220286769343 2.8089206906427595 15.6174044181918443 0.0000338914947676 2.1259029994846710 0.8350154684547149 0.0000000000000000 -0.0000000000000000 -0.0000000000000000 -0.0000000000000000 
112 2 0.3010300227382072 -0.1804490312617354 0.1095155398197716 4.2912913122785881 0.5570941828004472 12.6022455795309938 0.0000301118782284 2.2907511468589439 0.9770297243455555 0.0000000000000000 0.0000000000000000 -0.0000000000000000 -0.0000000000000000 
127 2 -0.0154657690986832 0.2178951897994251 0.0248540366068651 0.6127880314447277 1.6165087707856580 15.7273472633220930 0.0000374809292410 2.0613346268213437 0.8020858088759206 0.0000000000000000 0.0000000000000000 0.0000000000000000 0.0000000000000000 
162 2 -0.3949377247144413 0.3472865863972788 -0.0983140732660174 4.2077917474052988 5.3018401503001531 11.8995148011834040 0.0000257809659029 2.2670041529695037 0.9141893850610401 0.0000000000000000 -0.0000000000000000 -0.0000000000000000 0.0000000000000000 
174 2 0.1047638393013875 0.4464443157994206 0.0050938027401551 2.0849862686030760 2.7273566483820231 12.9676201696694910 0.0000340025077262 2.1504696711001365 0.8299312032335844 0.0000000000000000 0.0000000000000000 -0.0000000000000000 -0.0000000000000000 
189 2 0.1062589564153400 0.3626790657148384 0.0329831559333304 0.1503308421852370 2.0284188265664334 13.9990898316118741 0.0000368794227869 2.1015110591141113 0.8337164853715886 0.0000000000000000 -0.0000000000000000 0.0000000000000000 0.0000000000000000 
18 1 -0.2004756247037153 0.2317785001702136 0.1626377720117700 10.1532740472814407 3.5842463095339192 11.8504246212869813 0.0000393810347211 2.0788332580459441 0.8345324786038900 0.0000000000000000 0.0000000000000000 0.0000000000000000 -0.0000000000000000 
38 1 -0.1941845428517907 -0.0689607825839830 0.0303466585820832 7.5564541115519308 3.2121452990341979 11.7722142086462362 0.0000330212567460 2.2083743186805727 0.9373654040936681 0.0000000000000000 0.0000000000000000 -0.0000000000000000 0.0000000000000000 
54 1 -0.2848893602940265 -0.0999843171657186 0.0300760993399704 10.0582571644691594 2.8337900663500721 11.3056132941000556 0.0000400078505810 2.0478068116623054 0.8087260011339017 0.0000000000000000 -0.0000000000000000 0.0000000000000000 0.0000000000000000 
70 1 -0.0923815904273262 0.0930050236397578 -0.0214201296864182 5.3510734992823092 3.4759484797145217 13.7363218978270094 0.0000311609469050 2.2353619134433882 0.9134923965107113 0.0000000000000000 0.0000000000000000 0.0000000000000000 -0.0000000000000000 
84 1 -0.2042342794203923 -0.1180127855826481 0.0478127737228005 7.8192848849626841 2.0736997909128356 15.8995403927878272 0.0000369307439946 2.0524736925420832 0.7569855653520859 0.0000000000000000 0.0000000000000000 0.0000000000000000 -0.0000000000000000 
168 2 -0.2029618825342900 -0.2659477845386414 -0.0621374828809568 7.3152908032441575 1.7440264696697612 13.6259237715487931 0.0000311306435110 2.2013863528139019 0.9386139939357996 0.0000000000000000 0.0000000000000000 0.0000000000000000 -0.0000000000000000 
169 2 -0.2816312722304662 -0.2657222686228612 -0.0620070448260252 7.8445877190719191 1.7246235730094817 15.0601074592529383 0.0000355163219013 2.0700551513703953 0.7888016239086622 0.0000000000000000 -0.0000000000000000 -0.0000000000000000 0.0000000000000000 
184 2 -0.3133978957372389 -0.4768541363024056 -0.0333911760039812 9.5067968844063575 1.6604348105366897 10.8691454109033891 0.0000340946369384 2.1546982022950951 0.9215236459242074 0.0000000000000000 -0.0000000000000000 -0.0000000000000000 -0.0000000000000000 
188 2 -0.1322934741006867 -0.0463688373352661 0.0910513636013213 9.4409226175683649 2.3433953755293029 15.2291216249837973 0.0000394862201131 2.0708372567117710 0.7764316179063654 0.0000000000000000 -0.0000000000000000 -0.0000000000000000 -0.0000000000000000 
195 2 -0.0717911425818007 0.3145498302311453 0.0909820987534562 8.1329397087581832 4.5547301356932799 15.8403395701234295 0.0000323380225092 2.1971336050954315 0.8718366347320524 0.0000000000000000 -0.0000000000000000 0.0000000000000000 0.0000000000000000 
29 1 0.2393150794404874 0.4759027867079128 0.1666622576789036 12.1899856223187175 5.1152064427869126 15.2684815879977140 0.0000254274013927 2.3325433695915638 0.9785467552791457 0.0000000000000000 -0.0000000000000000 -0.0000000000000000 0.0000000000000000 
32 1 0.0517494270638751 -0.2065352987104047 0.0084125139777086 14.4761472012204138 0.0760211354610528 13.4569233689669758 0.0000383453294169 2.1313965606378682 0.8810555472067815 0.0000000000000000 0.0000000000000000 -0.0000000000000000 -0.0000000000000000 
44 1 0.1958044565490129 0.6266133836829013 0.2525075621199926 12.3369644837384111 3.5440894137322996 13.4583356486696193 0.0000389508447389 2.0626621406021641 0.7708554690855128 0.0000000000000000 0.0000000000000000 0.0000000000000000 -0.0000000000000000 
47 1 0.1513934915859046 0.0160801494221864 -0.0302883799844137 13.8549788138908081 1.4426343186404638 11.9837654514942269 0.0000405380804120 2.0971021971866621 0.8506218362604625 0.0000000000000000 0.0000000000000000 -0.0000000000000000 -0.0000000000000000 
60 1 -0.2453438580498021 -0.2364000716597019 -0.1208734634762035 11.2895856735642806 2.0272135177541202 11.4794009870084359 0.0000419920525398 2.0401945330181102 0.7851263227055051 0.0000000000000000 -0.0000000000000000 0.0000000000000000 -0.0000000000000000 
80 1 0.0527141256191042 0.5307660795127548 -0.0371397513301653 15.5134296468542168 4.8587011233388306 14.3644042496698621 0.0000231786376715 2.4899534212968799 1.0513990377030880 0.0000000000000000 0.0000000000000000 0.0000000000000000 0.0000000000000000 
90 1 -0.0904457786251368 -0.0720556355787624 0.1617056536790540 11.9575446940521495 1.2732101357821446 14.3439832452256599 0.0000432809042429 2.0043994759199766 0.7448428720149408 0.0000000000000000 0.0000000000000000 0.0000000000000000 0.0000000000000000 
118 2 -0.0082959282798819 -0.0063689742464904 0.2602253107363374 12.0902250082558016 1.2972158890276533 14.8086780424878484 0.0000424857474109 2.0109776126575380 0.7473544804583984 0.0000000000000000 -0.0000000000000000 0.0000000000000000 0.0000000000000000 
119 2 -0.0176283466552428 -0.0313210870330120 0.2853023818394868 12.0808930363974127 0.9141463598734527 15.3675463570622046 0.0000403172698786 2.0455194908159831 0.7880359435403258 0.0000000000000000 -0.0000000000000000 0.0000000000000000 0.0000000000000000 
123 2 0.2851159047616851 0.4356691808170371 0.0006612912223380 12.3815874862990238 3.7709041631353148 11.1534899016212190 0.0000416713679006 2.0278755807747970 0.7447947036726553 0.0000000000000000 0.0000000000000000 0.0000000000000000 0.0000000000000000 
139 2 0.1405813651051979 0.4996328242382441 0.2019590944812763 12.2426183496162615 2.9287262106117646 13.7444252894646368 0.0000422005004534 2.0182268423834877 0.7368453471748916 0.0000000000000000 -0.0000000000000000 -0.0000000000000000 -0.0000000000000000 
208 2 0.0556831079029364 -0.0134661684131607 0.0925262429624491 12.6022425376393379 1.6146666490556543 13.3660758540691873 0.0000443264302922 2.0021989664210480 0.7427776990621090 0.0000000000000000 -0.0000000000000000 0.0000000000000000 0.0000000000000000 
33 1 -0.0182632123225251 -0.4209037298591918 -0.4687465069253020 1.4113764055694127 9.9096000114096725 14.2572410001341279 0.0000265047029174 2.2502348778958554 0.8417766060436751 0.0000000000000000 -0.0000000000000000 0.0000000000000000 -0.0000000000000000 
121 2 -0.2738069009045195 0.2208243789957456 -0.1313704156495608 3.5325478582330279 6.2648717875044380 14.4097019950602458 0.0000240220238155 2.3100953079742319 0.9597818135134583 0.0000000000000000 -0.0000000000000000 -0.0000000000000000 -0.0000000000000000 
53 1 0.1293328832375246 0.1041528916676065 0.1091794728647240 7.6030019908752777 9.7724095804328517 13.3563175743963960 0.0000278546291311 2.1955895373751693 0.8079275854796049 0.0000000000000000 -0.0000000000000000 -0.0000000000000000 -0.0000000000000000 
73 1 -0.1643402480650474 -0.0473853104523890 -0.0864988414173913 5.8981440761873865 9.5796864646484767 11.9944086400612555 0.0000287424500955 2.1894705100516347 0.7867857619648708 0.0000000000000000 -0.0000000000000000 -0.0000000000000000 0.0000000000000000 
82 1 -0.2292425542667752 0.2008814194550416 -0.0007592806675043 5.4150450181514120 5.7056229315779250 13.0576356389947623 0.0000297462188617 2.1639430898215712 0.8271564131671897 0.0000000000000000 -0.0000000000000000 0.0000000000000000 -0.0000000000000000 
88 1 0.1512022381723385 0.2781167160779444 0.2466108148135199 8.2756986586679524 7.4299915274903698 13.0008235482952816 0.0000289186805338 2.1690425457717066 0.8548120924608853 0.0000000000000000 0.0000000000000000 -0.0000000000000000 -0.0000000000000000 
93 1 -0.0645729833828842 0.2127168182443896 0.2138658225020218 7.8477308573714923 6.0606918301292971 12.5660908623568286 0.0000320234201091 2.1545727248906141 0.8727622162094566 0.0000000000000000 -0.0000000000000000 0.0000000000000000 -0.0000000000000000 
154 2 0.1385805310557115 0.2640195292609914 0.2107448565514507 8.6267280516297369 7.9587451351543574 11.6936620977941050 0.0000297297123210 2.2002129201947760 0.8581198123706592 0.0000000000000000 0.0000000000000000 0.0000000000000000 -0.0000000000000000 
164 2 -0.0222481736480204 -0.0577164405380520 0.2037168617403085 6.2935060439276258 9.0203211276813953 14.7311931621969165 0.0000253738993890 2.3070690735128743 0.8963298551749130 0.0000000000000000 -0.0000000000000000 -0.0000000000000000 0.0000000000000000 
173 2 -0.1259971725570042 0.2198991819701017 0.1737712743367510 6.7581527940682289 6.7453218405947979 13.6513773958777413 0.0000297911014898 2.1665599024088964 0.8332927680827991 0.0000000000000000 0.0000000000000000 -0.0000000000000000 0.0000000000000000 
7 1 0.0037744315476220 -0.2348373303100138 -0.2022290403826117 12.8660022017444557 8.7222886625119500 14.5843562584852844 0.0000219389293592 2.3193107363966168 0.9672351305443025 0.0000000000000000 -0.0000000000000000 0.0000000000000000 0.0000000000000000 
59 1 -0.0956032031174741 -0.3892973834392153 -0.2070856399658838 13.4431536145008810 8.6884617482271747 15.3642630684144752 0.0000244957692368 2.2241780735406920 0.8519823881034805 0.0000000000000000 -0.0000000000000000 0.0000000000000000 0.0000000000000000 
62 1 -0.0296400101811521 -0.5136520694990439 -0.3115081914256181 14.8570411583436872 9.1382607742091917 15.3898677439696971 0.0000285664946952 2.1614207758747579 0.7463654545267461 0.0000000000000000 0.0000000000000000 -0.0000000000000000 -0.0000000000000000 
209 2 0.3656813969322725 0.5088791431349428 0.2272103734395119 12.9058741311153007 6.4498055983094167 12.0085075964534589 0.0000243482756650 2.3396325002996274 0.9477082787818804 0.0000000000000000 0.0000000000000000 0.0000000000000000 0.0000000000000000 
35 1 -0.0498195558495299 -0.1465180780383177 -0.0822589010602522 4.5430448213601329 11.3831979368669209 12.2936254414448864 0.0000297460820317 2.1379702691544411 0.7491715777677027 0.0000000000000000 -0.0000000000000000 -0.0000000000000000 -0.0000000000000000 
42 1 0.0814194171675619 -0.0967669307101419 -0.0697120985690441 3.5888673999874583 11.4278977162656332 14.1928742895477900 0.0000299082083150 2.1739835890411863 0.8098220244528415 0.0000000000000000 -0.0000000000000000 0.0000000000000000 0.0000000000000000 
51 1 0.1208972573066409 -0.1234930988872485 -0.1819511821401553 1.8656104302646153 12.4579806573930831 14.7101992479672070 0.0000318265303113 2.2000732102539757 0.8882932529523174 0.0000000000000000 0.0000000000000000 0.0000000000000000 0.0000000000000000 
114 2 0.0892384493244258 -0.1291779954643779 0.0217030590370242 0.2712683881323142 15.7072344006027542 15.0767912043335084 0.0000354632235953 2.1922845673897271 0.9458360872392111 0.0000000000000000 -0.0000000000000000 -0.0000000000000000 0.0000000000000000 
115 2 0.0070015585719726 -0.4226466279178308 -0.1089956371403006 0.2046075561260870 14.7061360677486004 11.5491060671358365 0.0000335049260523 2.2143622422970077 0.9060771642374452 0.0000000000000000 -0.0000000000000000 0.0000000000000000 0.0000000000000000 
146 2 0.3054895664128691 -0.1355407832239190 0.0774518902730615 3.1681278214421758 15.4778605275050900 13.3369748871099532 0.0000306429311853 2.2899118471029674 1.0011612392331624 0.0000000000000000 -0.0000000000000000 0.0000000000000000 -0.0000000000000000 
180 2 0.1593657829190951 0.0423396669322802 0.0414726683616133 5.2102500552731854 11.7893847617806653 14.4050833214716043 0.0000282327952536 2.1943432238912530 0.8336377864576178 0.0000000000000000 0.0000000000000000 0.0000000000000000 0.0000000000000000 
200 2 0.1245903412017552 -0.3051305394893966 0.0186328983443043 3.1882636255408894 13.8421576749626620 11.3545825499235704 0.0000332232863257 2.1175184899780568 0.8078093096237599 0.0000000000000000 0.0000000000000000 0.0000000000000000 0.0000000000000000 
10 1 -0.1742424783022807 -0.2360347229905605 -0.1897960879634717 10.2935423904408694 12.8619436843609876 13.0659460887132699 0.0000255243806162 2.2168065050934374 0.9231989817218690 0.0000000000000000 0.0000000000000000 -0.0000000000000000 -0.0000000000000000 
50 1 0.0892923486666666 -0.0391958597563993 0.0029373978780905 8.3350172417180097 11.0917314590289173 14.3786733313144541 0.0000248155541015 2.2886568948720472 0.8870401831445882 0.0000000000000000 -0.0000000000000000 0.0000000000000000 0.0000000000000000 
58 1 0.0418208432006282 -0.1204749936860118 -0.0328534993823057 7.3685863256001429 14.4830898618328732 12.3172086322656256 0.0000236272419002 2.5031829960598566 1.0370154829203324 0.0000000000000000 0.0000000000000000 -0.0000000000000000 0.0000000000000000 
110 2 0.1575091591009769 0.0741923601750567 -0.0294453280663569 5.8777038495668341 12.1152073947491559 13.0384931499443173 0.0000285245243101 2.1796718180122645 0.8009438387035126 0.0000000000000000 0.0000000000000000 0.0000000000000000 0.0000000000000000 
130 2 0.0789076605617617 -0.1843734697934542 -0.0711238630550692 6.3588132053766255 14.4542748341431491 15.8223067579874783 0.0000249013523990 2.4263183391054337 1.0280842262290952 0.0000000000000000 -0.0000000000000000 0.0000000000000000 -0.0000000000000000 
9 1 -0.0210628339621978 -0.1653470322948596 -0.1580253579459932 15.8777738059205333 11.5519935857186322 15.3987177685172227 0.0000356172932865 2.0862590331530204 0.7522522945648500 0.0000000000000000 0.0000000000000000 0.0000000000000000 0.0000000000000000 
24 1 -0.2502018337542962 -0.3069476876935483 -0.1780542597945203 10.8792958699831228 14.0335973954850797 13.0545910176049613 0.0000282869304776 2.2194330924232881 0.9599243196938190 0.0000000000000000 0.0000000000000000 -0.0000000000000000 -0.0000000000000000 
78 1 -0.1147251017796371 -0.4842961202130145 -0.2205228788397978 14.3628276669608468 13.5271987715916016 12.5733533359039917 0.0000304020440728 2.1967191364178587 0.9264220490177283 0.0000000000000000 -0.0000000000000000 -0.0000000000000000 -0.0000000000000000 
92 1 -0.1044190292292624 -0.3043413272830683 -0.0230220470945372 13.3730228893872649 14.4127355452331187 14.9618913599177255 0.0000349452149336 2.1588946879644100 0.8973796410594886 0.0000000000000000 -0.0000000000000000 -0.0000000000000000 -0.0000000000000000 
99 1 0.1331223144722697 0.0399038830567921 -0.0467589417187449 10.8481373917769073 10.8286830804734517 10.9997161844119304 0.0000216172534568 2.4507825062780508 0.9668815339628267 0.0000000000000000 -0.0000000000000000 0.0000000000000000 0.0000000000000000 
101 1 -0.0252107905304251 -0.4039970257849102 -0.3559157853128838 15.9257537413092471 11.9204673388597282 13.7463523898838851 0.0000302130248456 2.1695167101427311 0.8490720114056349 0.0000000000000000 -0.0000000000000000 0.0000000000000000 -0.0000000000000000 
157 2 -0.1442122946839764 -0.3374178123600264 -0.2219065364599412 10.7094889737362902 13.1617950994887938 12.5205921513885023 0.0000259363998419 2.2030363901990384 0.9304279342258273 0.0000000000000000 -0.0000000000000000 -0.0000000000000000 0.0000000000000000 
160 2 -0.2423664204833469 -0.2703321100973621 -0.1717656407900998 13.1725263549203113 12.2815336819713821 15.2407807391989856 0.0000309119641834 2.2400310579860081 0.8795674500411478 0.0000000000000000 0.0000000000000000 -0.0000000000000000 -0.0000000000000000 
167 2 -0.1083718088676551 -0.4156601543276599 -0.2805723299991459 14.7884971963523597 12.8701740555670199 13.0837205992346295 0.0000299533656245 2.1755951244070459 0.8962562535875037 0.0000000000000000 -0.0000000000000000 -0.0000000000000000 0.0000000000000000 
