ITEM: TIMESTEP
0
ITEM: NUMBER OF ATOMS
210
ITEM: BOX BOUNDS pp pp pp
0.0000000000000000e+00 1.6119873854239600e+01
0.0000000000000000e+00 1.6119873854239600e+01
0.0000000000000000e+00 1.6119873854239600e+01
ITEM: ATOMS id type fx fy fz x y z rho_SPH width_SPH omega_SPH u_SPH vx vy vz 
13 1 0.1249377655377833 0.2308453312698257 -0.1806579787313827 2.6422971990109443 2.3570599298790533 1.0203444206404955 0.0000357634949953 2.1080854050973894 0.8023659284980730 0.0000000000000000 -0.0000000000000000 -0.0000000000000000 0.0000000000000000 
31 1 0.1585758891025367 -0.0557800207348800 -0.0783595017491853 5.3020601851221141 2.1455141718219410 1.8603876265025916 0.0000307923669096 2.2340924639945614 0.9545474176556537 0.0000000000000000 -0.0000000000000000 -0.0000000000000000 0.0000000000000000 
36 1 -0.0509699172437389 0.3318843820677979 0.0984037957325330 1.9277928457431122 5.0325787760239589 4.9033409545700444 0.0000325481143289 2.0898297669393675 0.7263560788146899 0.0000000000000000 -0.0000000000000000 0.0000000000000000 0.0000000000000000 
67 1 -0.1044173898694218 0.0565105396012810 -0.0041333322049702 1.4116796522883779 1.0405567396584250 2.8446568029148800 0.0000425043721057 2.0073176181206440 0.6879220482108286 0.0000000000000000 -0.0000000000000000 0.0000000000000000 -0.0000000000000000 
79 1 0.0661684014244499 0.1436049741823195 0.0283360423964617 2.3702874984034468 1.7430266269537953 3.1159600184390563 0.0000408458934614 2.0286395159347288 0.7280418005352651 0.0000000000000000 -0.0000000000000000 0.0000000000000000 0.0000000000000000 
96 1 -0.3326955656085113 0.1178949486370621 0.1337386596213757 0.3119370262289295 2.1142349172283943 5.0281896321167805 0.0000334971832493 2.1341478432257404 0.8360600947206693 0.0000000000000000 0.0000000000000000 0.0000000000000000 -0.0000000000000000 
151 2 -0.0103684961106767 0.2473639902744265 -0.0491238148004709 5.3534048257681235 4.3756463838727440 1.1744113388356938 0.0000290030735061 2.2369781457261286 0.9412584975092291 0.0000000000000000 -0.0000000000000000 -0.0000000000000000 -0.0000000000000000 
156 2 -0.0654375665547043 0.3091368091279443 -0.0645540097163427 4.1783585018377991 4.4686523573388648 1.5125502851299508 0.0000288428533190 2.2445158016841757 0.9472006939034565 0.0000000000000000 0.0000000000000000 -0.0000000000000000 -0.0000000000000000 
165 2 -0.0735967787590082 -0.0079652156123084 0.1394961732071889 1.9881685722128066 1.0961176096481346 4.7924715230552266 0.0000372226897059 2.0858033892387642 0.8093992854958747 0.0000000000000000 0.0000000000000000 0.0000000000000000 -0.0000000000000000 
171 2 0.0703596629064567 0.0736517311954593 0.0322609191555670 2.3021647030174410 1.3338126121690308 3.3159681489480408 0.0000417809538108 2.0123716244062999 0.7118059450390868 0.0000000000000000 0.0000000000000000 0.0000000000000000 -0.0000000000000000 
179 2 -0.0083541195525332 0.0101005046344984 -0.1013845432494075 1.2890028152790867 0.7100169282737090 1.1529071893382350 0.0000389774951178 2.0657935961258285 0.7742818393946506 0.0000000000000000 -0.0000000000000000 0.0000000000000000 0.0000000000000000 
182 2 -0.3103330967259045 0.2995259021540865 -0.0333197802472436 0.1795237746375971 3.8781558421655533 4.7556250230401105 0.0000307876532804 2.1471168104044596 0.8237757557573389 0.0000000000000000 -0.0000000000000000 -0.0000000000000000 0.0000000000000000 
193 2 0.1769982224502056 -0.2009059936925725 -0.2012185806567741 4.8965252825098480 0.9828835007325716 0.8882595524076101 0.0000297035150128 2.2619614400622026 0.9478798843690187 0.0000000000000000 0.0000000000000000 0.0000000000000000 -0.0000000000000000 
30 1 -0.0874533992873022 0.1959857819474526 -0.2045681781242622 6.6013300895145788 4.8353118791150207 3.4026530643337649 0.0000298332446776 2.2826842238215974 0.9546449308397483 0.0000000000000000 -0.0000000000000000 0.0000000000000000 0.0000000000000000 
34 1 -0.1890718341558127 -0.2109147194251793 0.0581416041240972 8.0033402429468730 1.6804751988216569 0.0437634492384734 0.0000355391472313 2.0688709337024527 0.7666585483456931 0.0000000000000000 -0.0000000000000000 0.0000000000000000 0.0000000000000000 
57 1 -0.0356217849267429 -0.1873864115315627 0.2791055565334467 9.8173600005719681 0.9754594946083532 1.7571514327643134 0.0000325373261474 2.1728773093715539 0.8558618512685116 0.0000000000000000 -0.0000000000000000 0.0000000000000000 -0.0000000000000000 
108 2 0.3356351069349656 -0.2593477783774538 -0.1088608601409926 5.5271454889503602 0.0273919481584866 4.7764726996836648 0.0000304459819716 2.2051537059469166 0.8959392470713966 0.0000000000000000 -0.0000000000000000 -0.0000000000000000 0.0000000000000000 
120 2 0.1721394191235227 -0.0715150143254536 -0.2538219541942520 9.7847052974923265 4.4002271195643008 5.2460469267436167 0.0000345317192289 2.1092834435298347 0.8324343878649106 0.0000000000000000 0.0000000000000000 0.0000000000000000 -0.0000000000000000 
181 2 0.1410551736262830 0.2154767239623674 0.1329499881568046 9.4140579966667399 3.8275908264372247 1.3762865179334285 0.0000339467587327 2.1332891846190130 0.7972081037946809 0.0000000000000000 0.0000000000000000 -0.0000000000000000 -0.0000000000000000 
185 2 0.3049973434383965 0.0942702491593299 -0.3202686222983238 10.5091679847979940 5.2584651116655294 5.2273463669569615 0.0000332325233694 2.1076763365101066 0.8229338195443427 0.0000000000000000 0.0000000000000000 0.0000000000000000 0.0000000000000000 
204 2 0.0648298065639194 -0.0416412641078659 -0.0810636518315873 8.9379748397051699 3.5617107642105155 3.8335555790131877 0.0000319390632701 2.2001045600469471 0.8896486388711862 0.0000000000000000 -0.0000000000000000 0.0000000000000000 0.0000000000000000 
66 1 0.0559282491880824 -0.1812859162342892 0.1759149238104037 10.9739456639508823 0.8324227688192530 3.4335457975154222 0.0000283358371355 2.2832220140450930 0.9450861459195891 0.0000000000000000 0.0000000000000000 -0.0000000000000000 0.0000000000000000 
111 2 0.2226276264862690 0.4977636864221048 0.2349593429408170 10.8358884977169296 4.3573732244494945 0.0189346614198937 0.0000306905449066 2.1905189275841646 0.8638467009007103 0.0000000000000000 -0.0000000000000000 -0.0000000000000000 0.0000000000000000 
140 2 0.1466504933575173 0.2367795687688150 0.2639684685874336 11.7244632161986253 2.3127575102415325 1.5828918475325260 0.0000305835564417 2.2460166427979571 0.9119960180473878 0.0000000000000000 -0.0000000000000000 0.0000000000000000 -0.0000000000000000 
152 2 -0.1806650014251521 -0.1529262412911850 0.1849853231993762 14.5297596666790678 0.0272504128521646 3.7270235926006468 0.0000299281672429 2.1744656643560605 0.8869062873487743 0.0000000000000000 -0.0000000000000000 0.0000000000000000 -0.0000000000000000 
207 2 -0.1236702493601873 0.1729552952251768 0.0467177253981709 13.8512531882853729 1.9461854010566619 3.9922192665228486 0.0000280549898322 2.2799715271803924 0.9592050734409220 0.0000000000000000 0.0000000000000000 -0.0000000000000000 -0.0000000000000000 
41 1 -0.0308164906760400 -0.1550215491738602 -0.0734587313669753 1.0782354776648679 7.9711375073393862 1.7159786846990093 0.0000257167572571 2.2778379024198854 0.8758837067602412 0.0000000000000000 0.0000000000000000 -0.0000000000000000 -0.0000000000000000 
76 1 0.0403372704238719 0.1166881467503581 0.0029678150428851 5.2920474697591793 8.5028162330752970 2.5021335507549671 0.0000223804783360 2.4464711036129776 1.0294962130647984 0.0000000000000000 0.0000000000000000 -0.0000000000000000 0.0000000000000000 
77 1 -0.0667028413905601 0.2353991976845824 -0.1045070586909775 1.8514835599990269 5.6588811938908403 3.3958183165855376 0.0000290992538351 2.1740763947944415 0.8309615757880701 0.0000000000000000 0.0000000000000000 -0.0000000000000000 0.0000000000000000 
128 2 0.2200263731480512 -0.2738044165192227 -0.0044314418630064 2.3412821543396607 10.3107824997954989 0.0737566144275703 0.0000318685265974 2.1318379828298619 0.7412049615762019 0.0000000000000000 0.0000000000000000 0.0000000000000000 0.0000000000000000 
136 2 -0.1132395597316085 0.1888255697493125 0.0018174206960517 1.6163234297269307 6.6740055930163615 3.7379235012715704 0.0000274762564160 2.1886730076484833 0.8196173371585256 0.0000000000000000 0.0000000000000000 0.0000000000000000 0.0000000000000000 
199 2 -0.0007638588515756 -0.1019228730976539 -0.1539066963143185 2.5006341978155811 7.6982947819458607 0.5391533250781122 0.0000240308082083 2.3410335601200978 0.9509675255634182 0.0000000000000000 -0.0000000000000000 0.0000000000000000 0.0000000000000000 
2 1 0.0736794001385457 0.3805192171249113 -0.0411334192146147 8.9494669335759340 6.5124860941515186 0.9428025479743967 0.0000254954254854 2.2864692294429627 0.9450622262104404 0.0000000000000000 -0.0000000000000000 0.0000000000000000 0.0000000000000000 
12 1 -0.0281626804812240 0.3593714201619184 -0.0921122848769880 8.9060652041881863 8.9372235048123247 3.8141513659103872 0.0000231944783788 2.3976009413752433 0.9309354273670071 0.0000000000000000 -0.0000000000000000 -0.0000000000000000 0.0000000000000000 
17 1 -0.0704043319036656 0.2962131027092184 -0.1375910556537666 6.2616955152652363 8.6645458340843380 4.3552531126608045 0.0000240116883982 2.2968250627731503 0.9120511936882313 0.0000000000000000 0.0000000000000000 0.0000000000000000 0.0000000000000000 
64 1 -0.0042772206489781 0.3200924398131519 -0.2106133868098732 8.1177574730707089 6.8063206427781813 2.6099578615075494 0.0000271294362259 2.2451544460573527 0.8919327375895584 0.0000000000000000 0.0000000000000000 0.0000000000000000 0.0000000000000000 
116 2 0.0426537012740570 0.1642114959542335 -0.3064087542349060 9.0499811252457718 5.7062370448195461 4.3939304955202818 0.0000346517418952 2.0997321155434836 0.7666506429670410 0.0000000000000000 -0.0000000000000000 0.0000000000000000 -0.0000000000000000 
149 2 0.3221381816822878 0.2356880695328414 -0.1427881781314101 10.3626080903741347 5.3903679881383484 2.5379131096817069 0.0000280206748371 2.2172644967561466 0.8679314592134626 0.0000000000000000 -0.0000000000000000 0.0000000000000000 -0.0000000000000000 
20 1 -0.0555326686404224 0.0156633406547816 0.3043651503081423 13.8932106997525047 9.9487868660002423 3.5683576726336126 0.0000249746461078 2.2035574852201307 0.8265359692302272 0.0000000000000000 -0.0000000000000000 0.0000000000000000 -0.0000000000000000 
21 1 -0.1031387028537679 -0.2217483957606529 0.1986553450411179 13.9883477123989675 9.0818565370724080 2.7302857945156500 0.0000264217884013 2.1796516279140983 0.7804436929288999 0.0000000000000000 0.0000000000000000 -0.0000000000000000 0.0000000000000000 
102 1 -0.1381195187113596 -0.0647539890827807 0.0076748480355240 15.0808042351841607 7.3373953242171126 3.2155456381870420 0.0000233208770989 2.3303857140522979 0.9195223222508220 0.0000000000000000 -0.0000000000000000 -0.0000000000000000 0.0000000000000000 
166 2 -0.0772553080240279 0.2361182033620266 0.0622933708662602 15.7828329523266699 6.0393760483193990 5.3021596896779437 0.0000261229125104 2.2377643968989105 0.8240961193226659 0.0000000000000000 -0.0000000000000000 0.0000000000000000 -0.0000000000000000 
175 2 -0.2217820641290136 -0.1770347779286145 0.2069960627758841 12.8281353117666441 10.0646436855168577 2.3959987964688598 0.0000273266774994 2.1702530451333479 0.7625640023723185 0.0000000000000000 -0.0000000000000000 0.0000000000000000 -0.0000000000000000 
191 2 -0.1407693990398441 -0.2875533230107729 0.1197157210520131 15.2078873084110633 10.3519418350427070 0.8506879615224836 0.0000343662216859 2.0842180557343624 0.6986195183687692 0.0000000000000000 -0.0000000000000000 0.0000000000000000 -0.0000000000000000 
37 1 0.0563872601434761 -0.3343713730757825 0.2908457529435541 2.1841622317899922 13.1533428550274003 3.3760681254575968 0.0000298190073135 2.1584910996315001 0.8426247635111694 0.0000000000000000 0.0000000000000000 0.0000000000000000 -0.0000000000000000 
39 1 0.1330535877091839 -0.3147898088039158 0.0487301369068911 3.0911152771723454 15.9913751737272811 4.2785138193352026 0.0000367912328077 2.1030803153705295 0.7917671690579247 0.0000000000000000 0.0000000000000000 0.0000000000000000 0.0000000000000000 
45 1 0.3057982086994612 -0.0720160972384764 0.1137307309691752 4.0498825311653341 11.2152956828658326 1.0343578413128440 0.0000270487104670 2.2410141299657607 0.8649473971208208 0.0000000000000000 -0.0000000000000000 -0.0000000000000000 0.0000000000000000 
89 1 0.2548595106731025 -0.1490817041226394 0.0362496233540457 2.5507810435399576 13.7447254615917398 1.9390979627898237 0.0000324077905347 2.1481073055218758 0.8427520900444608 0.0000000000000000 -0.0000000000000000 0.0000000000000000 0.0000000000000000 
138 2 0.2915929468579154 -0.2232525158987009 0.2320495168714737 2.5828560717207893 11.4726254493221198 1.8476575495019991 0.0000306242353211 2.1435679745209963 0.7732481591576328 0.0000000000000000 0.0000000000000000 -0.0000000000000000 -0.0000000000000000 
145 2 0.0696970418799482 -0.1803733969466599 0.2562447108446141 0.9686818554517462 10.8075146055984899 1.5896734984686840 0.0000327436201656 2.1275664013639393 0.7596932275793183 0.0000000000000000 -0.0000000000000000 -0.0000000000000000 0.0000000000000000 
194 2 0.3334255179611921 -0.2665116939054943 -0.0846745889398825 3.5112337762652079 14.8939523146773212 1.7834174778893075 0.0000312345043414 2.2155847003793152 0.8957661333824869 0.0000000000000000 0.0000000000000000 -0.0000000000000000 -0.0000000000000000 
196 2 0.2497317860624186 -0.2143394686942920 0.1881670408025996 4.9306273987173910 11.7453500753267335 3.6850107473952400 0.0000216755314398 2.4091976720969051 0.9544512537245154 0.0000000000000000 -0.0000000000000000 0.0000000000000000 0.0000000000000000 
210 2 -0.0996430207428634 -0.3172865551007285 0.3417803827876670 1.4669639946827380 13.4082837344816923 3.5074862896388339 0.0000291380910878 2.1966379813421790 0.8928021481570890 0.0000000000000000 0.0000000000000000 -0.0000000000000000 -0.0000000000000000 
11 1 -0.1867649593545732 -0.1592072810789181 0.0541513578802326 9.4171411198854340 11.2210325458300026 0.2531829513010735 0.0000241138485060 2.2620597134003715 0.8819931853897329 0.0000000000000000 0.0000000000000000 0.0000000000000000 -0.0000000000000000 
95 1 -0.2074577111848264 -0.1178640710263929 0.1346695348573671 9.9620656309648172 11.4215329339786038 1.1654082186358741 0.0000256035928239 2.1826514974228779 0.7890649352487838 0.0000000000000000 0.0000000000000000 -0.0000000000000000 -0.0000000000000000 
104 1 -0.1495885621335242 -0.3319298669817455 0.1467401020964764 8.5290490407551616 15.4360492059291410 1.6960747598751356 0.0000274429597413 2.2355330874753259 0.9103301376964106 0.0000000000000000 -0.0000000000000000 -0.0000000000000000 0.0000000000000000 
125 2 0.0190461332157849 -0.4458146501600760 0.0532768928146916 9.3196940632366410 15.3722047921963973 4.9563846042542972 0.0000235543651544 2.3851575169327197 0.9851587812896380 0.0000000000000000 -0.0000000000000000 0.0000000000000000 0.0000000000000000 
135 2 -0.1845911921711710 -0.0360481808847567 0.2438899629264812 9.6616117621335942 12.0094607630050749 2.8715607227121205 0.0000224378146647 2.2612624768134939 0.8463721374497229 0.0000000000000000 -0.0000000000000000 -0.0000000000000000 0.0000000000000000 
147 2 -0.2210178186459182 -0.2587117213221195 0.1289682697267180 9.2698828583512523 14.5530136597891318 1.2918144917665344 0.0000272634169686 2.2274907843313914 0.8644934864549335 0.0000000000000000 -0.0000000000000000 0.0000000000000000 -0.0000000000000000 
150 2 0.2217120654024187 -0.2093155927820377 0.0189720649215369 6.0043947090381415 13.7588065423476404 3.4711181697321898 0.0000230029078499 2.4072679270416559 0.9635848070790837 0.0000000000000000 0.0000000000000000 0.0000000000000000 0.0000000000000000 
22 1 -0.1655558854086386 -0.1514448833977487 0.2949634421304808 14.1975881171391336 14.7386414857605850 1.8522403662263400 0.0000303479210844 2.2211818290886542 0.9530230068025172 0.0000000000000000 -0.0000000000000000 -0.0000000000000000 0.0000000000000000 
52 1 -0.0917956117272412 0.0214796780179237 0.2856473504329136 11.1493290770786562 11.4446580272463319 2.9607084708819360 0.0000245716738676 2.2002635025961217 0.7829100801709109 0.0000000000000000 0.0000000000000000 0.0000000000000000 0.0000000000000000 
61 1 -0.2262148738446329 -0.1297233242364034 0.2557171024985500 11.9348794004342942 11.8040565687802506 1.6905966341040948 0.0000282450380389 2.1818961036953120 0.7880505338716449 0.0000000000000000 0.0000000000000000 0.0000000000000000 -0.0000000000000000 
142 2 -0.0770752991490998 -0.1807399356783772 0.2408382769624541 12.8426104647823713 15.3712466577495164 0.4870901047766498 0.0000338970260327 2.1523619989590115 0.8819635874867887 0.0000000000000000 -0.0000000000000000 -0.0000000000000000 -0.0000000000000000 
144 2 -0.1916254651067527 -0.1952298790354335 0.2470202631339288 11.2458426754568759 14.3171577359364317 1.0638370085692217 0.0000300855531718 2.2192041694580436 0.8723989457410275 0.0000000000000000 -0.0000000000000000 -0.0000000000000000 -0.0000000000000000 
178 2 -0.2590593782103189 -0.1324802382166285 0.2039098315273899 15.0978901615918293 15.8538747326404295 2.9527750766902896 0.0000325505363881 2.1174026501891348 0.8349065321240290 0.0000000000000000 0.0000000000000000 0.0000000000000000 -0.0000000000000000 
187 2 -0.2851131199734634 -0.1612048709250882 0.0965913377786152 16.0417810347850853 15.9312082212341686 2.5137475493092682 0.0000363725608429 2.0872379541649266 0.7894143223824069 0.0000000000000000 -0.0000000000000000 -0.0000000000000000 0.0000000000000000 
190 2 -0.0916225501619962 -0.1251241834775702 0.0994904820261790 15.5640077072121414 11.0775643516336739 0.6520161209314064 0.0000353616859553 2.0801206094852018 0.7278995199418938 0.0000000000000000 -0.0000000000000000 -0.0000000000000000 0.0000000000000000 
26 1 -0.1051958917905597 0.3553941875124889 0.2734877419917003 2.5493620890468631 4.9077104145810004 6.0067308274475639 0.0000296346092333 2.1660279196304462 0.8343396122526071 0.0000000000000000 0.0000000000000000 -0.0000000000000000 -0.0000000000000000 
72 1 -0.0883147472703345 0.1624015168950267 0.0936092143139184 4.7836240080694665 2.7678841914717407 8.7430664861925198 0.0000324071027997 2.1641227134077488 0.8828137800952639 0.0000000000000000 0.0000000000000000 -0.0000000000000000 -0.0000000000000000 
91 1 -0.1725222096204338 0.3056744348524712 0.0378574269680663 3.9378810312547050 5.2830591866641896 5.6329578827593814 0.0000297372445798 2.2050254377775449 0.8812354212394995 0.0000000000000000 -0.0000000000000000 -0.0000000000000000 0.0000000000000000 
137 2 0.1032815256271702 0.0376806189613371 -0.0163214845713809 5.0277286101544219 1.4623142293988693 5.8394834928854999 0.0000327116467554 2.2167108996211087 0.9139813021461785 0.0000000000000000 -0.0000000000000000 -0.0000000000000000 0.0000000000000000 
153 2 -0.0081104761017618 0.5691279448750429 -0.0777141049338430 1.3775289110241111 3.0192089418181549 10.4464593846054914 0.0000301626147659 2.1551577316149304 0.8622661740068659 0.0000000000000000 0.0000000000000000 -0.0000000000000000 0.0000000000000000 
161 2 -0.1953091019758135 0.3067463837376440 0.2045080167439131 0.9810655252271259 3.3650934664347560 5.6039945948195884 0.0000319643249822 2.1330658044555406 0.8448109369240178 0.0000000000000000 -0.0000000000000000 0.0000000000000000 -0.0000000000000000 
170 2 0.0435185653378798 0.2025397413504131 -0.0565610048844205 2.3137913148375109 1.3056834076233268 10.4014203626275155 0.0000386114472095 2.0485085870767410 0.7380882820145793 0.0000000000000000 0.0000000000000000 -0.0000000000000000 0.0000000000000000 
16 1 -0.1723615172418528 0.0777228814920550 -0.0019404858169853 5.9475958402047162 4.3332800421516176 6.6160467536752705 0.0000338256296641 2.1008334059934644 0.8506613112349757 0.0000000000000000 -0.0000000000000000 -0.0000000000000000 -0.0000000000000000 
40 1 -0.1215877111424625 0.0556357181435531 -0.0432033258172623 6.0900295485517715 4.1793796438763939 6.2108032783295037 0.0000336944676318 2.1146110130464555 0.8703249553525378 0.0000000000000000 0.0000000000000000 -0.0000000000000000 -0.0000000000000000 
55 1 0.1799757663578145 -0.4017784702325815 -0.0598085905532695 7.6807065368133367 0.2489761353685778 6.2157142034751569 0.0000282684603316 2.2312043825735062 0.8935147276885217 0.0000000000000000 -0.0000000000000000 -0.0000000000000000 0.0000000000000000 
65 1 -0.0044466427046029 -0.3177327956518672 -0.1245207083815513 9.2608897554653371 1.4608304499034825 6.3325190191696921 0.0000303166890957 2.2203752584594350 0.9121814779880983 0.0000000000000000 -0.0000000000000000 0.0000000000000000 -0.0000000000000000 
85 1 -0.1244044853153302 -0.2350276513757963 -0.1566628997401396 10.0535559170793682 2.3076018644950489 8.7376303455959441 0.0000344904817140 2.1898797821404541 0.9163331943998312 0.0000000000000000 0.0000000000000000 -0.0000000000000000 -0.0000000000000000 
103 1 -0.1611341640337973 0.0564646995775923 -0.0879617147976251 7.5166287179083380 5.2744731963629983 6.6550307616993152 0.0000364001025758 2.1245802340082651 0.8310997103206819 0.0000000000000000 0.0000000000000000 0.0000000000000000 0.0000000000000000 
105 1 0.0699365665691717 0.0076101942652046 0.1692815290327511 5.6701556239580730 2.0939946597932715 9.3555500117988579 0.0000327055591965 2.1566111296444896 0.8764848453436364 0.0000000000000000 0.0000000000000000 0.0000000000000000 -0.0000000000000000 
109 2 -0.2332765923190745 0.0275542218362555 0.0568474883926347 8.0586138877203499 4.4160449949573124 10.3185352303197391 0.0000337621068996 2.2119802452140451 0.9375394487547491 0.0000000000000000 0.0000000000000000 -0.0000000000000000 -0.0000000000000000 
122 2 0.1405675482272158 -0.1974163500522797 0.1260144122426872 6.4575244337059692 1.1371985790647607 9.1374803317071862 0.0000311276839960 2.2046037951593735 0.9007151766513848 0.0000000000000000 0.0000000000000000 0.0000000000000000 -0.0000000000000000 
133 2 -0.1922955842065235 0.0832131125487281 0.1194280670941856 5.8410286485644178 4.1461850350429508 7.7178428178929996 0.0000330350388586 2.1286278374737311 0.8718449378292845 0.0000000000000000 0.0000000000000000 0.0000000000000000 0.0000000000000000 
155 2 -0.0501336346382636 -0.3677132511053461 -0.0827542663999638 8.6499178635853511 1.3912785563581906 8.3208511901291473 0.0000312686439069 2.2102954694794215 0.9254197249068085 0.0000000000000000 0.0000000000000000 -0.0000000000000000 0.0000000000000000 
8 1 0.0422081542732078 -0.1694888642904092 -0.3109305690492102 12.2832456460860246 1.6731386740164134 5.8674951049737940 0.0000309955978528 2.1583235145617845 0.8453026715092270 0.0000000000000000 -0.0000000000000000 0.0000000000000000 0.0000000000000000 
15 1 0.1136670334242897 -0.1318784093651555 -0.2116667287913247 14.4744672845086573 1.1130457835427450 8.5465607934565071 0.0000351118854433 2.0898309618615292 0.8177145516041291 0.0000000000000000 0.0000000000000000 0.0000000000000000 -0.0000000000000000 
19 1 0.0697246590061064 -0.0988861904996727 -0.2487073447050088 13.7178656765194820 1.4120573451492433 8.2326034623208493 0.0000363151733052 2.0648231266754840 0.7744315660523440 0.0000000000000000 -0.0000000000000000 0.0000000000000000 0.0000000000000000 
75 1 0.1690234440671420 0.2527826199801207 -0.0618787443834802 12.2760030193636300 3.6737539506070060 10.6613710126680701 0.0000415925779590 2.0248988337427369 0.7380048006545108 0.0000000000000000 -0.0000000000000000 -0.0000000000000000 -0.0000000000000000 
87 1 0.0647685825140006 -0.1388122901451963 -0.1208773473122908 14.7006240185642092 0.8459834714370260 10.4795016671020207 0.0000367294030526 2.1286668744035442 0.8685096995880611 0.0000000000000000 -0.0000000000000000 -0.0000000000000000 -0.0000000000000000 
100 1 0.3742466066263374 0.3549356736188217 -0.0641321758771920 12.8295946124228557 4.6131853225382402 9.8900802382821045 0.0000361025974499 2.0949200036362416 0.8015878456717956 0.0000000000000000 0.0000000000000000 0.0000000000000000 0.0000000000000000 
124 2 0.0380903278978433 -0.1961411892672775 -0.2302897344886284 11.6252209077335760 1.7012241416305542 6.8154080484636310 0.0000332990289878 2.1332463834926796 0.8390903948167553 0.0000000000000000 -0.0000000000000000 -0.0000000000000000 0.0000000000000000 
163 2 -0.0975332353646203 -0.4110446396962842 -0.2051469717188584 12.3720961893461396 0.0176478732690946 7.2021294744319295 0.0000307679187546 2.1596080949608014 0.8013368331786496 0.0000000000000000 0.0000000000000000 -0.0000000000000000 -0.0000000000000000 
176 2 0.3490942238448806 0.1257617895323053 -0.1923314461108229 12.1496414376696809 4.8692261526975544 7.5569478134901447 0.0000325319487419 2.2407496665725297 0.9232685189216271 0.0000000000000000 -0.0000000000000000 -0.0000000000000000 0.0000000000000000 
201 2 0.2233133856346534 0.1615067778361190 -0.1945310842640925 13.5190916042385965 2.5790115209479483 9.9405403999445578 0.0000383775281290 2.0873911805806564 0.8147976400448638 0.0000000000000000 0.0000000000000000 0.0000000000000000 0.0000000000000000 
202 2 0.0782536692233468 -0.0791489208921439 -0.2540236531220058 13.8848719721743397 1.5367077856317131 7.0546321592602954 0.0000331992337447 2.1098682293374562 0.8095174833900136 0.0000000000000000 -0.0000000000000000 0.0000000000000000 0.0000000000000000 
4 1 -0.2167325313923440 -0.2286926273913335 -0.2049368262448080 4.6535435326456982 10.5703223987151684 10.6403213802995698 0.0000234100719170 2.2899034285623028 0.8835177736098095 0.0000000000000000 -0.0000000000000000 -0.0000000000000000 0.0000000000000000 
63 1 -0.0537451169405760 0.1848208102296284 0.2777725758859569 1.7271929777173964 8.4439801123759253 6.3973979598990196 0.0000207496731739 2.3667965240021145 0.9152194273175159 0.0000000000000000 0.0000000000000000 0.0000000000000000 -0.0000000000000000 
68 1 -0.1499389453569585 0.1546591030895516 0.1173907850190529 3.8702895132618402 9.2314071144997261 6.5908772797619015 0.0000215864506615 2.2798629093689282 0.9092483509831975 0.0000000000000000 0.0000000000000000 0.0000000000000000 0.0000000000000000 
106 2 0.1570330861398084 0.2880552859827159 0.2637331840520708 0.0636660909520302 7.3665868746458347 7.5426700566994338 0.0000210052431987 2.2949663449060425 0.8406700674139811 0.0000000000000000 -0.0000000000000000 -0.0000000000000000 0.0000000000000000 
113 2 -0.2690127395805329 0.1684694867929745 0.1719679619882483 4.1417464427483779 8.7701536787210159 7.1712747818529614 0.0000221283994650 2.2660118597920373 0.8886658707414865 0.0000000000000000 -0.0000000000000000 0.0000000000000000 0.0000000000000000 
6 1 -0.2432373922234937 0.3352868117281269 -0.0370978093242088 6.2587178288341940 9.1750379062874821 7.9014848635970916 0.0000253974751092 2.2589943193916318 0.8600946452159680 0.0000000000000000 0.0000000000000000 -0.0000000000000000 0.0000000000000000 
43 1 0.1108042410887307 0.3535679260124350 -0.0610265829838967 9.4651169008495994 7.0610268615406104 7.9236149198070125 0.0000391779007658 2.0340924392469031 0.7152496166544277 0.0000000000000000 0.0000000000000000 0.0000000000000000 -0.0000000000000000 
46 1 -0.1400407703250225 0.4754866948699857 -0.1573596362672429 7.7547810658903753 8.6296779939751538 6.6494460654253285 0.0000298442573696 2.1620839127021103 0.7741757355295299 0.0000000000000000 -0.0000000000000000 -0.0000000000000000 0.0000000000000000 
69 1 -0.2634649390733471 0.3686925328844219 -0.1077180784657457 6.4721717309465507 7.7490251795694363 6.0822971235292611 0.0000301303854165 2.1822298894461438 0.8010495490480313 0.0000000000000000 0.0000000000000000 -0.0000000000000000 -0.0000000000000000 
86 1 -0.0436907170932418 0.4652997653878739 -0.0663862050461397 8.8856246694716479 7.6120901819814977 7.8038088158149650 0.0000380118840717 2.0367082101715948 0.6951657252378849 0.0000000000000000 0.0000000000000000 -0.0000000000000000 -0.0000000000000000 
131 2 0.1053586525010487 0.5286743709741329 0.0064062424425951 9.3977547409548894 9.5127742567730795 9.3227491148557835 0.0000266465459150 2.2442456072472936 0.8657019170061238 0.0000000000000000 0.0000000000000000 -0.0000000000000000 -0.0000000000000000 
143 2 -0.1854791363311067 0.1033836848277784 0.2034969462916453 8.4128018881370501 6.1477583838642831 9.0594629753137585 0.0000362647055199 2.1295772397174497 0.8572196092603180 0.0000000000000000 0.0000000000000000 0.0000000000000000 -0.0000000000000000 
172 2 0.0715828631606587 0.5033107668778433 0.0521271211534600 9.1853312035156325 8.0599222110355448 8.7671794313527247 0.0000353459381947 2.0665988754718465 0.7242341430039584 0.0000000000000000 0.0000000000000000 -0.0000000000000000 -0.0000000000000000 
183 2 0.2306137164328511 0.2314157202768423 -0.3025259989261601 10.2942648316973262 6.1042102409317867 5.9761114853040382 0.0000354103522535 2.0887594864841170 0.7836975194440139 0.0000000000000000 0.0000000000000000 -0.0000000000000000 -0.0000000000000000 
197 2 -0.4291411786605381 0.1742900737455601 0.0654269839571399 6.5193128223781178 6.4745780220031062 10.6458134380389424 0.0000291288877893 2.2734531073800119 0.9241804512155827 0.0000000000000000 0.0000000000000000 0.0000000000000000 0.0000000000000000 
203 2 0.0141148547359792 0.1870224964810439 -0.1266083754024878 7.0003360597416400 10.3664972134462161 10.4791484164746738 0.0000250238638730 2.3058553461274576 0.8834301684780710 0.0000000000000000 0.0000000000000000 -0.0000000000000000 0.0000000000000000 
5 1 0.1781249459373677 -0.1154317974491767 -0.0601250387758575 14.8121928190057126 10.0370669627356754 10.1443057895458573 0.0000172052667214 2.5790439285201541 1.0280741449142070 0.0000000000000000 -0.0000000000000000 0.0000000000000000 -0.0000000000000000 
27 1 0.2735965059638187 0.2508022589407725 -0.0651723840681580 13.8410328039300854 6.8131947078225661 7.0653965607210631 0.0000260966313268 2.2510214536450510 0.8730710409585128 0.0000000000000000 -0.0000000000000000 -0.0000000000000000 0.0000000000000000 
56 1 0.0595577539560516 0.1880669244035951 0.1284799924960162 13.0719038185533041 9.8787718109593268 5.5054537456920247 0.0000209662451095 2.3884091210457323 0.9637601450917072 0.0000000000000000 0.0000000000000000 -0.0000000000000000 -0.0000000000000000 
74 1 0.3776779887127666 0.4894792878448025 0.2041111423479491 12.1552935195782830 6.8688126209864651 10.0255714455392422 0.0000304940460375 2.1586049232293592 0.8149726445410007 0.0000000000000000 -0.0000000000000000 -0.0000000000000000 0.0000000000000000 
98 1 0.3067877936931351 0.4232045013166646 -0.2078664759467548 10.9778477343111636 7.4946454598121885 6.8239298824604910 0.0000318278071243 2.1653839052659851 0.8228439916625374 0.0000000000000000 0.0000000000000000 0.0000000000000000 -0.0000000000000000 
107 2 0.2649190228942082 0.4363257162472053 0.1931774692061383 11.2359311962998891 6.7443884764806565 9.7356032858161470 0.0000334283842843 2.1467406930778017 0.8236286515596001 0.0000000000000000 0.0000000000000000 -0.0000000000000000 -0.0000000000000000 
177 2 0.2890536222581225 0.3315841956317665 0.2219759391121382 14.7992716765091679 7.7067576301616647 7.9780276609118497 0.0000225087104827 2.2438871450718896 0.8029110663423631 0.0000000000000000 -0.0000000000000000 0.0000000000000000 0.0000000000000000 
205 2 0.5056453070268041 0.4687534471682850 0.1411353492970517 14.0400908073961901 6.6176412331525887 9.6864851965470677 0.0000251630987355 2.2343668543678588 0.8423198036170624 0.0000000000000000 0.0000000000000000 -0.0000000000000000 -0.0000000000000000 
3 1 0.0999943701249017 -0.2921181416873055 -0.1338455598313739 4.4100162183673906 12.6465108256102798 10.6457581981898333 0.0000282371922723 2.1836265176378280 0.8002240569447832 0.0000000000000000 -0.0000000000000000 0.0000000000000000 -0.0000000000000000 
14 1 -0.1019181153534747 -0.1230287211867057 -0.1071089310766282 2.2968630244496078 16.0348082106224510 9.5414754350370625 0.0000379375877150 2.0743884871964786 0.7712911975213710 0.0000000000000000 -0.0000000000000000 -0.0000000000000000 -0.0000000000000000 
71 1 0.1390451033634154 -0.4211570992479212 -0.0651015205162165 3.6040212242717220 14.3782675193745053 8.8205084996765351 0.0000348735215529 2.0782273724747684 0.7205381705960475 0.0000000000000000 -0.0000000000000000 0.0000000000000000 0.0000000000000000 
81 1 -0.0079480478420218 -0.3225796587504129 -0.0119982088919896 2.7974441741101455 14.7791394691199578 10.0955393991985041 0.0000376322095615 2.0415551914582659 0.7093473292639959 0.0000000000000000 0.0000000000000000 -0.0000000000000000 -0.0000000000000000 
126 2 -0.0607976329417937 -0.5443579002707282 -0.0187799592050730 3.0411832633641240 14.4881247331402072 6.2058377510703515 0.0000308177271807 2.1799629782313792 0.8458828604745978 0.0000000000000000 0.0000000000000000 0.0000000000000000 -0.0000000000000000 
141 2 0.0715476286997757 -0.1600605476614453 -0.0273518027459763 3.8334412978755070 15.8420635130340983 8.1987058006059357 0.0000362853410907 2.1018695910598559 0.7881202033929567 0.0000000000000000 -0.0000000000000000 -0.0000000000000000 0.0000000000000000 
158 2 -0.2100218978113825 -0.4649201653715449 -0.1533978815583341 0.0955936295089132 14.4194131254782310 8.1357766269652085 0.0000261938889303 2.3299830346086159 0.9496764316689841 0.0000000000000000 0.0000000000000000 0.0000000000000000 -0.0000000000000000 
159 2 -0.1610978605971576 -0.4669912643019806 -0.0093515881352467 2.4516629424696714 12.2907802617187354 7.5118387145812431 0.0000216621010006 2.4276060821330065 0.9547154587663584 0.0000000000000000 0.0000000000000000 0.0000000000000000 -0.0000000000000000 
186 2 0.2136064045546933 -0.4295016749304704 -0.0850111561867896 4.3086482516633371 14.7002092308774834 6.6626629734308906 0.0000327931336775 2.1072646311155738 0.7659595498864665 0.0000000000000000 -0.0000000000000000 0.0000000000000000 0.0000000000000000 
206 2 0.0298375208919286 -0.3843931200951263 0.0478559483333463 2.9775391932804021 14.1433741478705723 10.5499532265816036 0.0000350540220708 2.0644635420956625 0.7215618160357812 0.0000000000000000 0.0000000000000000 0.0000000000000000 0.0000000000000000 
1 1 -0.0658736000864087 -0.3256898744898316 -0.1179145924482580 9.6559992392789606 14.0444565382736553 8.9539938398516448 0.0000216927131801 2.3449157401215128 0.9863942190445795 0.0000000000000000 -0.0000000000000000 0.0000000000000000 -0.0000000000000000 
23 1 0.3073383641387932 -0.3641825511898781 -0.0330972637899852 5.5169486821215488 15.2395679154931347 6.4678360935557837 0.0000316415470687 2.1243299975017265 0.7831907554523787 0.0000000000000000 -0.0000000000000000 -0.0000000000000000 0.0000000000000000 
129 2 0.3043610421160148 -0.3773172661413020 -0.0395874540813699 6.4708177144848271 14.6829190427976624 8.0689948310518833 0.0000260061613078 2.2890026679281537 0.9123174844059579 0.0000000000000000 0.0000000000000000 0.0000000000000000 -0.0000000000000000 
117 2 -0.0262205225114471 -0.4923571866439527 -0.2329758533625574 14.3080497742679391 15.3478389953660983 8.5211941519637477 0.0000304510652919 2.1764354837807653 0.8538573537965137 0.0000000000000000 0.0000000000000000 0.0000000000000000 0.0000000000000000 
132 2 -0.1448617483664330 -0.4004365638591578 -0.1484347273857554 11.0490003164359969 14.1649234351407216 8.2568977046764065 0.0000234123411326 2.2603229884666343 0.8756579859619288 0.0000000000000000 -0.0000000000000000 -0.0000000000000000 -0.0000000000000000 
134 2 0.0569628320212257 0.2364261852116386 -0.0732149336703783 11.8823327171386524 10.8910673986169879 7.4494701191557171 0.0000195506948571 2.4800950596670450 0.9557838543956043 0.0000000000000000 -0.0000000000000000 0.0000000000000000 0.0000000000000000 
148 2 -0.0515448022021110 -0.3441966300943103 -0.1308524550328388 14.1755579308924951 12.7952829063454825 7.8511693039480441 0.0000203598396924 2.3696412658178683 0.9631040907203593 0.0000000000000000 -0.0000000000000000 -0.0000000000000000 0.0000000000000000 
192 2 -0.0453735116197302 -0.3770808034302685 -0.1715270783898427 14.0919991028524816 12.8119683769942565 9.7614777284533307 0.0000225422339552 2.3397119816317313 0.9174175069056576 0.0000000000000000 0.0000000000000000 0.0000000000000000 0.0000000000000000 
198 2 -0.1486684788467909 -0.4842389078679998 -0.1744889740034692 11.4600782533997219 14.0331857938794116 9.5467879214003197 0.0000245332633368 2.2681622940986559 0.8882028662779559 0.0000000000000000 -0.0000000000000000 -0.0000000000000000 -0.0000000000000000 
25 1 0.0366939254320600 0.1594551331308894 -0.0736724328276622 1.0002953804251131 1.2098476907156355 10.8747580750087085 0.0000386325007247 2.0548100383580561 0.7568923832014094 0.0000000000000000 -0.0000000000000000 0.0000000000000000 -0.0000000000000000 
28 1 0.1074162577093003 0.1747165431565156 0.0155532229869188 0.7890026169812356 1.5379346968747980 12.0608226593403334 0.0000377133895774 2.0810764132157589 0.7812154970958056 0.0000000000000000 -0.0000000000000000 0.0000000000000000 -0.0000000000000000 
48 1 0.0542240491126572 0.5183647105900521 -0.0243186176956494 2.3872148995302660 2.6860201754972457 10.8545500028457393 0.0000340281285720 2.0769371512678250 0.7500072785913672 0.0000000000000000 -0.0000000000000000 -0.0000000000000000 0.0000000000000000 
49 1 -0.1898531069075976 0.2725288027406610 -0.0591335600141980 3.8685954830673173 4.6771925741867788 14.7602681627006120 0.0000275419991699 2.2337853600088642 0.8738564996610668 0.0000000000000000 -0.0000000000000000 -0.0000000000000000 0.0000000000000000 
83 1 -0.0494557030002517 0.4183343350864133 -0.0262179213526762 4.0060344744601819 3.1789883072061560 10.9049391860373337 0.0000308661787793 2.1792877930964458 0.8500831286254821 0.0000000000000000 0.0000000000000000 -0.0000000000000000 0.0000000000000000 
94 1 -0.0388081213533396 0.3986154245606175 0.0110930699452044 0.3803207381170560 2.2298078949881472 15.6726877723084304 0.0000344418492821 2.0918614468936410 0.8235608721550887 0.0000000000000000 -0.0000000000000000 -0.0000000000000000 0.0000000000000000 
97 1 0.0393975945520773 0.4468672268521984 -0.1592583917029253 1.9293580248773681 2.9051040650021678 15.8246022505608934 0.0000327636847178 2.1368881280073340 0.8333781390294684 0.0000000000000000 -0.0000000000000000 -0.0000000000000000 -0.0000000000000000 
112 2 0.2933131802100916 -0.1911160974861179 0.1265863502490295 4.3240499813022781 0.5633865605582280 12.7628193988870198 0.0000289742360516 2.3120760255423214 0.9765014743525976 0.0000000000000000 0.0000000000000000 -0.0000000000000000 -0.0000000000000000 
127 2 -0.0567822445405479 0.2605199173302253 0.0343494925586890 0.4875166939884867 1.6880064461745448 15.9507724954920889 0.0000361108623235 2.0744793011127416 0.8053810342000777 0.0000000000000000 0.0000000000000000 0.0000000000000000 0.0000000000000000 
162 2 -0.3856100225605360 0.3377951622357986 -0.0543656226646659 4.2267161115771001 5.1853431981247819 11.9550403789981630 0.0000250828656937 2.2881065829601894 0.9219005388089431 0.0000000000000000 -0.0000000000000000 -0.0000000000000000 0.0000000000000000 
174 2 0.0834993455921905 0.4518533802253406 0.0434991701503182 2.0430877392448528 2.7250808324584912 13.0744541503704763 0.0000326286144379 2.1671656265575416 0.8326697489072570 0.0000000000000000 0.0000000000000000 -0.0000000000000000 -0.0000000000000000 
189 2 0.1034417151018427 0.3385523809150552 0.0216539102183306 0.1786707660835324 2.0968475351041778 14.1908895247818148 0.0000351485783124 2.1197330485518964 0.8401740053954323 0.0000000000000000 -0.0000000000000000 0.0000000000000000 0.0000000000000000 
18 1 -0.2339663426670261 0.1602265212104651 0.1689444533503673 10.1552551825152264 3.4365480071051420 11.8054365025533610 0.0000392345989208 2.0654364450021427 0.8147631941352583 0.0000000000000000 0.0000000000000000 0.0000000000000000 -0.0000000000000000 
38 1 -0.2446518665212939 -0.0904688236624103 -0.0026718167317689 7.6392884605463198 3.0861596750976057 12.0596697510897712 0.0000321076062662 2.2162714741167751 0.9343846373186890 0.0000000000000000 0.0000000000000000 -0.0000000000000000 0.0000000000000000 
54 1 -0.2749396528707715 -0.0710823597898540 0.0532277115137277 10.1226733212584215 2.9417265997750217 11.4657253201805460 0.0000396722712296 2.0450913008720146 0.7956772154560555 0.0000000000000000 -0.0000000000000000 0.0000000000000000 0.0000000000000000 
70 1 -0.1090917540744485 0.0790755571325526 -0.0557507196213235 5.4902396672084954 3.5758561498443973 14.0066001617179126 0.0000302437014686 2.2498105845537122 0.9118053059951837 0.0000000000000000 0.0000000000000000 0.0000000000000000 -0.0000000000000000 
84 1 -0.1979492266451755 -0.0758774415504194 0.0445415807127687 7.8884635114177284 2.2728105958936817 16.0537837696957517 0.0000362550921507 2.0607951619319240 0.7578532016824863 0.0000000000000000 0.0000000000000000 0.0000000000000000 -0.0000000000000000 
168 2 -0.2280881520742886 -0.2669615698708622 -0.0841136515475818 7.4476393405993795 1.8015569987646576 13.7210910197772922 0.0000306759848710 2.2001281615091806 0.9246854908911729 0.0000000000000000 0.0000000000000000 0.0000000000000000 -0.0000000000000000 
169 2 -0.2592185017538908 -0.2516095630292733 -0.0391299163472199 7.9034906417269832 1.7643859474162253 15.2686186100408072 0.0000349834169682 2.0733663262271529 0.7840136174860712 0.0000000000000000 -0.0000000000000000 -0.0000000000000000 0.0000000000000000 
184 2 -0.2886550688031853 -0.4868461387811213 -0.0088792662974135 9.6229507052541425 1.6684103969040360 10.8794678230070261 0.0000337136637613 2.1494623210184831 0.9053983172942249 0.0000000000000000 -0.0000000000000000 -0.0000000000000000 -0.0000000000000000 
188 2 -0.1578735318111582 -0.0651298146777760 0.0695003548022745 9.5553010381558643 2.3271412014474433 15.3220211996464659 0.0000384384186022 2.0849407444754129 0.7838385910821243 0.0000000000000000 -0.0000000000000000 -0.0000000000000000 -0.0000000000000000 
195 2 -0.0571142205578601 0.3289347844242673 0.0962435342014522 8.2689049978461657 4.7232051570342390 16.0407550666358922 0.0000313681571028 2.2053368171494228 0.8719134729612473 0.0000000000000000 -0.0000000000000000 0.0000000000000000 0.0000000000000000 
29 1 0.2403156571416636 0.4633043395162973 0.2009787208646871 12.3523397237481785 5.2029095312051252 15.4630656740496768 0.0000243987704351 2.3467275881529410 0.9793752924295471 0.0000000000000000 -0.0000000000000000 -0.0000000000000000 0.0000000000000000 
32 1 0.0725022313823553 -0.2249334228256712 0.0232904339075563 14.5673614264150313 0.0429276476861717 13.4881283054987513 0.0000366583053013 2.1531470435112592 0.8909093873659188 0.0000000000000000 0.0000000000000000 -0.0000000000000000 -0.0000000000000000 
44 1 0.1992362390161161 0.6079389887891933 0.2509176246550732 12.4024000234225511 3.5751963616106064 13.4803145231310957 0.0000385497786546 2.0649451933158609 0.7680344407126370 0.0000000000000000 0.0000000000000000 0.0000000000000000 -0.0000000000000000 
47 1 0.1600492571144307 -0.0224026961752990 -0.0384109608350204 14.0538423415614346 1.3794236569047973 12.0869091953828569 0.0000390186075666 2.1132148470332393 0.8600551239711572 0.0000000000000000 0.0000000000000000 -0.0000000000000000 -0.0000000000000000 
60 1 -0.1957527069506956 -0.2631638535700014 -0.1000760934624502 11.2769960337455011 2.0876710044281745 11.5174063719083684 0.0000411898907857 2.0433969739273801 0.7798996595921159 0.0000000000000000 -0.0000000000000000 0.0000000000000000 -0.0000000000000000 
80 1 0.0500053127875783 0.4883403006781408 -0.0248808872138712 15.6952040442934635 4.9669472836441031 14.4600894723637268 0.0000221811173837 2.5075218000490591 1.0428885391195297 0.0000000000000000 0.0000000000000000 0.0000000000000000 0.0000000000000000 
90 1 -0.0782772237252395 -0.1005274117800695 0.1243616537217788 11.9711345400159193 1.2381896965816375 14.4977153530615315 0.0000417169672732 2.0196326414464920 0.7547726193093839 0.0000000000000000 0.0000000000000000 0.0000000000000000 0.0000000000000000 
118 2 -0.0077204463609929 -0.0519493313981938 0.2304791116216883 12.2714275761946041 1.1730191511891590 14.9763589416740253 0.0000409913524377 2.0239794482800315 0.7567719230373141 0.0000000000000000 -0.0000000000000000 0.0000000000000000 0.0000000000000000 
119 2 -0.0384426159192373 -0.0457075724550484 0.2831341532830335 12.1320534077680744 0.8968636440511182 15.5840765412715907 0.0000390848556156 2.0562203064688380 0.7916718103082803 0.0000000000000000 -0.0000000000000000 0.0000000000000000 0.0000000000000000 
123 2 0.2988741594691609 0.4252130271421315 0.0188601656911228 12.5432970698041899 3.7643433280865186 11.3421413171592214 0.0000411225660064 2.0284399074983588 0.7356016449138879 0.0000000000000000 0.0000000000000000 0.0000000000000000 0.0000000000000000 
139 2 0.1871703250848241 0.4940525423400682 0.2320285061177698 12.4358922967155259 2.9902465188456300 13.9059339906268278 0.0000406565420756 2.0334139234386401 0.7459678597173419 0.0000000000000000 -0.0000000000000000 -0.0000000000000000 -0.0000000000000000 
208 2 0.0726005332488317 0.0179873342498681 0.0999496959389538 12.6301547659249671 1.7551396263733201 13.5332124116544872 0.0000431865100831 2.0107096441745238 0.7427482437745727 0.0000000000000000 -0.0000000000000000 0.0000000000000000 0.0000000000000000 
33 1 -0.0249777171474878 -0.4218966495485869 -0.4669283023907453 1.4102877377328189 10.0239307735528040 14.3523903458018243 0.0000263342864800 2.2437547012705941 0.8298511920168199 0.0000000000000000 -0.0000000000000000 0.0000000000000000 -0.0000000000000000 
121 2 -0.2437573231635841 0.1358840410359007 -0.1409766498374270 3.6925145172229246 6.4522324585795481 14.6713144022427997 0.0000233923750252 2.3269933558821707 0.9563155693825394 0.0000000000000000 -0.0000000000000000 -0.0000000000000000 -0.0000000000000000 
53 1 0.1097263725269493 0.1185018653881690 0.0789617375380375 7.5412425094833546 9.7830666209509243 13.6091511189047871 0.0000280257748239 2.1741739808431442 0.7752135642254302 0.0000000000000000 -0.0000000000000000 -0.0000000000000000 -0.0000000000000000 
73 1 -0.1467203170224857 -0.0214732420337193 -0.0806961983260471 6.1236059035753971 9.6404011398191614 12.1704787072618448 0.0000282992168215 2.1970733277091146 0.7861034072096849 0.0000000000000000 -0.0000000000000000 -0.0000000000000000 0.0000000000000000 
82 1 -0.2523676884584306 0.1967250877786506 -0.0115685801845464 5.4839068022251922 5.8914471925614826 13.1634636853513598 0.0000284681222147 2.1897905649579066 0.8427734553197966 0.0000000000000000 -0.0000000000000000 0.0000000000000000 -0.0000000000000000 
88 1 0.1597563754588694 0.2273310816862829 0.1923124052840789 8.3443217027047059 7.5886672464391971 13.1698637632294204 0.0000283843221768 2.1762012808815969 0.8544859351439795 0.0000000000000000 0.0000000000000000 -0.0000000000000000 -0.0000000000000000 
93 1 -0.0681638247526311 0.2044237629799553 0.1936576458171877 7.9226158339628601 6.0525926827145575 12.5622072977747283 0.0000312813477803 2.1762394061201364 0.8847822460941501 0.0000000000000000 -0.0000000000000000 0.0000000000000000 -0.0000000000000000 
154 2 0.1456474163740356 0.2535381173985293 0.2039924910975838 8.7736931767150654 8.0123011137602731 11.8372530479258629 0.0000289388732773 2.2142584421350948 0.8653641415530680 0.0000000000000000 0.0000000000000000 0.0000000000000000 -0.0000000000000000 
164 2 -0.0057438046116802 -0.0515511395275778 0.2004116149455847 6.3581539459548582 9.2193031325447095 14.8690347552323843 0.0000257513808149 2.2755197449522697 0.8765179053034268 0.0000000000000000 -0.0000000000000000 -0.0000000000000000 0.0000000000000000 
173 2 -0.0981964786906496 0.1709164493368850 0.1904962330585271 6.8649394562489432 6.9709315968888443 13.9145892196115391 0.0000288108510104 2.1844878601375184 0.8339924546948853 0.0000000000000000 0.0000000000000000 -0.0000000000000000 0.0000000000000000 
7 1 0.0019960958414389 -0.2212791923333362 -0.1890307022714551 12.9358026475954322 8.7437424610350583 14.6703703883478056 0.0000209645401703 2.3484214751042072 0.9793445549394820 0.0000000000000000 -0.0000000000000000 0.0000000000000000 0.0000000000000000 
59 1 -0.0734262781068010 -0.3787181975276671 -0.2225859390883431 13.7451237378770461 8.7717350021976088 15.5088307444966986 0.0000240301606804 2.2273995816398400 0.8356810585406457 0.0000000000000000 -0.0000000000000000 0.0000000000000000 0.0000000000000000 
62 1 -0.0657236739730825 -0.4892673211217238 -0.3449947633889381 15.0514970546426881 9.2460615502345274 15.3636897187124752 0.0000275592049530 2.1739318442243065 0.7472506864057765 0.0000000000000000 0.0000000000000000 -0.0000000000000000 -0.0000000000000000 
209 2 0.3696129846983060 0.5133562423872452 0.2405886501559849 12.9920219290622878 6.4212060744750392 12.0966794627437793 0.0000244133958994 2.3297050540143918 0.9327544276652540 0.0000000000000000 0.0000000000000000 0.0000000000000000 0.0000000000000000 
35 1 -0.0396363403659068 -0.1141659939585633 -0.0914300734876593 4.5248815428952858 11.5722401519532330 12.5091894638900403 0.0000291099535083 2.1514517936468893 0.7559334083602819 0.0000000000000000 -0.0000000000000000 -0.0000000000000000 -0.0000000000000000 
42 1 0.0767329570003606 -0.0752756008575250 -0.0674979302915631 3.5949260551695894 11.3662305179410801 14.4604770827553768 0.0000295066370456 2.1744400631908598 0.7960915487467149 0.0000000000000000 -0.0000000000000000 0.0000000000000000 0.0000000000000000 
51 1 0.1120334320342751 -0.1155000682640885 -0.2062394424301024 1.8304719981328936 12.4235587303878265 14.7971530726228853 0.0000313397568038 2.1888022621628598 0.8656312148997375 0.0000000000000000 0.0000000000000000 0.0000000000000000 0.0000000000000000 
101 1 -0.0143403774249722 -0.3191593464851197 -0.3190215521853830 0.0992898915940067 12.1689923932828439 13.9650950688298874 0.0000302808959650 2.1674599081699610 0.8441298893918473 0.0000000000000000 -0.0000000000000000 0.0000000000000000 -0.0000000000000000 
114 2 0.0507934178566182 -0.0983094918730275 0.0003424608888768 0.3194751441503748 15.8666831243003656 15.1969113015961010 0.0000339009672151 2.2180387214542168 0.9506540059871074 0.0000000000000000 -0.0000000000000000 -0.0000000000000000 0.0000000000000000 
115 2 0.0049427857908091 -0.3829139745911738 -0.1071106219426217 0.3283052203206656 14.7021679084211012 11.6427182079458351 0.0000320561415965 2.2390645152711537 0.9091349310591833 0.0000000000000000 -0.0000000000000000 0.0000000000000000 0.0000000000000000 
146 2 0.3070823933669296 -0.1110991345007886 0.1196431854888084 3.1145800658518987 15.6391588263299433 13.3891090898532603 0.0000297758195544 2.2994036379109817 0.9947657529437943 0.0000000000000000 -0.0000000000000000 0.0000000000000000 -0.0000000000000000 
180 2 0.1544731266241709 0.0646227906712669 0.0391920689222100 5.1959540945963552 11.8419072786229407 14.4077292517090214 0.0000281757400578 2.1841672099531921 0.8144278238284668 0.0000000000000000 0.0000000000000000 0.0000000000000000 0.0000000000000000 
200 2 0.1424368573869146 -0.3191704507614253 0.0443889769647182 3.3108907854747200 13.8561297639593306 11.4828132648157730 0.0000324739438294 2.1209819074237606 0.7926721007814517 0.0000000000000000 0.0000000000000000 0.0000000000000000 0.0000000000000000 
10 1 -0.1826018101932767 -0.2319376404106702 -0.1627782650975249 10.2959837060607651 13.0412788501466999 13.2911089434170044 0.0000250013268653 2.2179296048976109 0.9175510766949260 0.0000000000000000 0.0000000000000000 -0.0000000000000000 -0.0000000000000000 
50 1 0.1196120499947763 0.0120785473335933 0.0342604333783864 8.3202871701140761 11.0137755920901093 14.5076487469510358 0.0000246312289384 2.2749833188878954 0.8586083131757256 0.0000000000000000 -0.0000000000000000 0.0000000000000000 0.0000000000000000 
58 1 0.0553330813136868 -0.1216062460204205 -0.0567975094160328 7.4530958737726296 14.7177095159926417 12.4770190664549361 0.0000230191364658 2.5107915245563617 1.0395284020415272 0.0000000000000000 0.0000000000000000 -0.0000000000000000 0.0000000000000000 
110 2 0.1648971972556094 0.1224422433943208 -0.0430872149626026 5.9311663238128309 12.3714805384755255 13.2483281827851052 0.0000274964840603 2.2000095342321084 0.8153387332435765 0.0000000000000000 0.0000000000000000 0.0000000000000000 0.0000000000000000 
130 2 -0.0022914325944896 -0.1867047240435129 -0.0797254003914623 6.5717732783998155 14.6468661348028402 15.8873917248147922 0.0000240293177349 2.4471491555424278 1.0244966216508864 0.0000000000000000 -0.0000000000000000 0.0000000000000000 -0.0000000000000000 
9 1 -0.0125771930268621 -0.1292753201777639 -0.1719905346022398 16.1091756208086601 11.5954214550132875 15.5760195667735299 0.0000353960033933 2.0817778309016264 0.7348583438819786 0.0000000000000000 0.0000000000000000 0.0000000000000000 0.0000000000000000 
24 1 -0.2147093324748792 -0.2744171685602731 -0.1617209489601036 10.9460815992625324 14.0434843212088509 13.2536893401500890 0.0000274129366599 2.2166138291984110 0.9521991013825748 0.0000000000000000 0.0000000000000000 -0.0000000000000000 -0.0000000000000000 
78 1 -0.1193070161234794 -0.4479832719245029 -0.2040038012174725 14.4266558454972103 13.6654334435395981 12.7734259913860804 0.0000295640777562 2.2041294444716382 0.9242654370018045 0.0000000000000000 -0.0000000000000000 -0.0000000000000000 -0.0000000000000000 
92 1 -0.0418630959949029 -0.2792258678830801 -0.0189044285521164 13.4949438411764362 14.6512159623032296 15.1022018020569444 0.0000340916610062 2.1689974290486980 0.8958184628735140 0.0000000000000000 -0.0000000000000000 -0.0000000000000000 -0.0000000000000000 
99 1 0.1191314994291829 0.0555184568207240 -0.0460780136595106 10.9109237538775687 11.0168728786124781 11.1517594811316965 0.0000210391841545 2.4646596253561199 0.9698059117776571 0.0000000000000000 -0.0000000000000000 0.0000000000000000 0.0000000000000000 
157 2 -0.1539115788667163 -0.3252148893817427 -0.2115726259043479 10.7797377970708066 13.2748180887520491 12.7838189319838182 0.0000253526721045 2.2045791937948627 0.9251091876705378 0.0000000000000000 -0.0000000000000000 -0.0000000000000000 0.0000000000000000 
160 2 -0.2199533741365990 -0.2662596578501584 -0.1967275538640536 13.4763312343149533 12.3401760923608581 15.3315320112612277 0.0000300840084177 2.2496563645780592 0.8761387813391416 0.0000000000000000 0.0000000000000000 -0.0000000000000000 -0.0000000000000000 
167 2 -0.1165235127787740 -0.3995145583845848 -0.2715057299774488 14.8940484226862413 12.9829365637774430 13.1562814237873553 0.0000289310166939 2.1886702987524127 0.8971497700431222 0.0000000000000000 -0.0000000000000000 -0.0000000000000000 0.0000000000000000 
