ITEM: TIMESTEP
740900
ITEM: NUMBER OF ATOMS
512
ITEM: BOX BOUNDS ss ss ss
-8.1988304040437454e-01 3.8875120101141034e+00
-9.7693552394909078e-01 3.9476017366228966e+00
-9.1281994132074906e-01 3.9096273972560476e+00
ITEM: ATOMS id x y z width_SPH x_COM y_COM z_COM vx vy vz 
263 1.46291 0.886579 -0.255348 0.797053 0 0 0 -0.184417 0.0652908 0.617612 
403 1.47177 1.28214 -0.572761 0.836224 0 0 0 -0.296162 -0.417881 -0.281642 
25 0.482317 0.121022 0.00276461 1.02264 0 0 0 0.430993 0.529148 0.569919 
279 1.31898 1.03444 -0.485001 0.850873 0 0 0 -0.189076 -0.165783 0.106852 
402 1.48864 1.3275 -0.648019 0.856456 0 0 0 -0.281509 -0.409918 -0.421854 
16 0.283959 0.665572 0.148005 0.902208 0 0 0 0.586491 0.592034 0.780333 
8 0.548836 0.851553 0.1165 0.825735 0 0 0 0.734371 0.68264 1.15143 
131 1.20614 1.40819 0.665932 0.517657 0 0 0 4.79913 6.68184 7.38216 
217 -0.458204 1.32447 1.07566 0.827556 0 0 0 -0.140292 -0.412288 -0.139919 
2 -0.191099 0.578911 0.378218 0.976756 0 0 0 0.26939 0.355321 0.381129 
24 0.947284 0.538024 0.655862 0.732052 0 0 0 1.68974 2.78495 2.58741 
129 -0.0272477 1.21936 0.471858 0.809153 0 0 0 0.464853 -0.111335 0.50433 
224 -0.038192 1.2323 1.09789 0.718729 0 0 0 1.00076 -0.077778 0.267177 
78 0.717449 0.416231 1.44599 0.684324 0 0 0 2.08578 2.94712 0.725685 
67 0.0566678 0.170694 1.35969 0.867436 0 0 0 0.646786 0.692221 0.00582327 
22 1.10959 0.782208 0.476481 0.689909 0 0 0 1.54585 2.7141 3.19729 
125 0.0919121 1.14992 0.334137 0.81764 0 0 0 0.528922 0.0431919 0.6397 
10 0.362718 0.340191 0.337039 0.920797 0 0 0 0.743151 0.865765 0.897083 
68 -0.62925 1.10997 1.49534 0.872297 0 0 0 -0.401546 -0.268313 -0.303208 
116 -0.467653 -0.224829 2.43602 1.06883 0 0 0 -0.510472 -0.413938 -0.0581882 
39 1.33122 1.26247 1.96202 0.349424 0 0 0 -0.248498 -0.393533 0.56159 
57 -0.136592 -0.184235 1.60661 0.978297 0 0 0 0.0862647 0.0850719 -0.196889 
111 1.47853 0.661531 1.94944 0.479335 0 0 0 3.06029 4.58027 2.61026 
59 0.836251 1.31492 2.27395 0.459122 0 0 0 -1.05552 -0.055344 0.985179 
183 0.484327 1.33661 2.61271 0.58694 0 0 0 -0.675496 -0.0649758 0.479694 
80 1.06799 1.32418 2.08946 0.394884 0 0 0 -0.907585 0.0277025 0.821381 
103 -0.666439 -0.192843 2.21681 1.11079 0 0 0 -0.54175 -0.319403 -0.0821432 
63 -0.481042 0.335769 1.67077 0.939103 0 0 0 -0.201815 0.0269436 -0.274259 
64 0.692241 1.25094 1.95536 0.468156 0 0 0 1.81299 3.52201 2.44695 
65 1.41229 1.12564 2.09166 0.384748 0 0 0 0.113636 -1.07888 0.468894 
66 0.536312 -0.153309 1.5622 0.845282 0 0 0 0.649396 0.683608 -0.16419 
27 1.41507 1.3286 1.8037 0.309622 0 0 0 -0.411907 -0.394536 1.39295 
343 1.489 1.48456 1.52633 0.252367 0 0 0 0.0620438 0.0889773 -0.0237089 
69 0.578526 1.29327 2.42892 0.533068 0 0 0 -0.970125 -0.283439 0.404252 
82 0.155979 0.760105 1.61801 0.69998 0 0 0 1.16214 0.799936 -0.325329 
71 0.319313 -0.0268715 1.59759 0.843497 0 0 0 0.618174 0.613283 -0.223047 
509 1.47934 1.47659 1.54575 0.254226 0 0 0 0.18249 0.086579 -0.118286 
226 0.739735 1.28996 2.43123 0.504114 0 0 0 -0.860449 -0.174966 0.698033 
511 1.41956 1.17053 2.0196 0.36604 0 0 0 0.0940853 -0.909473 0.296942 
118 0.968944 0.167108 2.50853 0.690233 0 0 0 -0.380079 -0.897085 -0.66937 
26 1.04233 1.47276 1.9123 0.366372 0 0 0 -0.426201 0.304949 0.347805 
77 0.568467 0.474345 2.2866 0.658592 0 0 0 -0.193308 -0.487519 -0.883478 
92 0.62797 -0.707364 2.33072 0.983497 0 0 0 -0.0562676 -0.633952 -0.23183 
107 0.249775 0.44264 2.19696 0.724248 0 0 0 -0.0885171 -0.275281 -0.8034 
122 1.04948 0.384911 2.37968 0.613124 0 0 0 -0.286958 -0.858487 -0.736287 
94 1.1831 0.61268 2.42577 0.545579 0 0 0 -0.172894 -1.01246 -0.0156677 
247 0.952676 1.10214 2.48172 0.497482 0 0 0 -0.612031 -0.522946 0.847447 
73 1.44161 0.794443 2.54927 0.516402 0 0 0 0.0605152 -0.778637 0.685221 
87 0.756019 0.283341 2.07375 0.669737 0 0 0 0.352299 0.328697 -0.886051 
84 -0.667092 1.05545 2.40897 0.902823 0 0 0 -0.847694 -0.267148 -0.18099 
507 1.18215 1.1312 2.24888 0.425765 0 0 0 -0.485912 -0.575644 1.24142 
169 1.39493 0.991813 2.28371 0.436522 0 0 0 0.17518 -1.07746 1.11105 
85 0.770572 -0.60656 1.99598 0.927261 0 0 0 0.0904841 -0.341411 -0.356414 
371 1.36018 0.8688 2.51443 0.500143 0 0 0 -0.0252562 -0.821057 0.806263 
448 0.609009 1.28904 1.89853 0.483836 0 0 0 1.71753 3.1674 1.99164 
328 0.9931 0.7743 2.21875 0.511076 0 0 0 0.60417 0.591944 0.631537 
112 0.973468 1.266 2.22437 0.433454 0 0 0 -0.947619 -0.0536028 1.19702 
40 0.542484 1.29074 2.4296 0.540915 0 0 0 -0.994595 -0.331559 0.322583 
496 1.48485 1.48105 1.5348 0.253068 0 0 0 0.119684 0.0926428 -0.0759579 
42 1.22247 1.29781 2.00115 0.362848 0 0 0 -0.557544 -0.189342 0.500885 
237 1.11562 1.25583 2.14124 0.402218 0 0 0 -0.810639 -0.184033 0.983657 
494 1.38749 1.19012 2.01749 0.364345 0 0 0 -0.0151772 -0.801973 0.357027 
181 0.316515 1.14154 2.56083 0.627432 0 0 0 -0.957882 -0.73202 -0.085449 
81 -0.121092 -0.621637 2.09638 1.08733 0 0 0 -0.197012 -0.42268 -0.13128 
83 1.18469 -0.506673 2.52988 0.870692 0 0 0 -0.142365 -0.821273 -0.309903 
232 0.998014 1.01241 2.54916 0.515981 0 0 0 -0.467562 -0.616727 0.771181 
93 -0.508144 0.844913 2.02971 0.85166 0 0 0 -0.540566 -0.298773 -0.444185 
61 1.51202 0.359908 1.94817 0.566539 0 0 0 0.589458 1.3973 -0.113281 
349 1.50386 -0.381653 1.57127 0.808645 0 0 0 -0.129213 0.23404 -0.291407 
253 1.16406 1.08587 2.39569 0.460845 0 0 0 -0.611632 -0.907207 0.937654 
193 -0.727519 1.42164 1.5528 0.877431 0 0 0 -0.696388 -0.372893 -0.303505 
506 1.46209 1.27675 1.8387 0.320013 0 0 0 -0.221468 -0.637839 0.942325 
44 -0.248197 1.37176 1.89732 0.712929 0 0 0 -0.599196 -0.71758 -0.652011 
32 1.23785 1.37168 1.88978 0.336995 0 0 0 -0.418334 -0.010677 0.78004 
493 1.20602 1.42553 1.84332 0.331294 0 0 0 -0.251842 0.0105952 0.833367 
9 1.40198 1.32546 1.82111 0.313661 0 0 0 -0.524533 -0.595577 1.18519 
218 1.31593 1.40024 1.78916 0.309637 0 0 0 -0.538547 -0.471028 1.28581 
200 -0.24376 1.45155 1.90838 0.706226 0 0 0 -0.690039 -0.735848 -0.614229 
486 1.31684 1.26322 1.98198 0.354053 0 0 0 0.427151 0.781932 1.35263 
98 0.192049 0.505978 2.67418 0.762679 0 0 0 -0.547811 -0.679272 -0.319381 
113 1.36474 -0.767743 2.84603 0.993315 0 0 0 -0.0519054 -0.877635 0.0551813 
114 -0.662808 0.667396 3.0988 1.04669 0 0 0 -0.730353 -0.208069 0.292164 
108 0.827868 -0.375037 3.19939 0.967025 0 0 0 -0.17965 -0.683319 0.269372 
163 0.568728 0.92526 2.79803 0.645964 0 0 0 -0.62901 -0.714698 0.30342 
60 0.824455 1.36371 3.15256 0.69163 0 0 0 0.333288 0.629392 0.835941 
117 0.983525 0.117901 3.7019 0.978815 0 0 0 -0.129092 -0.308784 0.718564 
51 0.40787 1.42256 2.78811 0.642068 0 0 0 -0.346644 0.249814 0.656767 
88 1.42973 0.538919 3.62919 0.869873 0 0 0 0.00639298 0.0152702 0.894959 
109 -0.521 -0.195159 3.25587 1.19581 0 0 0 -0.575249 -0.438259 0.393267 
90 -0.819583 0.596008 2.78624 1.05283 0 0 0 -0.798735 -0.216509 0.11203 
91 0.794654 1.1685 3.90933 0.962238 0 0 0 -0.00640092 0.133372 0.951556 
227 1.33614 1.35544 2.76355 0.562287 0 0 0 -0.0936324 0.239721 -0.637895 
438 0.69284 1.45413 3.02106 0.665646 0 0 0 0.310259 0.681379 0.831888 
119 0.719816 0.0526645 3.43823 0.932506 0 0 0 -0.230059 -0.438123 0.511983 
430 1.20337 0.66794 2.80485 0.606691 0 0 0 -0.284835 -0.688797 0.485006 
96 1.21336 -0.443177 3.49593 1.03711 0 0 0 -0.0580848 -0.627555 0.498017 
121 -0.478871 0.852549 3.15731 0.981828 0 0 0 -0.68614 -0.196806 0.337566 
110 0.000533627 -0.17856 2.91004 0.989028 0 0 0 -0.415655 -0.545736 0.095091 
120 -0.757135 1.33216 2.86286 0.982953 0 0 0 -0.855566 -0.063848 0.192643 
104 0.101183 -0.598296 3.21263 1.14763 0 0 0 -0.345984 -0.64243 0.34169 
101 0.537351 0.503485 3.11841 0.786334 0 0 0 -0.405485 -0.52551 0.336966 
238 1.23271 1.23412 2.83498 0.574661 0 0 0 0.1822 0.586671 0.304331 
123 -0.316976 2.86792 -0.691693 1.18976 0 0 0 -0.540372 0.329796 -0.659842 
159 0.397835 3.05213 -0.625373 1.0548 0 0 0 -0.285744 0.50309 -0.690804 
142 1.18785 3.80508 -0.0596123 1.0579 0 0 0 -0.106365 0.892025 -0.316713 
126 -0.541263 3.21741 0.184415 1.10843 0 0 0 -0.645006 0.551748 -0.319709 
127 0.805515 2.06304 -0.83207 0.949848 0 0 0 -0.270581 -0.262301 -0.886229 
158 0.896481 2.14783 -0.502445 0.825346 0 0 0 -0.343776 -0.410893 -0.874115 
143 -0.162415 2.51389 -0.788976 1.13561 0 0 0 -0.507508 0.116804 -0.735211 
149 1.11664 2.1868 -0.91252 0.958562 0 0 0 -0.152846 -0.115955 -0.93992 
151 1.36321 3.36619 0.288897 0.844519 0 0 0 0.0302131 0.959238 0.0450096 
274 1.33477 2.01646 -0.0267953 0.636666 0 0 0 -0.366979 -0.743681 -0.66395 
157 0.0134463 1.64301 0.128943 0.821066 0 0 0 -0.211202 -0.666857 -0.103432 
156 -0.609017 1.93331 -0.650116 1.19061 0 0 0 -0.599191 -0.0660179 -0.549882 
130 0.986181 2.15088 0.267703 0.59301 0 0 0 -0.525022 -0.340055 -0.635123 
148 0.698617 1.49459 -0.232561 0.791588 0 0 0 -0.0750949 -0.610828 0.0773652 
137 -0.708147 2.86987 0.246405 1.07807 0 0 0 -0.787259 0.323154 -0.310894 
138 0.424982 2.62752 -0.593766 0.963026 0 0 0 -0.356627 0.18213 -0.803875 
141 0.160038 1.99701 -0.415246 0.914392 0 0 0 -0.476608 -0.4343 -0.672688 
140 0.862153 2.60214 -0.809069 0.979751 0 0 0 -0.192289 0.196984 -0.875649 
443 1.31898 2.08521 0.11609 0.599071 0 0 0 -0.363283 -0.428116 -0.73792 
444 1.48155 2.2398 0.0627973 0.620896 0 0 0 -0.25957 0.134191 -0.787121 
136 1.03226 1.89171 0.221509 0.597168 0 0 0 -0.149088 -0.793341 0.068582 
268 1.46276 2.00808 0.113346 0.589756 0 0 0 -0.280063 -0.513102 -0.711897 
146 0.824182 2.05115 0.253748 0.615589 0 0 0 -0.451293 -0.790361 -0.37949 
180 0.816329 2.50703 0.789627 0.565307 0 0 0 -0.42215 1.23145 -0.299286 
190 0.821825 3.29159 1.17401 0.773669 0 0 0 0.338219 0.751402 0.367123 
178 -0.546723 3.0854 1.13917 0.974054 0 0 0 -0.646054 0.5817 -0.0204914 
220 0.899106 2.23262 1.45459 0.460918 0 0 0 -1.92842 -2.57379 -1.96311 
189 1.01703 2.26102 0.814606 0.487544 0 0 0 -0.947866 1.1127 -0.606462 
165 1.04881 2.30436 0.745478 0.502527 0 0 0 -0.824818 1.15664 -0.661901 
128 1.38576 3.34334 1.2518 0.793523 0 0 0 0.238337 -0.0104514 0.379242 
185 0.700682 3.36966 1.30718 0.807793 0 0 0 0.306431 0.74988 0.317363 
168 0.77937 2.05422 1.00594 0.471615 0 0 0 -0.206016 1.53666 0.706631 
186 -0.767684 1.72337 0.481586 0.983524 0 0 0 -0.740702 -0.285038 -0.211648 
170 0.556752 2.28227 0.54719 0.609201 0 0 0 -0.639547 -0.127117 -0.555105 
171 0.284593 3.56151 0.915819 0.929531 0 0 0 -0.124122 0.922022 0.0251723 
175 -0.673976 2.64647 1.34235 0.922309 0 0 0 -0.838196 0.285631 -0.0589448 
124 0.946531 2.13443 1.03011 0.448053 0 0 0 -1.03405 1.02043 -0.15617 
187 -0.341961 2.06188 0.381164 0.853126 0 0 0 -0.732711 -0.502044 -0.361244 
134 1.44029 2.99974 0.715251 0.686522 0 0 0 0.2376 0.772288 0.575612 
198 1.10455 2.4853 1.3249 0.519707 0 0 0 -1.07287 -2.52534 -1.23728 
426 1.5256 1.80969 1.03414 0.350826 0 0 0 0.374742 0.399607 0.236857 
147 1.22189 1.92071 1.15986 0.365564 0 0 0 -0.681448 -0.611964 0.428311 
133 1.0445 2.31188 0.324255 0.588097 0 0 0 -0.51871 0.365662 -0.734346 
188 0.39884 2.22614 0.467439 0.652188 0 0 0 -0.609009 -0.527995 -0.525464 
20 1.40118 1.64926 1.36986 0.284346 0 0 0 1.5883 -0.491301 -0.20989 
216 -0.0737687 2.3515 1.33667 0.682753 0 0 0 -0.676912 0.163026 -0.232993 
206 -0.717424 1.91109 1.19379 0.879566 0 0 0 -0.880978 -0.367047 -0.250336 
154 -0.280081 3.20779 0.526569 0.978394 0 0 0 -0.533229 0.672521 -0.188918 
144 1.30248 2.01086 0.912946 0.407612 0 0 0 -0.673073 1.05395 -0.238663 
423 1.18174 2.03442 0.977319 0.411235 0 0 0 -0.851709 1.06093 0.0833133 
135 -0.226245 3.12138 0.410256 0.958205 0 0 0 -0.5357 0.632127 -0.247147 
192 0.529703 2.18855 0.465844 0.62339 0 0 0 -0.590106 -0.541557 -0.501858 
194 0.171589 2.21544 0.651677 0.670486 0 0 0 -0.636198 -0.568245 -0.480132 
196 0.990074 2.89058 1.10308 0.640598 0 0 0 0.388177 0.633303 0.41903 
203 0.532333 2.55461 0.541058 0.65519 0 0 0 -0.461169 0.623932 -0.448615 
150 1.41054 1.88546 0.988697 0.370978 0 0 0 2.87957 5.47453 3.79898 
214 -0.0710999 1.80498 0.791843 0.711165 0 0 0 -0.190386 -1.00773 -0.172968 
425 1.42104 1.95117 0.905409 0.394385 0 0 0 -0.26855 0.944066 -0.302539 
48 0.228434 2.29404 0.62343 0.667386 0 0 0 -0.652934 -0.340567 -0.509613 
162 1.52739 1.51565 1.44982 0.254792 0 0 0 -0.40039 0.113671 0.320349 
177 0.870222 1.99605 1.31464 0.416622 0 0 0 -0.428416 0.917027 0.359084 
139 0.901011 3.9473 0.7486 1.0206 0 0 0 -0.0239533 0.908773 -0.0296586 
461 1.38947 1.75363 1.23162 0.316837 0 0 0 0.789063 0.0387767 0.354158 
210 0.261621 2.176 0.847572 0.615996 0 0 0 -0.594732 -0.510616 -0.434905 
480 1.02344 2.02372 1.13292 0.409865 0 0 0 -0.664487 0.947398 0.473195 
28 1.05075 1.83854 1.40399 0.360319 0 0 0 0.745148 0.122663 0.746607 
489 0.558863 2.27472 1.21428 0.519889 0 0 0 -0.640239 0.853638 -0.177987 
4 1.22243 1.72085 1.42291 0.315217 0 0 0 1.31369 -0.333616 0.539555 
19 1.14084 2.47425 0.428801 0.585353 0 0 0 -0.345494 1.10189 -0.529147 
336 0.479593 2.37428 1.18931 0.555282 0 0 0 -0.452073 0.940841 -0.147874 
469 1.04051 2.0173 1.12835 0.406964 0 0 0 -0.642037 0.93601 0.520299 
308 0.417201 2.38387 1.20765 0.568903 0 0 0 -0.422121 0.883031 -0.144398 
15 1.22459 1.8628 1.21611 0.350382 0 0 0 0.329902 0.109633 1.24275 
424 1.33272 2.62682 0.39719 0.618363 0 0 0 -0.0725598 1.29746 -0.162162 
7 1.3725 2.12813 0.709284 0.457153 0 0 0 -0.584579 1.11291 -1.16728 
174 1.29679 1.80757 1.23497 0.33218 0 0 0 0.573594 -0.124863 0.947169 
6 1.09485 1.81937 1.39358 0.350539 0 0 0 0.885849 -0.0217172 0.820779 
458 0.509363 2.15863 1.40969 0.503686 0 0 0 -0.692869 0.7329 -0.0556274 
433 1.53014 1.83935 0.985041 0.363361 0 0 0 0.318044 0.587863 0.0928964 
437 1.4675 2.04175 0.74872 0.434914 0 0 0 -0.337015 1.01696 -1.23263 
153 1.27972 1.81894 1.23332 0.335819 0 0 0 0.531956 -0.101051 1.03923 
286 1.48251 2.02988 0.753393 0.432204 0 0 0 -0.289593 0.996385 -1.23897 
195 0.96033 1.93963 1.32811 0.392721 0 0 0 -0.00447551 0.669679 0.654066 
399 1.51635 1.93623 0.866658 0.397927 0 0 0 -0.430289 0.21824 -1.13989 
354 0.503424 2.10104 1.49637 0.495889 0 0 0 -0.741162 0.714542 0.0203285 
372 1.50625 1.49957 1.49052 0.251512 0 0 0 -0.213131 0.0451049 0.264302 
164 0.232476 1.81997 1.47903 0.55541 0 0 0 -0.187254 -0.250994 -0.150806 
17 1.50459 1.49817 1.49391 0.25144 0 0 0 -0.188212 0.0475264 0.240415 
52 0.953881 1.86576 1.44846 0.38025 0 0 0 0.395276 0.462953 0.490607 
145 0.944093 3.68321 0.319781 0.962023 0 0 0 -0.0697453 0.942577 -0.136542 
256 0.55836 2.11603 1.73864 0.496379 0 0 0 -0.760285 0.519657 0.0904858 
495 1.04308 1.64387 1.68228 0.346148 0 0 0 0.726096 0.284221 0.134024 
248 0.868792 1.56289 1.93385 0.401679 0 0 0 -0.734361 0.724805 0.574597 
43 0.148922 2.31438 1.81883 0.623839 0 0 0 -0.186956 0.906578 0.491326 
76 0.906808 1.5791 1.88405 0.389077 0 0 0 -0.518358 0.646503 0.347092 
450 0.854485 1.64816 1.83468 0.397153 0 0 0 -0.471747 0.832959 0.328211 
166 1.19151 3.39112 1.71318 0.833436 0 0 0 0.311565 -0.187276 0.0847846 
70 0.975123 2.32047 2.30293 0.608767 0 0 0 0.374851 -1.5569 -1.46652 
199 -0.163988 2.48212 2.51654 0.81589 0 0 0 -0.221997 0.751751 0.499406 
223 -0.313706 3.51998 2.20262 1.0656 0 0 0 -0.343016 0.730759 0.185281 
201 -0.0322989 3.01378 1.68138 0.815636 0 0 0 -0.0813086 0.978499 0.267406 
243 0.900444 2.03174 2.39424 0.562188 0 0 0 0.103024 -1.11846 -1.35642 
191 0.401997 2.14626 2.61253 0.667706 0 0 0 0.537546 1.16207 0.686788 
204 0.494254 3.83158 2.13436 1.03917 0 0 0 0.0831278 0.663325 0.133731 
49 0.769424 1.87245 1.59107 0.417368 0 0 0 -0.388167 1.00503 0.294919 
160 0.91495 1.82327 1.54462 0.382718 0 0 0 0.275995 0.470442 0.18775 
207 0.786897 2.75747 2.50756 0.754782 0 0 0 0.726068 0.142228 -0.116932 
208 1.031 2.39118 1.6395 0.518121 0 0 0 -1.29606 -4.15655 -2.32173 
209 0.529465 2.20088 1.58261 0.507843 0 0 0 -0.583275 0.778374 0.0882963 
447 0.197363 2.26423 2.14672 0.639117 0 0 0 0.0857526 1.11291 0.777246 
211 0.711169 3.69217 1.79547 0.943616 0 0 0 0.228612 0.561463 0.152178 
212 0.655024 3.28579 1.83325 0.812308 0 0 0 0.469014 0.508432 0.273213 
213 0.0678193 3.47689 2.25792 0.980736 0 0 0 -0.0321129 0.748325 0.229362 
490 1.46126 1.49806 1.53103 0.253856 0 0 0 1.29302 -0.711829 0.128808 
215 0.794991 3.8839 2.27497 1.06152 0 0 0 0.148996 0.502766 0.0716698 
184 1.50041 1.49456 1.50257 0.251402 0 0 0 -0.121634 0.0573652 0.171788 
55 0.266696 2.26504 1.5319 0.574505 0 0 0 -0.404471 0.671167 0.0856227 
505 0.361131 1.60465 2.26191 0.548757 0 0 0 -0.983812 0.180623 0.294888 
255 1.2108 2.61051 2.17654 0.668974 0 0 0 0.0490917 -2.31909 -1.57536 
479 0.0168473 2.3686 2.04037 0.686482 0 0 0 -0.17004 0.920329 0.583055 
173 -0.124518 1.91621 1.83533 0.659825 0 0 0 -0.837799 -0.402863 -0.215137 
318 0.349887 1.78872 2.07952 0.534857 0 0 0 -0.899147 0.41373 0.360462 
54 0.430633 1.94053 1.80009 0.502875 0 0 0 -0.876082 0.602276 0.284617 
34 0.259997 2.18275 1.85536 0.577327 0 0 0 -0.275892 0.84513 0.514573 
172 0.165975 2.12749 1.58858 0.58257 0 0 0 -0.604357 0.131486 -0.0734926 
229 1.0813 2.3335 2.53381 0.661715 0 0 0 0.497589 -1.05235 -1.40595 
234 1.04408 1.64646 1.67795 0.345829 0 0 0 0.744554 0.277119 0.135574 
252 1.15749 1.61769 1.62227 0.31815 0 0 0 1.06407 -0.250203 0.524455 
235 1.04831 1.62 1.71022 0.345716 0 0 0 0.625691 0.289053 0.162099 
29 0.843078 1.72177 1.74556 0.396691 0 0 0 -0.259046 0.877991 0.216094 
513 0.660713 1.56777 2.09003 0.460307 0 0 0 -1.20311 0.513729 0.742878 
241 1.06008 1.6052 1.72045 0.343451 0 0 0 0.60033 0.25544 0.206851 
38 0.320528 1.7588 2.27449 0.566244 0 0 0 -0.693161 0.511552 0.47136 
35 0.252093 1.76158 2.40263 0.603922 0 0 0 -0.543984 0.556793 0.510683 
30 0.500227 1.66022 2.12087 0.499526 0 0 0 -1.10782 0.440833 0.496636 
239 -0.586842 2.64441 2.57886 0.974134 0 0 0 -0.577195 0.458324 0.298057 
233 0.904615 1.60661 1.84969 0.386758 0 0 0 -0.3996 0.669495 0.256618 
75 0.829575 1.66227 1.83747 0.403135 0 0 0 -0.564357 0.867722 0.365835 
219 1.50021 1.49439 1.50297 0.251406 0 0 0 -0.118454 0.0579227 0.168386 
167 1.5004 1.49455 1.50258 0.251402 0 0 0 -0.121495 0.0573893 0.17164 
466 1.5002 1.49437 1.503 0.251406 0 0 0 -0.118226 0.057963 0.168141 
471 1.50021 1.49439 1.50296 0.251406 0 0 0 -0.118498 0.0579149 0.168433 
36 1.50029 1.49445 1.50282 0.251404 0 0 0 -0.119673 0.0577085 0.169691 
278 1.50196 1.4959 1.49935 0.251391 0 0 0 -0.146786 0.0531961 0.198359 
37 1.50089 1.49497 1.50157 0.251396 0 0 0 -0.129549 0.056072 0.180126 
58 1.50159 1.49559 1.5001 0.251391 0 0 0 -0.14104 0.0542016 0.192217 
47 1.0781 1.75571 1.49969 0.343429 0 0 0 1.02025 -0.13632 0.34781 
477 1.50167 1.49566 1.49993 0.251391 0 0 0 -0.14226 0.0539124 0.193626 
355 1.50134 1.49537 1.50062 0.251392 0 0 0 -0.136869 0.0547862 0.187959 
334 1.50104 1.49511 1.50125 0.251394 0 0 0 -0.131966 0.0555993 0.182778 
476 1.50097 1.49505 1.50139 0.251395 0 0 0 -0.130893 0.0557793 0.181642 
179 1.50089 1.49498 1.50157 0.251396 0 0 0 -0.129485 0.0560168 0.180149 
222 1.50059 1.49472 1.50218 0.251399 0 0 0 -0.124646 0.0568432 0.175002 
302 1.50066 1.49477 1.50204 0.251398 0 0 0 -0.125733 0.0566562 0.17616 
176 1.50066 1.49478 1.50204 0.251398 0 0 0 -0.125793 0.0566459 0.176225 
225 0.922804 2.39725 3.41234 0.888286 0 0 0 0.373675 0.37698 0.311783 
106 0.302736 2.02714 3.35322 0.857237 0 0 0 0.120768 0.569713 0.780073 
249 -0.498553 2.47087 2.81671 0.959168 0 0 0 -0.536712 0.431532 0.394122 
228 -0.108653 3.23445 3.60256 1.22453 0 0 0 -0.281633 0.494524 0.579472 
254 -0.486113 2.76306 3.51219 1.1744 0 0 0 -0.471154 0.385424 0.58494 
230 0.506969 3.7114 2.9996 1.13778 0 0 0 0.0268995 0.554991 0.264714 
231 0.569899 2.27619 3.57917 0.935084 0 0 0 0.214641 0.457898 0.686138 
242 0.544171 2.40526 3.25162 0.856899 0 0 0 0.388545 0.605914 0.516833 
246 -0.356546 2.01123 3.5201 1.04152 0 0 0 -0.460439 0.227392 0.669542 
464 0.277937 1.66566 2.73314 0.660813 0 0 0 -0.253259 0.60072 0.673388 
205 0.789497 1.62296 3.04756 0.674934 0 0 0 0.588763 0.90308 0.639746 
251 0.368725 3.45846 3.03808 1.07461 0 0 0 0.0473191 0.57481 0.331746 
105 -0.172728 1.52945 3.72935 1.0418 0 0 0 -0.383893 0.0755038 0.777718 
250 0.796412 3.13053 3.3993 1.05192 0 0 0 0.168002 0.346668 0.318541 
244 1.25515 2.37352 3.45388 0.901674 0 0 0 0.225142 0.194149 0.0630219 
240 -0.316572 3.69298 3.4091 1.33893 0 0 0 -0.398577 0.574279 0.443178 
257 3.62636 1.21803 -0.278443 1.02737 0 0 0 0.662297 -0.0959261 -0.447612 
441 1.86626 1.15929 0.0293819 0.661003 0 0 0 -0.675408 -0.36969 0.601499 
288 3.6737 0.857924 0.0530766 0.991888 0 0 0 0.717095 -0.235545 -0.334327 
260 3.13229 0.827987 -0.609105 1.0191 0 0 0 0.333843 -0.274306 -0.675074 
261 3.52397 -0.100117 0.154685 1.093 0 0 0 0.50273 -0.634765 -0.33055 
276 2.55309 0.780205 -0.320841 0.838311 0 0 0 -0.251421 -0.566752 -0.547739 
427 2.2287 1.08024 0.208781 0.632709 0 0 0 -0.82243 -0.71399 -0.101839 
285 1.77615 0.218843 -0.0315175 0.864556 0 0 0 -0.185631 0.145305 0.517828 
436 2.35116 1.4222 -0.0512587 0.678324 0 0 0 -0.406516 -0.67393 -0.734161 
266 2.66024 0.936354 -0.843413 1.00717 0 0 0 0.0635745 -0.223762 -0.783961 
267 3.03037 0.608861 -0.039802 0.865177 0 0 0 0.15906 -0.643746 -0.506128 
293 2.10192 1.07615 -0.870515 0.95715 0 0 0 -0.17411 -0.223616 -0.718741 
269 2.55512 0.949703 -0.706873 0.943085 0 0 0 -0.0495114 -0.288843 -0.74355 
270 2.46766 0.61223 -0.432204 0.891624 0 0 0 -0.223508 -0.523978 -0.496716 
271 3.23129 -0.579421 -0.176073 1.23192 0 0 0 0.360716 -0.692749 -0.376328 
272 1.64671 0.823006 0.128482 0.702442 0 0 0 -0.205753 0.700996 1.55315 
284 2.04211 0.324124 -0.432475 0.936207 0 0 0 -0.243791 -0.335177 -0.149031 
290 2.38962 -0.690829 -0.214169 1.17656 0 0 0 0.0652737 -0.54743 -0.230043 
291 3.16121 0.33453 -0.492715 1.06554 0 0 0 0.325712 -0.499008 -0.575622 
294 3.06872 0.327597 0.682217 0.794005 0 0 0 0.101737 -0.942251 -0.433135 
23 1.96012 1.40534 1.23483 0.34908 0 0 0 -0.599491 -0.217354 0.0857678 
453 2.93382 0.913309 1.3622 0.60281 0 0 0 0.732856 -0.100541 0.132464 
18 1.90809 1.36094 1.34066 0.333039 0 0 0 -1.2507 0.0127666 0.295308 
298 2.04667 1.34272 1.25147 0.36717 0 0 0 -0.540369 -0.421775 0.0781917 
299 2.91919 0.965589 1.15319 0.60093 0 0 0 0.695811 -0.293967 -0.119122 
451 2.1258 1.28905 1.26588 0.385298 0 0 0 -0.2547 -0.63745 -0.0746458 
301 3.70181 0.535439 1.4268 0.900406 0 0 0 0.879145 -0.217152 0.0446125 
264 2.45149 0.855542 0.620133 0.597318 0 0 0 -0.523698 -0.843216 -0.416923 
445 2.28053 1.21987 1.24788 0.423468 0 0 0 0.555526 -0.751817 -0.307193 
304 2.19729 1.1198 1.14345 0.431075 0 0 0 2.27677 2.78799 2.37323 
41 2.8642 0.991071 0.87229 0.60924 0 0 0 0.493125 -0.669849 -0.497199 
306 1.99422 1.20525 1.4957 0.358722 0 0 0 -1.5516 -0.175488 0.0554543 
307 2.07209 1.04489 1.1927 0.425514 0 0 0 3.78002 7.1153 5.71658 
277 2.64745 1.39934 0.721812 0.548755 0 0 0 0.848687 -0.164862 -0.410668 
309 3.42366 0.409374 1.28612 0.82545 0 0 0 0.705411 -0.507577 -0.108057 
310 2.04762 -0.00926512 1.06794 0.725924 0 0 0 -0.56631 0.412259 0.0785232 
311 2.88346 1.04323 0.925484 0.602771 0 0 0 0.627641 -0.456668 -0.367844 
341 2.75568 1.06759 0.733266 0.59409 0 0 0 0.363335 -0.79352 -0.668162 
432 2.74184 1.44695 0.883124 0.554666 0 0 0 0.863074 0.249321 0.0388599 
161 2.00056 1.43223 1.16426 0.363504 0 0 0 -0.0699065 -0.338748 -0.117067 
182 2.69527 1.32605 0.523289 0.596681 0 0 0 0.459751 -0.519044 -0.622882 
316 2.92723 -0.308173 0.756852 0.924406 0 0 0 0.0547521 -0.866013 -0.307151 
317 3.34936 0.0148049 0.768081 0.924393 0 0 0 0.394658 -0.767688 -0.282411 
275 3.40929 -0.820395 0.709985 1.19499 0 0 0 0.430007 -0.788065 -0.184199 
33 2.65969 0.845104 1.48871 0.537867 0 0 0 0.7313 -0.58469 0.0577426 
320 1.86542 0.0375125 0.93189 0.734209 0 0 0 -0.348853 1.04572 0.59929 
72 2.19326 1.16819 1.39319 0.403131 0 0 0 -0.136026 -0.769822 -0.0246866 
265 1.93827 -0.369083 0.732908 0.882172 0 0 0 -0.204943 0.0533101 0.15774 
501 2.42644 1.15685 1.21413 0.460772 0 0 0 0.925182 -0.612786 -0.325984 
56 2.57031 0.703006 0.532534 0.656284 0 0 0 -0.587875 -1.04466 -0.472262 
325 2.33715 1.10414 1.34222 0.440657 0 0 0 0.761481 -0.601038 0.0306726 
287 2.41139 -0.366527 0.555641 0.9157 0 0 0 -0.1908 -0.554715 -0.138685 
327 3.36119 1.24899 1.48976 0.729278 0 0 0 0.602903 0.610955 0.465257 
329 1.95982 0.208846 1.14448 0.655292 0 0 0 -0.514525 1.36124 0.567928 
428 2.78132 0.813923 1.48194 0.571732 0 0 0 0.696753 -0.434534 0.0856992 
31 2.45658 0.720523 0.487638 0.649591 0 0 0 -0.729164 -0.862231 -0.283717 
283 1.78564 0.844178 0.902859 0.529979 0 0 0 2.21281 7.11443 5.72728 
326 2.49869 1.10645 1.22629 0.479722 0 0 0 0.917806 -0.586986 -0.275359 
470 3.20793 1.21786 1.38465 0.675375 0 0 0 0.604981 0.650672 0.479893 
313 2.78303 0.837268 1.4233 0.569368 0 0 0 0.688864 -0.469714 0.0305366 
457 1.88297 1.3176 1.42381 0.32806 0 0 0 -1.57506 0.172851 0.325191 
455 2.09928 1.46729 1.04027 0.396733 0 0 0 0.737342 -0.567086 -0.644771 
422 2.35312 1.29627 1.08161 0.446568 0 0 0 1.03429 -0.563807 -0.623514 
456 2.55984 0.341749 1.38464 0.628049 0 0 0 -0.349851 -1.08264 -0.530386 
474 1.85408 1.41999 1.30336 0.322767 0 0 0 -0.756325 0.16834 0.00891117 
300 3.62896 -0.222308 1.47508 1.02441 0 0 0 0.628929 -0.628294 -0.0936673 
478 2.35706 1.45327 0.867218 0.466209 0 0 0 1.2054 -0.3444 -0.812662 
340 1.70265 1.43603 1.41148 0.286354 0 0 0 -0.968743 0.606689 -0.38841 
281 1.70783 0.00683434 0.314203 0.851727 0 0 0 -0.0687075 0.525062 0.736433 
333 2.95212 0.625798 2.57618 0.753144 0 0 0 0.713194 0.398759 0.502321 
323 1.96024 1.06257 1.74773 0.38267 0 0 0 -0.57406 -0.518629 -0.531167 
335 2.66601 0.847263 2.44811 0.64609 0 0 0 0.592482 0.832679 0.530799 
491 1.78688 1.17972 1.70551 0.338071 0 0 0 -0.880338 0.101601 -0.516255 
337 2.05362 -0.945709 1.91696 0.993523 0 0 0 -0.0302159 -0.872231 -0.198416 
338 3.03181 0.240153 2.16305 0.77245 0 0 0 0.621387 -0.400469 0.185042 
339 1.79311 0.243002 1.69179 0.598004 0 0 0 -0.162404 1.31183 -0.0847656 
370 1.65925 -0.976636 2.59511 1.03459 0 0 0 -0.00371322 -0.913969 -0.00497863 
452 2.42607 0.244146 1.74989 0.62461 0 0 0 -0.262876 -1.04636 -0.488987 
295 2.09993 0.574222 2.39618 0.559708 0 0 0 0.422687 -0.55488 0.449851 
296 2.19624 1.05238 1.56909 0.416344 0 0 0 0.0525621 -0.767401 0.00183278 
344 2.37282 0.960813 1.94511 0.49317 0 0 0 0.0947156 -0.747989 -0.194899 
345 3.40707 1.06475 2.12277 0.795704 0 0 0 0.617745 0.513885 0.408962 
346 2.01392 0.960286 1.86444 0.415937 0 0 0 0.212671 -0.860588 0.00213116 
364 1.68475 1.12266 1.87406 0.355485 0 0 0 0.0337725 -0.643508 -0.441465 
348 3.88721 1.46542 2.1892 0.984169 0 0 0 0.623131 0.145078 0.180695 
331 2.11756 0.995958 1.72374 0.41584 0 0 0 0.0796231 -0.764179 -0.0600042 
350 2.3602 -0.0945907 1.61191 0.7192 0 0 0 -0.47643 -0.847093 -0.611049 
351 1.7726 1.23309 1.64011 0.323704 0 0 0 -1.06186 0.264431 -0.192993 
352 2.46184 0.66852 2.26259 0.582328 0 0 0 0.676376 0.0572748 0.582601 
363 2.55574 -0.637606 2.03573 0.923293 0 0 0 0.062622 -0.993179 -0.189389 
45 1.68419 1.14929 1.8349 0.346041 0 0 0 -0.0692344 -0.452261 -0.387895 
365 1.6938 0.222919 2.3901 0.619911 0 0 0 -0.246695 -1.20415 -0.522401 
356 3.26093 1.43478 2.49167 0.819984 0 0 0 0.0772488 0.442802 0.108644 
357 2.16288 1.08652 2.24834 0.502373 0 0 0 -1.19511 -1.26624 -1.3478 
358 2.14802 0.666397 2.60497 0.595295 0 0 0 0.560615 0.181406 0.638806 
359 3.56756 -0.600339 2.21029 1.13529 0 0 0 0.5712 -0.67161 0.0263393 
360 1.95003 0.18621 2.18313 0.617074 0 0 0 -0.299093 -1.06724 -0.548348 
361 2.06206 -0.717419 1.53365 0.916864 0 0 0 -0.16598 -0.667957 -0.288171 
362 2.41713 0.274367 1.96776 0.621367 0 0 0 -0.019618 -1.05118 -0.266804 
460 1.9702 1.14592 1.60674 0.364138 0 0 0 -1.33182 -0.186613 -0.368179 
303 2.32215 1.05426 1.64056 0.44636 0 0 0 -0.243911 -1.65 -0.782194 
393 1.97008 -0.328905 2.07154 0.770044 0 0 0 -0.341784 -0.895113 -0.52334 
324 2.45376 0.691636 1.98279 0.539925 0 0 0 0.658972 -0.447202 0.399924 
312 3.14154 1.31986 1.96637 0.699456 0 0 0 -0.0355726 0.799518 0.326185 
375 1.7987 0.918479 2.09439 0.426671 0 0 0 0.572747 -1.16242 0.509566 
459 2.65914 0.457172 1.80806 0.61256 0 0 0 0.369613 -0.819291 -0.0486025 
62 1.74291 1.0577 1.92911 0.377704 0 0 0 0.103745 -0.931381 -0.415054 
380 2.33974 0.664182 2.34271 0.573089 0 0 0 0.614364 -0.00930664 0.601007 
485 1.68786 1.16813 1.80446 0.339539 0 0 0 -0.171951 -0.322974 -0.331048 
510 2.07899 0.979149 1.78211 0.41585 0 0 0 0.124341 -0.791758 -0.0553482 
497 1.81804 0.609496 2.4823 0.542847 0 0 0 0.301742 -0.771564 0.409494 
347 1.77136 -0.881248 1.97401 0.962729 0 0 0 -0.0895693 -0.78654 -0.247515 
377 3.60722 1.30345 2.56839 0.933676 0 0 0 0.514273 0.272032 0.238901 
314 2.71489 0.746786 1.7233 0.570731 0 0 0 0.739728 -0.292747 0.267064 
388 1.75471 1.18522 1.72429 0.334978 0 0 0 -0.686878 0.0356224 -0.44258 
315 2.63579 0.314026 1.72366 0.638914 0 0 0 0.053793 -1.04201 -0.326227 
472 2.09292 0.870505 1.94172 0.448088 0 0 0 0.49182 -0.963351 0.346415 
483 1.82858 0.756611 2.34806 0.49368 0 0 0 0.439538 -0.870015 0.607247 
481 2.18418 0.922728 1.7832 0.44124 0 0 0 0.450525 -0.865499 0.161473 
53 1.96944 0.837142 2.09144 0.454923 0 0 0 0.523741 -1.0533 0.54647 
484 1.59689 0.90746 2.25909 0.443742 0 0 0 0.520965 -1.21093 0.880397 
384 3.31989 -0.642168 2.68997 1.13434 0 0 0 0.468079 -0.689843 0.14954 
79 1.6855 1.09274 1.92023 0.366689 0 0 0 0.137871 -0.883528 -0.419689 
492 1.57912 1.14676 1.92413 0.353492 0 0 0 0.285162 -0.824573 -0.0690943 
102 1.57313 0.88343 2.31385 0.456285 0 0 0 0.432979 -1.15596 0.886243 
353 2.07857 1.26352 2.64021 0.588629 0 0 0 -0.784772 0.43548 -1.26494 
462 2.05824 1.16867 1.5 0.374844 0 0 0 -1.12474 -0.441597 -0.00754674 
366 3.1868 0.39456 3.69954 1.1194 0 0 0 0.427866 -0.0589659 0.661268 
89 1.72107 0.843351 2.90212 0.612806 0 0 0 0.333728 0.563317 0.6773 
368 3.28496 -0.26177 3.55746 1.21014 0 0 0 0.427479 -0.424273 0.52049 
369 3.64677 0.246241 3.45703 1.1909 0 0 0 0.608282 -0.163266 0.482329 
378 2.68146 0.577422 2.86986 0.757388 0 0 0 0.589631 0.356544 0.599862 
389 2.14752 0.922793 3.36326 0.790328 0 0 0 0.301184 0.639912 0.697765 
95 1.59937 0.244865 3.84567 0.99172 0 0 0 0.0260064 -0.174658 0.844438 
373 1.65834 -0.0884434 2.8068 0.767129 0 0 0 -0.127076 -0.983974 -0.0238744 
390 2.59698 1.19522 3.71532 0.975792 0 0 0 0.204658 0.3341 0.633334 
86 1.82023 1.15321 3.19896 0.705228 0 0 0 0.238594 0.999342 0.374368 
376 2.3167 1.0375 3.19032 0.75819 0 0 0 0.302561 0.831202 0.474074 
391 3.65085 0.0254078 3.455 1.22491 0 0 0 0.591534 -0.276206 0.462946 
236 1.54662 0.57348 2.76918 0.603725 0 0 0 0.00804506 -0.614121 0.469238 
379 2.28479 0.064401 2.74732 0.757379 0 0 0 0.197699 -0.711339 0.263067 
392 3.16306 0.164084 2.91473 0.933104 0 0 0 0.561896 -0.181139 0.368117 
381 3.3365 -0.184159 3.45155 1.17625 0 0 0 0.468474 -0.388437 0.486814 
115 1.62184 0.856718 2.99926 0.635534 0 0 0 0.269769 0.566695 0.738463 
386 3.19115 1.2429 3.66152 1.08251 0 0 0 0.343958 0.202018 0.542292 
97 1.83971 0.614679 2.73121 0.599045 0 0 0 0.341804 -0.192335 0.590673 
385 2.36353 -0.087535 3.34841 0.945008 0 0 0 0.184326 -0.438183 0.551923 
413 2.04561 3.55202 0.256289 0.937589 0 0 0 0.0167904 0.82689 0.106734 
396 3.29247 3.22368 0.0353816 1.07479 0 0 0 0.396771 0.490329 -0.15114 
417 1.86394 3.11944 -0.421511 0.938942 0 0 0 0.0259783 0.635548 -0.497452 
398 3.25695 2.67493 0.143853 0.921568 0 0 0 0.465747 0.363365 -0.0248153 
418 3.60252 2.06812 -0.0315347 0.97993 0 0 0 0.668202 0.103298 -0.267782 
400 3.51105 2.53615 -0.0693543 1.01263 0 0 0 0.566687 0.207842 -0.261325 
420 1.73365 2.37768 -0.458352 0.802553 0 0 0 0.0173935 0.149986 -0.822017 
414 2.021 2.40555 -0.00566808 0.688311 0 0 0 0.194066 0.747628 -0.386267 
416 2.84933 3.42505 -0.151606 1.0695 0 0 0 0.20738 0.613235 -0.26158 
404 3.31269 3.00275 -0.201163 1.07257 0 0 0 0.424793 0.366723 -0.332248 
415 3.39604 3.43406 0.0890934 1.15433 0 0 0 0.404631 0.538806 -0.151421 
322 1.89507 1.81397 -0.13757 0.663458 0 0 0 -0.322265 -0.680412 -0.736616 
407 3.49972 1.68272 -0.386583 1.01346 0 0 0 0.577624 0.0301551 -0.502846 
408 2.0203 1.93863 -0.607169 0.832 0 0 0 -0.0249516 -0.176067 -0.8697 
202 2.56612 1.60662 0.174914 0.644139 0 0 0 0.242839 -0.252863 -0.704198 
410 3.59068 2.9862 -0.00984792 1.11004 0 0 0 0.546416 0.338205 -0.22181 
411 1.93646 3.67858 -0.355085 1.08848 0 0 0 -0.0202915 0.765236 -0.418151 
289 2.40055 1.93837 0.244718 0.614259 0 0 0 0.514159 0.45017 -0.39016 
262 1.74618 2.1512 0.279808 0.555162 0 0 0 0.0127957 0.577716 -0.810609 
12 2.05401 1.71887 0.758061 0.438049 0 0 0 1.01327 -0.0353415 -1.31542 
419 2.13205 2.72408 0.899569 0.661816 0 0 0 -0.342819 -0.253242 0.907393 
406 2.42478 3.61752 0.659936 0.970483 0 0 0 -0.0178839 0.633406 0.325799 
5 1.83386 1.60258 1.06899 0.350516 0 0 0 0.518458 -0.00484495 -0.4393 
282 2.10937 1.7138 0.725222 0.45101 0 0 0 1.02978 -0.00762588 -1.22517 
332 2.94219 1.87249 1.48281 0.658022 0 0 0 -1.34645 0.0501181 0.272381 
273 1.97811 2.02245 0.49836 0.505721 0 0 0 0.418298 0.715762 -0.889855 
465 1.55316 1.80292 1.02061 0.352748 0 0 0 0.423853 0.413238 0.116764 
473 2.46733 1.59649 0.66644 0.518456 0 0 0 0.967365 0.00931092 -0.462045 
431 2.32607 2.05445 0.519978 0.560174 0 0 0 0.724144 0.99384 0.162996 
14 1.55419 1.93328 0.828402 0.40506 0 0 0 0.0452427 0.830441 -0.972555 
292 1.85024 1.93214 0.623223 0.458604 0 0 0 0.520391 0.633288 -1.45591 
434 2.75644 2.12252 0.776644 0.640348 0 0 0 0.276035 0.828522 0.976949 
435 2.2755 2.78878 1.36395 0.724164 0 0 0 -1.28359 -1.59747 0.0353586 
449 1.78491 1.65285 1.04033 0.35159 0 0 0 0.620349 0.096709 -0.444043 
397 2.83484 3.18347 0.751301 0.894629 0 0 0 -0.011866 0.462723 0.500413 
503 1.69432 1.53291 1.2828 0.296973 0 0 0 0.0872892 0.668226 -1.17521 
439 2.23606 1.68881 0.721632 0.470066 0 0 0 0.997586 -0.149414 -1.01185 
440 3.40613 2.58475 1.18371 0.890001 0 0 0 0.0148422 0.225986 0.341531 
321 3.75634 1.95026 1.30416 0.908663 0 0 0 0.522767 0.204484 0.235082 
442 2.01406 1.55506 0.987751 0.389563 0 0 0 0.846822 -0.376473 -0.680742 
280 3.36551 1.9208 0.844511 0.776132 0 0 0 0.563199 0.495341 0.460955 
409 2.06942 2.09256 1.00966 0.487114 0 0 0 -3.00197 -4.83785 -2.50834 
132 1.60203 2.67405 1.23181 0.597771 0 0 0 -0.896531 -2.87781 -0.340602 
412 3.37692 2.95078 0.915978 0.958065 0 0 0 0.185471 0.354265 0.329064 
467 2.39564 1.7078 0.60757 0.518872 0 0 0 0.911769 0.184938 -0.454157 
475 1.63585 1.75674 1.01821 0.351078 0 0 0 0.572241 0.320077 -0.169914 
297 1.88583 2.11884 0.46828 0.516631 0 0 0 0.269679 0.900502 -0.811063 
258 1.88163 2.07848 0.4901 0.505797 0 0 0 0.29279 0.819167 -0.959438 
21 1.95023 1.79309 0.737013 0.433779 0 0 0 0.835094 0.192413 -1.45185 
155 1.57049 2.57307 1.03081 0.556289 0 0 0 -0.930556 -1.9737 -0.346058 
152 1.64318 3.26844 0.896387 0.775453 0 0 0 0.145064 0.320255 0.577034 
330 3.25835 2.11221 1.26291 0.765142 0 0 0 -0.227342 0.346562 0.517389 
50 2.1097 2.01879 0.461304 0.528908 0 0 0 0.523397 0.760797 -0.524218 
11 1.82698 1.65768 0.998597 0.364153 0 0 0 0.726277 0.056098 -0.47916 
221 3.06292 2.07822 0.892996 0.704355 0 0 0 0.191784 0.675912 0.805536 
74 3.04858 1.89687 0.613132 0.697116 0 0 0 0.73398 0.698636 0.481357 
446 2.36992 1.57697 0.41605 0.551068 0 0 0 0.338455 -0.381162 -0.777626 
395 2.2081 3.17315 0.332801 0.8232 0 0 0 0.0906901 0.789294 0.380095 
259 2.61539 1.55377 0.44753 0.589883 0 0 0 0.615141 -0.134927 -0.484156 
421 3.45212 3.42162 0.546129 1.11865 0 0 0 0.356782 0.514225 0.0955113 
454 1.56661 1.58654 1.31651 0.280867 0 0 0 0.559635 0.530494 -1.02785 
46 1.85723 1.59487 1.06019 0.354937 0 0 0 0.539324 -0.0521779 -0.419119 
342 1.94864 1.51664 1.09144 0.362941 0 0 0 0.365725 -0.248138 -0.311584 
468 1.84502 1.61503 1.04263 0.356897 0 0 0 0.605294 -0.0199573 -0.435436 
3 1.71463 1.71188 1.01634 0.352863 0 0 0 0.64217 0.223108 -0.361499 
305 1.96778 2.68474 0.388908 0.661753 0 0 0 0.243373 1.21754 0.507498 
197 2.25481 2.31208 0.348896 0.621997 0 0 0 0.537179 1.21494 0.278875 
405 2.37908 2.74229 0.381564 0.727042 0 0 0 0.265684 0.922407 0.602281 
401 2.75364 3.61331 0.3324 1.03902 0 0 0 0.115536 0.715406 0.107307 
13 1.55309 1.67704 1.20139 0.307971 0 0 0 0.786115 0.492131 -0.793899 
387 2.43195 1.6889 2.17915 0.610142 0 0 0 -3.33205 -1.7768 -2.95701 
482 2.5149 2.75824 2.04881 0.826895 0 0 0 -1.56763 -1.33384 -0.988741 
463 2.97197 2.60117 1.62743 0.818337 0 0 0 -1.0767 -0.446853 -0.0860559 
394 2.6422 1.65781 2.44455 0.691177 0 0 0 -1.51692 -0.0733827 -1.27237 
319 3.26548 1.82335 1.59356 0.744788 0 0 0 -0.412043 0.388334 0.342389 
500 3.11265 2.32838 2.11934 0.848988 0 0 0 -0.956476 -0.383041 -0.424584 
487 2.72998 2.14153 2.33658 0.768573 0 0 0 -1.7381 -0.883093 -1.2383 
502 2.94168 3.1234 2.45848 1.05467 0 0 0 -0.570291 -0.288466 -0.388167 
499 3.04774 2.90836 2.592 1.0427 0 0 0 -0.532252 -0.292099 -0.370335 
429 3.27855 2.24372 1.51449 0.807219 0 0 0 -0.495863 0.082125 0.239967 
504 1.83963 1.98459 2.3037 0.597604 0 0 0 -3.80608 -5.33854 -5.67472 
383 3.18367 1.5004 2.61693 0.827665 0 0 0 -0.0343494 0.389493 0.0164135 
99 1.58531 1.59036 3.49473 0.813435 0 0 0 0.149991 0.619314 0.283841 
382 2.94579 1.66321 3.32611 0.956233 0 0 0 0.0216999 0.231179 0.173938 
374 2.17946 1.70018 3.15937 0.782234 0 0 0 -0.408951 0.359881 -0.575166 
367 2.15104 1.73256 3.16273 0.783982 0 0 0 -0.427375 0.315448 -0.617696 
512 1.68195 3.18105 2.91329 0.98699 0 0 0 -0.181797 -0.379644 -0.491425 
498 3.03602 3.15207 3.07829 1.20085 0 0 0 -0.26432 -0.140576 -0.154739 
508 2.36178 2.26393 2.93279 0.848661 0 0 0 -1.00135 -0.572103 -1.04109 
488 2.7668 3.03525 3.02365 1.10813 0 0 0 -0.447033 -0.241966 -0.294059 
100 1.61345 1.74365 3.65537 0.886139 0 0 0 0.0867495 0.432631 0.364272 
245 1.53524 1.87341 3.55191 0.862724 0 0 0 0.113813 0.405919 0.1748 
ITEM: TIMESTEP
740901
ITEM: NUMBER OF ATOMS
512
ITEM: BOX BOUNDS ss ss ss
-8.1988304040437454e-01 3.8875120101141034e+00
-9.7693552394909078e-01 3.9476017366228966e+00
-9.1281994132074906e-01 3.9096273972560476e+00
ITEM: ATOMS id x y z width_SPH x_COM y_COM z_COM vx vy vz 
263 1.46291 0.886579 -0.255347 0.797053 0 0 0 -0.184415 0.0652904 0.617615 
403 1.47177 1.28214 -0.572761 0.836225 0 0 0 -0.296162 -0.417882 -0.28164 
25 0.482318 0.121023 0.00276518 1.02263 0 0 0 0.430998 0.529148 0.56992 
279 1.31897 1.03444 -0.485001 0.850873 0 0 0 -0.189075 -0.165784 0.106854 
402 1.48864 1.3275 -0.64802 0.856456 0 0 0 -0.281509 -0.409918 -0.421852 
16 0.283959 0.665573 0.148006 0.902208 0 0 0 0.586497 0.592035 0.780335 
8 0.548837 0.851553 0.116501 0.825735 0 0 0 0.734378 0.682641 1.15144 
131 1.20614 1.40819 0.665939 0.517653 0 0 0 4.79929 6.68209 7.38233 
217 -0.458204 1.32447 1.07566 0.827556 0 0 0 -0.140288 -0.412287 -0.139918 
2 -0.191098 0.578911 0.378219 0.976756 0 0 0 0.269395 0.35532 0.38113 
24 0.947285 0.538027 0.655865 0.732051 0 0 0 1.68976 2.78497 2.58742 
129 -0.0272472 1.21936 0.471859 0.809153 0 0 0 0.46486 -0.111334 0.504332 
224 -0.038191 1.2323 1.09789 0.718729 0 0 0 1.00077 -0.077776 0.26718 
78 0.717451 0.416234 1.44599 0.684323 0 0 0 2.08579 2.94714 0.725696 
67 0.0566685 0.170694 1.35969 0.867436 0 0 0 0.646791 0.692222 0.005825 
22 1.10959 0.782211 0.476484 0.689908 0 0 0 1.54587 2.71412 3.19731 
125 0.0919126 1.14992 0.334137 0.81764 0 0 0 0.528928 0.0431925 0.639702 
10 0.362718 0.340192 0.33704 0.920797 0 0 0 0.743157 0.865766 0.897085 
68 -0.62925 1.10997 1.49534 0.872297 0 0 0 -0.401542 -0.268313 -0.303207 
116 -0.467653 -0.22483 2.43602 1.06883 0 0 0 -0.510471 -0.413939 -0.0581879 
39 1.33122 1.26247 1.96202 0.349424 0 0 0 -0.248484 -0.393492 0.561614 
57 -0.136592 -0.184235 1.60661 0.978297 0 0 0 0.0862671 0.0850716 -0.196889 
111 1.47853 0.661536 1.94944 0.479334 0 0 0 3.06031 4.58025 2.6103 
59 0.83625 1.31492 2.27395 0.459123 0 0 0 -1.0555 -0.0553429 0.985173 
183 0.484327 1.33661 2.61271 0.586941 0 0 0 -0.675492 -0.0649776 0.479694 
80 1.06799 1.32418 2.08946 0.394885 0 0 0 -0.907572 0.0277064 0.821377 
103 -0.66644 -0.192843 2.21681 1.11079 0 0 0 -0.541748 -0.319403 -0.0821428 
63 -0.481042 0.335769 1.67077 0.939103 0 0 0 -0.201812 0.0269434 -0.274258 
64 0.692243 1.25094 1.95537 0.468156 0 0 0 1.81297 3.52199 2.44695 
65 1.41229 1.12564 2.09166 0.384748 0 0 0 0.113629 -1.07886 0.468894 
66 0.536313 -0.153308 1.5622 0.845282 0 0 0 0.649399 0.683609 -0.164189 
27 1.41507 1.3286 1.8037 0.309622 0 0 0 -0.411888 -0.39449 1.393 
343 1.489 1.48456 1.52633 0.252367 0 0 0 0.0620434 0.0889823 -0.0237111 
69 0.578525 1.29327 2.42892 0.533068 0 0 0 -0.970118 -0.283443 0.404248 
82 0.15598 0.760106 1.61801 0.699979 0 0 0 1.16215 0.799939 -0.325326 
71 0.319314 -0.0268709 1.59759 0.843497 0 0 0 0.618177 0.613284 -0.223046 
509 1.47934 1.47659 1.54575 0.254226 0 0 0 0.182487 0.0865856 -0.118286 
226 0.739735 1.28996 2.43123 0.504115 0 0 0 -0.860439 -0.174967 0.69803 
511 1.41956 1.17053 2.0196 0.36604 0 0 0 0.0940908 -0.909431 0.29696 
118 0.968944 0.167107 2.50853 0.690233 0 0 0 -0.38008 -0.897086 -0.669372 
26 1.04233 1.47276 1.9123 0.366372 0 0 0 -0.426169 0.304969 0.347822 
77 0.568467 0.474344 2.2866 0.658592 0 0 0 -0.193306 -0.487518 -0.88348 
92 0.62797 -0.707365 2.33072 0.983497 0 0 0 -0.0562677 -0.633952 -0.23183 
107 0.249775 0.44264 2.19696 0.724248 0 0 0 -0.0885143 -0.27528 -0.8034 
122 1.04948 0.38491 2.37968 0.613124 0 0 0 -0.28696 -0.858488 -0.736291 
94 1.1831 0.612679 2.42577 0.54558 0 0 0 -0.172901 -1.01247 -0.0156746 
247 0.952675 1.10214 2.48172 0.497483 0 0 0 -0.612026 -0.522945 0.847442 
73 1.44161 0.794442 2.54927 0.516402 0 0 0 0.0605069 -0.778633 0.685216 
87 0.75602 0.283341 2.07375 0.669737 0 0 0 0.352302 0.328699 -0.886051 
84 -0.667093 1.05545 2.40897 0.902823 0 0 0 -0.847692 -0.267148 -0.18099 
507 1.18215 1.1312 2.24888 0.425765 0 0 0 -0.485914 -0.575642 1.24141 
169 1.39493 0.991812 2.28371 0.436522 0 0 0 0.175166 -1.07746 1.11104 
85 0.770572 -0.60656 1.99598 0.927261 0 0 0 0.0904844 -0.341412 -0.356414 
371 1.36018 0.868799 2.51443 0.500144 0 0 0 -0.0252638 -0.821052 0.806257 
448 0.609011 1.28904 1.89853 0.483836 0 0 0 1.71753 3.16739 1.99164 
328 0.993101 0.7743 2.21875 0.511076 0 0 0 0.604166 0.591936 0.631536 
112 0.973467 1.266 2.22438 0.433455 0 0 0 -0.947607 -0.0536032 1.19701 
40 0.542483 1.29074 2.4296 0.540915 0 0 0 -0.994589 -0.331563 0.322579 
496 1.48485 1.48105 1.5348 0.253068 0 0 0 0.119683 0.0926486 -0.0759588 
42 1.22246 1.29781 2.00115 0.362848 0 0 0 -0.55752 -0.189305 0.500904 
237 1.11562 1.25583 2.14124 0.402218 0 0 0 -0.810633 -0.184031 0.983649 
494 1.38749 1.19012 2.01749 0.364345 0 0 0 -0.0151685 -0.801929 0.357045 
181 0.316514 1.14154 2.56083 0.627432 0 0 0 -0.957879 -0.732024 -0.0854523 
81 -0.121092 -0.621637 2.09638 1.08733 0 0 0 -0.197011 -0.42268 -0.13128 
83 1.18469 -0.506674 2.52988 0.870692 0 0 0 -0.142366 -0.821273 -0.309904 
232 0.998013 1.01241 2.54916 0.515981 0 0 0 -0.467561 -0.616726 0.771176 
93 -0.508145 0.844913 2.02971 0.85166 0 0 0 -0.540563 -0.298773 -0.444184 
61 1.51202 0.359909 1.94817 0.566539 0 0 0 0.589464 1.3973 -0.113274 
349 1.50386 -0.381653 1.57127 0.808645 0 0 0 -0.129212 0.234039 -0.291408 
253 1.16406 1.08587 2.39569 0.460845 0 0 0 -0.611629 -0.907196 0.93765 
193 -0.72752 1.42164 1.5528 0.877432 0 0 0 -0.696385 -0.372892 -0.303504 
506 1.46209 1.27675 1.8387 0.320013 0 0 0 -0.221483 -0.637835 0.942336 
44 -0.248198 1.37176 1.89732 0.712929 0 0 0 -0.599191 -0.71758 -0.652012 
32 1.23784 1.37168 1.88978 0.336996 0 0 0 -0.418317 -0.0106565 0.780061 
493 1.20602 1.42553 1.84333 0.331294 0 0 0 -0.251829 0.0106039 0.833386 
9 1.40198 1.32545 1.82111 0.313662 0 0 0 -0.524541 -0.595574 1.1852 
218 1.31593 1.40024 1.78916 0.309637 0 0 0 -0.538549 -0.471026 1.28583 
200 -0.243761 1.45155 1.90838 0.706227 0 0 0 -0.690034 -0.735849 -0.61423 
486 1.31684 1.26322 1.98198 0.354053 0 0 0 0.426971 0.781654 1.35243 
98 0.192048 0.505977 2.67418 0.762679 0 0 0 -0.54781 -0.679273 -0.319382 
113 1.36474 -0.767744 2.84603 0.993315 0 0 0 -0.0519061 -0.877635 0.0551808 
114 -0.662809 0.667395 3.0988 1.04669 0 0 0 -0.730351 -0.20807 0.292164 
108 0.827867 -0.375038 3.19939 0.967025 0 0 0 -0.17965 -0.683319 0.269371 
163 0.568727 0.925259 2.79803 0.645964 0 0 0 -0.629009 -0.7147 0.303417 
60 0.824455 1.36371 3.15256 0.69163 0 0 0 0.33329 0.629394 0.835942 
117 0.983525 0.117901 3.7019 0.978815 0 0 0 -0.129092 -0.308784 0.718563 
51 0.40787 1.42256 2.78811 0.642069 0 0 0 -0.346641 0.249814 0.656769 
88 1.42973 0.538919 3.62919 0.869874 0 0 0 0.00639229 0.0152706 0.894958 
109 -0.521 -0.195159 3.25587 1.19581 0 0 0 -0.575248 -0.438259 0.393267 
90 -0.819584 0.596008 2.78624 1.05283 0 0 0 -0.798733 -0.216509 0.11203 
91 0.794654 1.1685 3.90933 0.962239 0 0 0 -0.00640092 0.133372 0.951556 
227 1.33614 1.35544 2.76355 0.562287 0 0 0 -0.0936355 0.239724 -0.637897 
438 0.69284 1.45413 3.02106 0.665646 0 0 0 0.310262 0.681382 0.831889 
119 0.719815 0.0526641 3.43823 0.932507 0 0 0 -0.230059 -0.438123 0.511982 
430 1.20337 0.667939 2.80486 0.606691 0 0 0 -0.284838 -0.688798 0.485003 
96 1.21336 -0.443178 3.49593 1.03711 0 0 0 -0.0580855 -0.627555 0.498016 
121 -0.478872 0.852548 3.15731 0.981828 0 0 0 -0.686139 -0.196806 0.337566 
110 0.000533212 -0.178561 2.91004 0.989029 0 0 0 -0.415655 -0.545736 0.0950908 
120 -0.757136 1.33216 2.86286 0.982953 0 0 0 -0.855564 -0.0638483 0.192643 
104 0.101183 -0.598296 3.21263 1.14763 0 0 0 -0.345984 -0.64243 0.341689 
101 0.537351 0.503484 3.11842 0.786335 0 0 0 -0.405485 -0.52551 0.336965 
238 1.23271 1.23412 2.83498 0.574661 0 0 0 0.1822 0.586677 0.30433 
123 -0.316977 2.86792 -0.691693 1.18976 0 0 0 -0.54037 0.329795 -0.65984 
159 0.397834 3.05213 -0.625374 1.0548 0 0 0 -0.285742 0.503089 -0.690803 
142 1.18785 3.80508 -0.0596126 1.0579 0 0 0 -0.106365 0.892024 -0.316712 
126 -0.541263 3.21741 0.184415 1.10843 0 0 0 -0.645004 0.551747 -0.319708 
127 0.805515 2.06304 -0.832071 0.949848 0 0 0 -0.27058 -0.262301 -0.886227 
158 0.896481 2.14783 -0.502446 0.825347 0 0 0 -0.343774 -0.410893 -0.874111 
143 -0.162416 2.51389 -0.788976 1.13561 0 0 0 -0.507506 0.116804 -0.73521 
149 1.11664 2.1868 -0.912521 0.958563 0 0 0 -0.152845 -0.115956 -0.939918 
151 1.36321 3.36619 0.288897 0.844519 0 0 0 0.0302134 0.959237 0.0450106 
274 1.33477 2.01646 -0.026796 0.636667 0 0 0 -0.36698 -0.743684 -0.663945 
157 0.0134461 1.64301 0.128942 0.821067 0 0 0 -0.211196 -0.666856 -0.10343 
156 -0.609017 1.93331 -0.650116 1.19061 0 0 0 -0.599188 -0.0660179 -0.54988 
130 0.986181 2.15088 0.267702 0.59301 0 0 0 -0.525017 -0.340061 -0.635117 
148 0.698617 1.49459 -0.232561 0.791588 0 0 0 -0.075091 -0.610828 0.0773687 
137 -0.708147 2.86987 0.246404 1.07807 0 0 0 -0.787256 0.323154 -0.310893 
138 0.424982 2.62752 -0.593767 0.963026 0 0 0 -0.356626 0.182129 -0.803873 
141 0.160038 1.99701 -0.415246 0.914392 0 0 0 -0.476605 -0.434299 -0.672685 
140 0.862153 2.60214 -0.809069 0.979752 0 0 0 -0.192288 0.196984 -0.875647 
443 1.31898 2.08521 0.116089 0.599072 0 0 0 -0.363283 -0.428121 -0.737913 
444 1.48155 2.2398 0.0627965 0.620896 0 0 0 -0.259571 0.134187 -0.787117 
136 1.03226 1.89171 0.221509 0.597168 0 0 0 -0.149083 -0.793342 0.0685922 
268 1.46276 2.00808 0.113345 0.589756 0 0 0 -0.280065 -0.513107 -0.71189 
146 0.824182 2.05115 0.253748 0.615589 0 0 0 -0.451286 -0.790365 -0.379483 
180 0.816329 2.50704 0.789627 0.565307 0 0 0 -0.422142 1.23144 -0.299285 
190 0.821825 3.29159 1.17401 0.77367 0 0 0 0.33822 0.751401 0.367124 
178 -0.546724 3.0854 1.13917 0.974054 0 0 0 -0.646052 0.581699 -0.020491 
220 0.899105 2.23261 1.45459 0.460918 0 0 0 -1.92841 -2.57375 -1.9631 
189 1.01703 2.26102 0.814606 0.487545 0 0 0 -0.94785 1.1127 -0.606457 
165 1.04881 2.30436 0.745477 0.502527 0 0 0 -0.824806 1.15664 -0.661895 
128 1.38576 3.34334 1.2518 0.793523 0 0 0 0.238335 -0.0104513 0.379243 
185 0.700682 3.36966 1.30718 0.807794 0 0 0 0.306432 0.749879 0.317364 
168 0.77937 2.05422 1.00594 0.471615 0 0 0 -0.206001 1.53665 0.70662 
186 -0.767685 1.72337 0.481585 0.983524 0 0 0 -0.740698 -0.285037 -0.211647 
170 0.556752 2.28227 0.547189 0.609202 0 0 0 -0.63954 -0.127122 -0.555104 
171 0.284593 3.56151 0.915819 0.929531 0 0 0 -0.124121 0.922021 0.0251729 
175 -0.673977 2.64647 1.34235 0.922309 0 0 0 -0.838194 0.28563 -0.0589445 
124 0.94653 2.13443 1.03011 0.448054 0 0 0 -1.03403 1.02043 -0.156169 
187 -0.341962 2.06188 0.381163 0.853126 0 0 0 -0.732707 -0.502043 -0.361242 
134 1.44029 2.99974 0.715252 0.686522 0 0 0 0.2376 0.772286 0.575612 
198 1.10455 2.4853 1.3249 0.519706 0 0 0 -1.07289 -2.52533 -1.2373 
426 1.5256 1.80969 1.03414 0.350826 0 0 0 0.374719 0.3996 0.23684 
147 1.22189 1.92071 1.15986 0.365564 0 0 0 -0.681484 -0.61204 0.428243 
133 1.0445 2.31188 0.324254 0.588097 0 0 0 -0.518707 0.365657 -0.734342 
188 0.39884 2.22613 0.467438 0.652188 0 0 0 -0.609003 -0.527999 -0.525463 
20 1.40119 1.64926 1.36986 0.284346 0 0 0 1.5883 -0.491284 -0.209919 
216 -0.0737694 2.3515 1.33667 0.682753 0 0 0 -0.67691 0.163023 -0.232994 
206 -0.717425 1.91109 1.19379 0.879567 0 0 0 -0.880975 -0.367047 -0.250335 
154 -0.280081 3.20779 0.526569 0.978394 0 0 0 -0.533227 0.67252 -0.188917 
144 1.30248 2.01086 0.912945 0.407612 0 0 0 -0.673062 1.05397 -0.23865 
423 1.18174 2.03442 0.977319 0.411235 0 0 0 -0.85169 1.06094 0.0833199 
135 -0.226246 3.12138 0.410255 0.958205 0 0 0 -0.535698 0.632126 -0.247146 
192 0.529703 2.18855 0.465843 0.623391 0 0 0 -0.590098 -0.541562 -0.501856 
194 0.171588 2.21544 0.651676 0.670487 0 0 0 -0.636193 -0.568248 -0.480131 
196 0.990074 2.89058 1.10308 0.640598 0 0 0 0.388178 0.633302 0.41903 
203 0.532333 2.55461 0.541058 0.65519 0 0 0 -0.461165 0.62393 -0.448615 
150 1.41054 1.88547 0.988701 0.370978 0 0 0 2.87916 5.47389 3.79851 
214 -0.0711001 1.80497 0.791843 0.711166 0 0 0 -0.190379 -1.00773 -0.172965 
425 1.42104 1.95117 0.905409 0.394385 0 0 0 -0.268546 0.944083 -0.302526 
48 0.228433 2.29404 0.623429 0.667387 0 0 0 -0.652929 -0.34057 -0.509613 
162 1.52739 1.51565 1.44982 0.254792 0 0 0 -0.40039 0.113666 0.320347 
177 0.870221 1.99605 1.31464 0.416622 0 0 0 -0.428397 0.917029 0.359079 
139 0.901011 3.9473 0.7486 1.0206 0 0 0 -0.0239529 0.908773 -0.0296579 
461 1.38947 1.75363 1.23162 0.316837 0 0 0 0.789047 0.0387842 0.354116 
210 0.26162 2.176 0.847571 0.615996 0 0 0 -0.594725 -0.510621 -0.434905 
480 1.02344 2.02372 1.13292 0.409865 0 0 0 -0.664463 0.947406 0.473191 
28 1.05075 1.83854 1.40399 0.360319 0 0 0 0.74516 0.122662 0.746595 
489 0.558863 2.27472 1.21428 0.519889 0 0 0 -0.640228 0.853634 -0.177988 
4 1.22243 1.72085 1.42291 0.315217 0 0 0 1.31368 -0.333615 0.539526 
19 1.14084 2.47425 0.428801 0.585354 0 0 0 -0.34549 1.10189 -0.529143 
336 0.479593 2.37428 1.18931 0.555282 0 0 0 -0.452066 0.940839 -0.147875 
469 1.04051 2.0173 1.12835 0.406964 0 0 0 -0.642013 0.936017 0.520295 
308 0.4172 2.38388 1.20765 0.568904 0 0 0 -0.422115 0.883029 -0.144399 
15 1.22459 1.8628 1.21611 0.350382 0 0 0 0.329903 0.109622 1.24272 
424 1.33272 2.62682 0.39719 0.618364 0 0 0 -0.0725587 1.29745 -0.162159 
7 1.3725 2.12813 0.709283 0.457153 0 0 0 -0.584574 1.11291 -1.16726 
174 1.29679 1.80757 1.23497 0.33218 0 0 0 0.573584 -0.124868 0.947125 
6 1.09485 1.81937 1.39358 0.350539 0 0 0 0.885857 -0.0217214 0.820759 
458 0.509362 2.15863 1.40969 0.503686 0 0 0 -0.692858 0.732896 -0.0556262 
433 1.53014 1.83935 0.985041 0.363362 0 0 0 0.318027 0.587863 0.0928906 
437 1.4675 2.04175 0.748719 0.434915 0 0 0 -0.337012 1.01697 -1.23262 
153 1.27972 1.81894 1.23332 0.335819 0 0 0 0.531948 -0.101059 1.03919 
286 1.48251 2.02988 0.753392 0.432204 0 0 0 -0.289591 0.996394 -1.23895 
195 0.960329 1.93964 1.32811 0.392721 0 0 0 -0.00445769 0.66968 0.654058 
399 1.51635 1.93623 0.866656 0.397927 0 0 0 -0.430248 0.218324 -1.13983 
354 0.503424 2.10104 1.49637 0.495889 0 0 0 -0.741151 0.714539 0.0203303 
372 1.50625 1.49957 1.49052 0.251512 0 0 0 -0.213127 0.0451055 0.264296 
164 0.232476 1.81997 1.47903 0.55541 0 0 0 -0.187243 -0.250998 -0.150807 
17 1.50459 1.49817 1.49391 0.25144 0 0 0 -0.188208 0.0475275 0.24041 
52 0.953882 1.86576 1.44846 0.38025 0 0 0 0.395291 0.462951 0.490603 
145 0.944093 3.68322 0.319781 0.962023 0 0 0 -0.0697447 0.942576 -0.136541 
256 0.55836 2.11603 1.73864 0.496379 0 0 0 -0.760276 0.519662 0.0904935 
495 1.04309 1.64387 1.68228 0.346148 0 0 0 0.726114 0.284225 0.134041 
248 0.868791 1.56289 1.93385 0.401679 0 0 0 -0.734345 0.7248 0.574595 
43 0.148922 2.31438 1.81883 0.623839 0 0 0 -0.186953 0.906579 0.491328 
76 0.906807 1.5791 1.88405 0.389077 0 0 0 -0.518338 0.646502 0.347095 
450 0.854484 1.64816 1.83468 0.397153 0 0 0 -0.471731 0.832953 0.328211 
166 1.19151 3.39112 1.71318 0.833436 0 0 0 0.311565 -0.187275 0.0847858 
70 0.975124 2.32047 2.30293 0.608766 0 0 0 0.37484 -1.5569 -1.46653 
199 -0.163988 2.48212 2.51654 0.815891 0 0 0 -0.221994 0.751751 0.499407 
223 -0.313707 3.51998 2.20262 1.0656 0 0 0 -0.343015 0.73076 0.185282 
201 -0.032299 3.01378 1.68138 0.815636 0 0 0 -0.0813063 0.978498 0.267407 
243 0.900444 2.03174 2.39424 0.562188 0 0 0 0.103014 -1.11847 -1.35642 
191 0.401997 2.14626 2.61254 0.667706 0 0 0 0.537549 1.16207 0.686791 
204 0.494254 3.83158 2.13436 1.03917 0 0 0 0.0831283 0.663326 0.133732 
49 0.769424 1.87245 1.59107 0.417368 0 0 0 -0.388155 1.00502 0.294919 
160 0.914951 1.82327 1.54462 0.382718 0 0 0 0.276018 0.470455 0.187761 
207 0.786898 2.75747 2.50756 0.754782 0 0 0 0.726068 0.142231 -0.116932 
208 1.031 2.39117 1.63949 0.518119 0 0 0 -1.2961 -4.15658 -2.32176 
209 0.529464 2.20088 1.58261 0.507844 0 0 0 -0.583266 0.778376 0.0883012 
447 0.197363 2.26424 2.14672 0.639117 0 0 0 0.0857563 1.11291 0.777249 
211 0.711169 3.69217 1.79547 0.943616 0 0 0 0.228612 0.561464 0.152179 
212 0.655024 3.28579 1.83325 0.812308 0 0 0 0.469015 0.508433 0.273214 
213 0.0678192 3.47689 2.25792 0.980736 0 0 0 -0.0321117 0.748325 0.229363 
490 1.46126 1.49806 1.53103 0.253856 0 0 0 1.29298 -0.711793 0.128797 
215 0.794991 3.88391 2.27497 1.06152 0 0 0 0.148997 0.502768 0.0716711 
184 1.50041 1.49456 1.50257 0.251402 0 0 0 -0.121631 0.0573675 0.171783 
55 0.266695 2.26504 1.5319 0.574506 0 0 0 -0.404467 0.671166 0.085624 
505 0.36113 1.60465 2.26191 0.548757 0 0 0 -0.983806 0.180622 0.294886 
255 1.2108 2.61051 2.17654 0.668973 0 0 0 0.0490818 -2.3191 -1.57537 
479 0.0168471 2.3686 2.04037 0.686483 0 0 0 -0.170037 0.92033 0.583056 
173 -0.124518 1.91621 1.83533 0.659825 0 0 0 -0.837796 -0.402866 -0.215139 
318 0.349886 1.78872 2.07952 0.534858 0 0 0 -0.89914 0.41373 0.360461 
54 0.430632 1.94053 1.80009 0.502876 0 0 0 -0.876071 0.602275 0.284617 
34 0.259997 2.18275 1.85537 0.577327 0 0 0 -0.275888 0.845132 0.514576 
172 0.165974 2.12749 1.58858 0.58257 0 0 0 -0.604354 0.131482 -0.0734932 
229 1.0813 2.3335 2.53381 0.661715 0 0 0 0.497583 -1.05235 -1.40595 
234 1.04408 1.64646 1.67795 0.345829 0 0 0 0.744572 0.277122 0.13559 
252 1.15749 1.61769 1.62227 0.31815 0 0 0 1.06407 -0.250214 0.524466 
235 1.04831 1.62 1.71022 0.345716 0 0 0 0.625712 0.289057 0.162117 
29 0.843077 1.72177 1.74556 0.396691 0 0 0 -0.259033 0.877984 0.216095 
513 0.660712 1.56777 2.09003 0.460308 0 0 0 -1.20309 0.513729 0.742875 
241 1.06008 1.60521 1.72045 0.343451 0 0 0 0.600349 0.255443 0.20687 
38 0.320528 1.7588 2.27449 0.566245 0 0 0 -0.693156 0.511553 0.471361 
35 0.252093 1.76158 2.40263 0.603922 0 0 0 -0.54398 0.556794 0.510684 
30 0.500226 1.66022 2.12087 0.499526 0 0 0 -1.10781 0.440833 0.496633 
239 -0.586843 2.64441 2.57886 0.974135 0 0 0 -0.577194 0.458324 0.298058 
233 0.904615 1.60661 1.84969 0.386758 0 0 0 -0.39958 0.669494 0.256622 
75 0.829574 1.66227 1.83747 0.403135 0 0 0 -0.564344 0.867712 0.365833 
219 1.50021 1.49439 1.50297 0.251406 0 0 0 -0.118451 0.0579251 0.168381 
167 1.5004 1.49455 1.50258 0.251402 0 0 0 -0.121492 0.0573916 0.171635 
466 1.5002 1.49437 1.503 0.251406 0 0 0 -0.118223 0.0579654 0.168136 
471 1.50021 1.49439 1.50296 0.251406 0 0 0 -0.118495 0.0579173 0.168428 
36 1.50029 1.49445 1.50282 0.251404 0 0 0 -0.11967 0.0577109 0.169686 
278 1.50196 1.4959 1.49935 0.251391 0 0 0 -0.146782 0.053198 0.198353 
37 1.50089 1.49497 1.50157 0.251396 0 0 0 -0.129546 0.0560742 0.18012 
58 1.50159 1.49559 1.5001 0.251391 0 0 0 -0.141037 0.0542036 0.192211 
47 1.0781 1.75571 1.49969 0.343429 0 0 0 1.02026 -0.136317 0.347808 
477 1.50167 1.49566 1.49993 0.251391 0 0 0 -0.142257 0.0539145 0.193621 
355 1.50134 1.49537 1.50062 0.251392 0 0 0 -0.136866 0.0547884 0.187954 
334 1.50104 1.49511 1.50125 0.251394 0 0 0 -0.131962 0.0556015 0.182773 
476 1.50097 1.49505 1.50139 0.251395 0 0 0 -0.13089 0.0557815 0.181637 
179 1.50089 1.49498 1.50157 0.251396 0 0 0 -0.129482 0.056019 0.180144 
222 1.50059 1.49472 1.50218 0.251399 0 0 0 -0.124642 0.0568455 0.174997 
302 1.50066 1.49477 1.50204 0.251398 0 0 0 -0.12573 0.0566585 0.176155 
176 1.50066 1.49478 1.50204 0.251398 0 0 0 -0.12579 0.0566482 0.176219 
225 0.922804 2.39725 3.41234 0.888286 0 0 0 0.373675 0.376983 0.311784 
106 0.302737 2.02714 3.35322 0.857237 0 0 0 0.120769 0.569714 0.780073 
249 -0.498553 2.47087 2.81671 0.959169 0 0 0 -0.536711 0.431532 0.394123 
228 -0.108654 3.23445 3.60256 1.22453 0 0 0 -0.281632 0.494525 0.579473 
254 -0.486113 2.76306 3.51219 1.1744 0 0 0 -0.471153 0.385424 0.584941 
230 0.506969 3.7114 2.9996 1.13778 0 0 0 0.0268999 0.554993 0.264715 
231 0.569899 2.27619 3.57917 0.935084 0 0 0 0.214642 0.457899 0.686139 
242 0.544171 2.40526 3.25162 0.8569 0 0 0 0.388546 0.605916 0.516834 
246 -0.356547 2.01123 3.5201 1.04152 0 0 0 -0.460438 0.227392 0.669542 
464 0.277937 1.66566 2.73314 0.660814 0 0 0 -0.253256 0.600721 0.67339 
205 0.789498 1.62296 3.04756 0.674935 0 0 0 0.588765 0.903082 0.639747 
251 0.368725 3.45846 3.03809 1.07461 0 0 0 0.0473197 0.574811 0.331747 
105 -0.172729 1.52945 3.72935 1.0418 0 0 0 -0.383893 0.0755037 0.777718 
250 0.796412 3.13053 3.3993 1.05192 0 0 0 0.168002 0.346671 0.318542 
244 1.25515 2.37352 3.45388 0.901674 0 0 0 0.225142 0.194153 0.0630227 
240 -0.316572 3.69298 3.4091 1.33893 0 0 0 -0.398576 0.57428 0.443179 
257 3.62636 1.21803 -0.278444 1.02737 0 0 0 0.662297 -0.095927 -0.447612 
441 1.86626 1.15929 0.0293825 0.661003 0 0 0 -0.675406 -0.369688 0.601504 
288 3.6737 0.857924 0.0530762 0.991888 0 0 0 0.717095 -0.235546 -0.334327 
260 3.13229 0.827987 -0.609105 1.0191 0 0 0 0.333843 -0.274306 -0.675074 
261 3.52397 -0.100118 0.154684 1.093 0 0 0 0.50273 -0.634766 -0.33055 
276 2.55309 0.780205 -0.320842 0.838311 0 0 0 -0.251421 -0.566753 -0.547739 
427 2.2287 1.08024 0.208781 0.63271 0 0 0 -0.82243 -0.71399 -0.101836 
285 1.77615 0.218843 -0.031517 0.864556 0 0 0 -0.185629 0.145304 0.517829 
436 2.35116 1.4222 -0.0512594 0.678324 0 0 0 -0.406519 -0.673933 -0.73416 
266 2.66024 0.936354 -0.843414 1.00717 0 0 0 0.0635744 -0.223763 -0.783961 
267 3.03037 0.608861 -0.0398025 0.865178 0 0 0 0.15906 -0.643746 -0.506128 
293 2.10192 1.07615 -0.870516 0.95715 0 0 0 -0.17411 -0.223617 -0.71874 
269 2.55512 0.949703 -0.706874 0.943085 0 0 0 -0.0495114 -0.288844 -0.74355 
270 2.46766 0.61223 -0.432204 0.891624 0 0 0 -0.223508 -0.523979 -0.496716 
271 3.23129 -0.579421 -0.176073 1.23192 0 0 0 0.360716 -0.69275 -0.376329 
272 1.64671 0.823006 0.128483 0.702442 0 0 0 -0.205748 0.701 1.55315 
284 2.04211 0.324124 -0.432476 0.936208 0 0 0 -0.24379 -0.335178 -0.149031 
290 2.38962 -0.69083 -0.214169 1.17656 0 0 0 0.0652745 -0.547431 -0.230044 
291 3.16121 0.33453 -0.492716 1.06554 0 0 0 0.325712 -0.499008 -0.575622 
294 3.06872 0.327596 0.682217 0.794005 0 0 0 0.101737 -0.942252 -0.433136 
23 1.96012 1.40534 1.23483 0.34908 0 0 0 -0.599498 -0.217337 0.0857684 
453 2.93382 0.913309 1.3622 0.60281 0 0 0 0.732855 -0.100543 0.132462 
18 1.90809 1.36094 1.34066 0.333038 0 0 0 -1.2507 0.0127966 0.295317 
298 2.04667 1.34272 1.25147 0.36717 0 0 0 -0.540373 -0.421762 0.0781918 
299 2.91919 0.965589 1.15319 0.60093 0 0 0 0.69581 -0.29397 -0.119124 
451 2.1258 1.28905 1.26588 0.385298 0 0 0 -0.2547 -0.637442 -0.0746476 
301 3.70181 0.535438 1.4268 0.900407 0 0 0 0.879145 -0.217153 0.0446114 
264 2.45149 0.855541 0.620132 0.597319 0 0 0 -0.523697 -0.843216 -0.416923 
445 2.28053 1.21987 1.24788 0.423468 0 0 0 0.555524 -0.751822 -0.307202 
304 2.1973 1.1198 1.14346 0.431075 0 0 0 2.27675 2.7879 2.37316 
41 2.8642 0.991071 0.87229 0.60924 0 0 0 0.493124 -0.669853 -0.497201 
306 1.99421 1.20525 1.4957 0.358721 0 0 0 -1.5516 -0.175465 0.0554651 
307 2.0721 1.0449 1.1927 0.425512 0 0 0 3.78004 7.11522 5.71653 
277 2.64746 1.39934 0.721812 0.548755 0 0 0 0.848684 -0.164864 -0.410669 
309 3.42367 0.409373 1.28612 0.82545 0 0 0 0.705411 -0.507579 -0.108058 
310 2.04762 -0.0092647 1.06794 0.725924 0 0 0 -0.566307 0.412261 0.0785214 
311 2.88347 1.04323 0.925483 0.602772 0 0 0 0.627641 -0.456672 -0.367846 
341 2.75568 1.06759 0.733265 0.594091 0 0 0 0.363333 -0.793524 -0.668165 
432 2.74184 1.44695 0.883124 0.554667 0 0 0 0.86307 0.24932 0.0388607 
161 2.00056 1.43223 1.16426 0.363504 0 0 0 -0.0699137 -0.338737 -0.11707 
182 2.69527 1.32605 0.523288 0.596681 0 0 0 0.459749 -0.519048 -0.622884 
316 2.92723 -0.308174 0.756852 0.924406 0 0 0 0.0547529 -0.866013 -0.307152 
317 3.34936 0.0148041 0.768081 0.924393 0 0 0 0.394658 -0.767689 -0.282412 
275 3.40929 -0.820396 0.709985 1.19499 0 0 0 0.430007 -0.788066 -0.1842 
33 2.6597 0.845103 1.48871 0.537868 0 0 0 0.731299 -0.584694 0.057739 
320 1.86542 0.0375135 0.931891 0.734209 0 0 0 -0.34885 1.04573 0.599289 
72 2.19326 1.16819 1.39319 0.403131 0 0 0 -0.136027 -0.769827 -0.0246932 
265 1.93827 -0.369083 0.732908 0.882172 0 0 0 -0.204942 0.0533093 0.157738 
501 2.42644 1.15685 1.21413 0.460772 0 0 0 0.925177 -0.612793 -0.325992 
56 2.57031 0.703004 0.532533 0.656284 0 0 0 -0.587875 -1.04466 -0.472261 
325 2.33715 1.10414 1.34222 0.440658 0 0 0 0.761477 -0.601052 0.0306603 
287 2.41139 -0.366527 0.555641 0.915701 0 0 0 -0.190799 -0.554716 -0.138686 
327 3.36119 1.24899 1.48976 0.729278 0 0 0 0.602901 0.610953 0.465256 
329 1.95982 0.208848 1.14448 0.655291 0 0 0 -0.514518 1.36124 0.567929 
428 2.78132 0.813922 1.48194 0.571732 0 0 0 0.696752 -0.434537 0.0856966 
31 2.45658 0.720522 0.487638 0.649591 0 0 0 -0.729164 -0.86223 -0.283715 
283 1.78565 0.844185 0.902864 0.529976 0 0 0 2.21294 7.1146 5.72741 
326 2.49869 1.10645 1.22629 0.479722 0 0 0 0.917802 -0.586992 -0.275365 
470 3.20793 1.21786 1.38465 0.675376 0 0 0 0.604978 0.65067 0.479892 
313 2.78303 0.837268 1.4233 0.569368 0 0 0 0.688863 -0.469718 0.030534 
457 1.88297 1.3176 1.42381 0.328059 0 0 0 -1.57505 0.172885 0.325204 
455 2.09928 1.46729 1.04027 0.396734 0 0 0 0.737342 -0.567074 -0.644772 
422 2.35312 1.29627 1.08161 0.446568 0 0 0 1.03428 -0.563811 -0.623521 
456 2.55984 0.341748 1.38464 0.628049 0 0 0 -0.34985 -1.08264 -0.53039 
474 1.85408 1.41999 1.30336 0.322767 0 0 0 -0.756332 0.168366 0.00891513 
300 3.62896 -0.222308 1.47508 1.02441 0 0 0 0.628928 -0.628295 -0.0936682 
478 2.35706 1.45327 0.867217 0.466209 0 0 0 1.20539 -0.344403 -0.812664 
340 1.70264 1.43603 1.41148 0.286354 0 0 0 -0.968758 0.606719 -0.388405 
281 1.70783 0.00683487 0.314204 0.851727 0 0 0 -0.0687052 0.525063 0.736433 
333 2.95212 0.625799 2.57619 0.753144 0 0 0 0.713193 0.398759 0.50232 
323 1.96024 1.06257 1.74773 0.38267 0 0 0 -0.574067 -0.518627 -0.531169 
335 2.66601 0.847264 2.44811 0.64609 0 0 0 0.592479 0.832681 0.530795 
491 1.78688 1.17972 1.70551 0.338071 0 0 0 -0.88033 0.101644 -0.516218 
337 2.05362 -0.94571 1.91696 0.993524 0 0 0 -0.0302157 -0.872233 -0.198416 
338 3.03181 0.240152 2.16305 0.772451 0 0 0 0.621387 -0.400471 0.185041 
339 1.79311 0.243003 1.69179 0.598003 0 0 0 -0.162396 1.31183 -0.0847628 
370 1.65925 -0.976636 2.59511 1.03459 0 0 0 -0.00371361 -0.91397 -0.0049791 
452 2.42607 0.244145 1.74989 0.62461 0 0 0 -0.262875 -1.04636 -0.488992 
295 2.09993 0.574221 2.39618 0.559708 0 0 0 0.422684 -0.554881 0.449847 
296 2.19624 1.05237 1.56909 0.416344 0 0 0 0.0525591 -0.767414 0.00182278 
344 2.37282 0.960813 1.94511 0.49317 0 0 0 0.0947112 -0.747986 -0.194905 
345 3.40707 1.06475 2.12277 0.795705 0 0 0 0.617743 0.513884 0.408961 
346 2.01392 0.960285 1.86444 0.415937 0 0 0 0.212661 -0.860599 0.00211896 
364 1.68475 1.12266 1.87406 0.355485 0 0 0 0.0337702 -0.64346 -0.441437 
348 3.88721 1.46542 2.1892 0.984169 0 0 0 0.623129 0.145078 0.180695 
331 2.11756 0.995958 1.72374 0.41584 0 0 0 0.0796174 -0.764192 -0.0600156 
350 2.3602 -0.0945915 1.61191 0.7192 0 0 0 -0.476429 -0.847094 -0.611051 
351 1.7726 1.23309 1.64011 0.323704 0 0 0 -1.06186 0.264461 -0.192963 
352 2.46184 0.66852 2.26259 0.582329 0 0 0 0.676375 0.057277 0.582597 
363 2.55574 -0.637607 2.03573 0.923294 0 0 0 0.0626221 -0.99318 -0.18939 
45 1.68419 1.14929 1.8349 0.346041 0 0 0 -0.0692355 -0.452212 -0.387863 
365 1.6938 0.222918 2.3901 0.619911 0 0 0 -0.2467 -1.20415 -0.522404 
356 3.26093 1.43478 2.49167 0.819984 0 0 0 0.0772463 0.442802 0.108644 
357 2.16288 1.08652 2.24834 0.502373 0 0 0 -1.19512 -1.26625 -1.3478 
358 2.14802 0.666397 2.60497 0.595295 0 0 0 0.560613 0.181409 0.638805 
359 3.56756 -0.600339 2.21029 1.1353 0 0 0 0.5712 -0.67161 0.0263385 
360 1.95003 0.186209 2.18313 0.617074 0 0 0 -0.299095 -1.06724 -0.548352 
361 2.06206 -0.717419 1.53365 0.916864 0 0 0 -0.16598 -0.667959 -0.288172 
362 2.41713 0.274366 1.96776 0.621367 0 0 0 -0.019618 -1.05118 -0.266809 
460 1.9702 1.14592 1.60674 0.364138 0 0 0 -1.33182 -0.186593 -0.368168 
303 2.32215 1.05426 1.64056 0.44636 0 0 0 -0.243905 -1.64999 -0.782187 
393 1.97008 -0.328906 2.07154 0.770044 0 0 0 -0.341785 -0.895114 -0.523341 
324 2.45376 0.691636 1.98279 0.539925 0 0 0 0.658971 -0.447203 0.399918 
312 3.14154 1.31986 1.96637 0.699456 0 0 0 -0.0355771 0.799516 0.326183 
375 1.7987 0.918478 2.09439 0.426671 0 0 0 0.572728 -1.16242 0.509554 
459 2.65914 0.457171 1.80806 0.61256 0 0 0 0.369613 -0.819294 -0.0486068 
62 1.74291 1.0577 1.92911 0.377704 0 0 0 0.103733 -0.931359 -0.415048 
380 2.33974 0.664182 2.34271 0.573089 0 0 0 0.614363 -0.0093041 0.601003 
485 1.68786 1.16813 1.80446 0.339539 0 0 0 -0.171952 -0.322927 -0.331013 
510 2.07899 0.979148 1.78211 0.41585 0 0 0 0.124334 -0.791771 -0.05536 
497 1.81804 0.609495 2.4823 0.542847 0 0 0 0.301735 -0.771565 0.409489 
347 1.77136 -0.881249 1.97401 0.962729 0 0 0 -0.0895692 -0.786542 -0.247516 
377 3.60722 1.30345 2.56839 0.933676 0 0 0 0.514271 0.272032 0.2389 
314 2.71489 0.746785 1.7233 0.570731 0 0 0 0.739727 -0.292749 0.267061 
388 1.75471 1.18522 1.72429 0.334978 0 0 0 -0.686873 0.0356648 -0.442542 
315 2.63579 0.314025 1.72366 0.638914 0 0 0 0.0537932 -1.04202 -0.326231 
472 2.09292 0.870504 1.94172 0.448089 0 0 0 0.491812 -0.963358 0.346403 
483 1.82858 0.75661 2.34806 0.49368 0 0 0 0.439528 -0.870013 0.607239 
481 2.18418 0.922727 1.7832 0.44124 0 0 0 0.45052 -0.86551 0.161462 
53 1.96944 0.837141 2.09144 0.454924 0 0 0 0.523731 -1.05331 0.546458 
484 1.59689 0.907458 2.25909 0.443742 0 0 0 0.520947 -1.21092 0.880386 
384 3.31989 -0.642169 2.68997 1.13434 0 0 0 0.468079 -0.689844 0.14954 
79 1.6855 1.09274 1.92023 0.366689 0 0 0 0.137861 -0.883492 -0.419674 
492 1.57912 1.14676 1.92413 0.353492 0 0 0 0.285161 -0.824522 -0.0690682 
102 1.57313 0.883429 2.31385 0.456285 0 0 0 0.432963 -1.15595 0.886233 
353 2.07857 1.26352 2.6402 0.588628 0 0 0 -0.784782 0.435479 -1.26495 
462 2.05824 1.16867 1.5 0.374844 0 0 0 -1.12474 -0.441588 -0.00754456 
366 3.1868 0.39456 3.69955 1.1194 0 0 0 0.427865 -0.0589658 0.661268 
89 1.72107 0.843352 2.90212 0.612806 0 0 0 0.333725 0.563323 0.6773 
368 3.28496 -0.26177 3.55746 1.21014 0 0 0 0.427479 -0.424273 0.520489 
369 3.64677 0.246241 3.45703 1.1909 0 0 0 0.608281 -0.163267 0.482328 
378 2.68147 0.577423 2.86986 0.757388 0 0 0 0.589629 0.356545 0.59986 
389 2.14752 0.922794 3.36327 0.790328 0 0 0 0.301183 0.639913 0.697764 
95 1.59937 0.244865 3.84567 0.991721 0 0 0 0.0260058 -0.174658 0.844437 
373 1.65834 -0.0884444 2.8068 0.767129 0 0 0 -0.127077 -0.983975 -0.0238759 
390 2.59698 1.19522 3.71532 0.975792 0 0 0 0.204657 0.334101 0.633334 
86 1.82023 1.15321 3.19896 0.705228 0 0 0 0.238593 0.999345 0.374366 
376 2.3167 1.0375 3.19032 0.75819 0 0 0 0.302559 0.831203 0.474073 
391 3.65085 0.0254075 3.455 1.22491 0 0 0 0.591534 -0.276206 0.462945 
236 1.54662 0.57348 2.76918 0.603725 0 0 0 0.00804047 -0.614122 0.469236 
379 2.28479 0.0644003 2.74732 0.757379 0 0 0 0.197698 -0.71134 0.263065 
392 3.16306 0.164084 2.91473 0.933104 0 0 0 0.561895 -0.181139 0.368116 
381 3.3365 -0.184159 3.45155 1.17625 0 0 0 0.468474 -0.388437 0.486813 
115 1.62184 0.856719 2.99926 0.635534 0 0 0 0.269767 0.5667 0.738462 
386 3.19115 1.2429 3.66152 1.08251 0 0 0 0.343957 0.202019 0.542292 
97 1.83971 0.614678 2.73121 0.599045 0 0 0 0.341801 -0.192333 0.590672 
385 2.36353 -0.0875354 3.34841 0.945008 0 0 0 0.184325 -0.438183 0.551922 
413 2.04561 3.55203 0.256289 0.93759 0 0 0 0.01679 0.82689 0.106735 
396 3.29247 3.22368 0.0353815 1.07479 0 0 0 0.39677 0.490329 -0.151139 
417 1.86394 3.11944 -0.421512 0.938943 0 0 0 0.025978 0.635546 -0.497451 
398 3.25695 2.67493 0.143853 0.921568 0 0 0 0.465746 0.363364 -0.0248149 
418 3.60252 2.06812 -0.031535 0.97993 0 0 0 0.668201 0.103297 -0.267782 
400 3.51105 2.53615 -0.0693546 1.01263 0 0 0 0.566686 0.207841 -0.261325 
420 1.73365 2.37768 -0.458352 0.802554 0 0 0 0.0173926 0.149985 -0.822015 
414 2.021 2.40555 -0.00566847 0.688311 0 0 0 0.194063 0.747626 -0.386265 
416 2.84933 3.42505 -0.151606 1.0695 0 0 0 0.20738 0.613234 -0.261579 
404 3.31269 3.00275 -0.201164 1.07257 0 0 0 0.424792 0.366722 -0.332247 
415 3.39604 3.43406 0.0890932 1.15433 0 0 0 0.40463 0.538806 -0.15142 
322 1.89507 1.81397 -0.137571 0.663459 0 0 0 -0.322268 -0.680414 -0.736613 
407 3.49972 1.68272 -0.386584 1.01346 0 0 0 0.577623 0.0301542 -0.502846 
408 2.0203 1.93863 -0.607169 0.832 0 0 0 -0.0249525 -0.176067 -0.869698 
202 2.56612 1.60662 0.174913 0.644139 0 0 0 0.242836 -0.252866 -0.704199 
410 3.59068 2.9862 -0.00984814 1.11004 0 0 0 0.546415 0.338204 -0.22181 
411 1.93646 3.67858 -0.355085 1.08848 0 0 0 -0.0202915 0.765236 -0.41815 
289 2.40055 1.93837 0.244717 0.61426 0 0 0 0.514155 0.450168 -0.390158 
262 1.74618 2.1512 0.279807 0.555163 0 0 0 0.0127914 0.577711 -0.810603 
12 2.05401 1.71887 0.75806 0.438049 0 0 0 1.01326 -0.0353379 -1.31541 
419 2.13205 2.72408 0.89957 0.661816 0 0 0 -0.342824 -0.253246 0.907392 
406 2.42478 3.61752 0.659936 0.970483 0 0 0 -0.0178847 0.633407 0.325799 
5 1.83386 1.60258 1.06899 0.350516 0 0 0 0.518438 -0.00484373 -0.439305 
282 2.10937 1.7138 0.725221 0.45101 0 0 0 1.02977 -0.00762556 -1.22517 
332 2.94219 1.87249 1.48281 0.658021 0 0 0 -1.34646 0.0501144 0.272379 
273 1.97811 2.02245 0.498359 0.505722 0 0 0 0.41829 0.715759 -0.889846 
465 1.55316 1.80293 1.02061 0.352749 0 0 0 0.42383 0.413233 0.11675 
473 2.46733 1.59649 0.66644 0.518457 0 0 0 0.967359 0.00930847 -0.462043 
431 2.32607 2.05445 0.519978 0.560174 0 0 0 0.724138 0.993839 0.163002 
14 1.55419 1.93328 0.828401 0.40506 0 0 0 0.045243 0.830459 -0.972539 
292 1.85024 1.93214 0.623222 0.458605 0 0 0 0.52038 0.633287 -1.45589 
434 2.75644 2.12253 0.776645 0.640348 0 0 0 0.276029 0.828519 0.976951 
435 2.2755 2.78878 1.36395 0.724164 0 0 0 -1.2836 -1.59748 0.0353557 
449 1.78491 1.65285 1.04033 0.35159 0 0 0 0.620326 0.0967077 -0.44405 
397 2.83484 3.18347 0.751302 0.894629 0 0 0 -0.0118676 0.462724 0.500413 
503 1.69432 1.53291 1.2828 0.296973 0 0 0 0.0872685 0.668225 -1.17522 
439 2.23606 1.68881 0.721631 0.470066 0 0 0 0.997577 -0.149414 -1.01184 
440 3.40613 2.58475 1.18372 0.890001 0 0 0 0.01484 0.225986 0.34153 
321 3.75634 1.95026 1.30416 0.908663 0 0 0 0.522766 0.204483 0.235082 
442 2.01406 1.55506 0.98775 0.389564 0 0 0 0.846819 -0.376461 -0.680741 
280 3.36551 1.9208 0.844511 0.776132 0 0 0 0.563197 0.495339 0.460954 
409 2.06941 2.09255 1.00966 0.487112 0 0 0 -3.00199 -4.83789 -2.50839 
132 1.60203 2.67405 1.23181 0.59777 0 0 0 -0.89655 -2.87783 -0.340618 
412 3.37692 2.95078 0.915978 0.958065 0 0 0 0.18547 0.354265 0.329064 
467 2.39565 1.7078 0.607569 0.518872 0 0 0 0.911763 0.184936 -0.454153 
475 1.63585 1.75674 1.01821 0.351079 0 0 0 0.572216 0.320073 -0.169926 
297 1.88583 2.11884 0.468279 0.516631 0 0 0 0.269673 0.9005 -0.811054 
258 1.88163 2.07848 0.490099 0.505797 0 0 0 0.292783 0.819164 -0.959428 
21 1.95023 1.79309 0.737011 0.433779 0 0 0 0.835085 0.192419 -1.45184 
155 1.57049 2.57307 1.03081 0.556288 0 0 0 -0.930571 -1.97371 -0.346073 
152 1.64318 3.26844 0.896388 0.775453 0 0 0 0.145063 0.320254 0.577034 
330 3.25835 2.11221 1.26291 0.765142 0 0 0 -0.227346 0.346561 0.517388 
50 2.1097 2.01879 0.461303 0.528908 0 0 0 0.523391 0.760796 -0.524211 
11 1.82699 1.65768 0.998597 0.364154 0 0 0 0.726259 0.0561003 -0.479164 
221 3.06292 2.07822 0.892996 0.704356 0 0 0 0.19178 0.67591 0.805536 
74 3.04858 1.89687 0.613133 0.697116 0 0 0 0.733977 0.698635 0.481358 
446 2.36992 1.57697 0.416049 0.551068 0 0 0 0.338449 -0.381167 -0.777627 
395 2.2081 3.17315 0.332802 0.8232 0 0 0 0.0906892 0.789294 0.380096 
259 2.61539 1.55377 0.44753 0.589883 0 0 0 0.615138 -0.134931 -0.484157 
421 3.45212 3.42162 0.546129 1.11866 0 0 0 0.356781 0.514225 0.0955115 
454 1.56661 1.58654 1.31651 0.280867 0 0 0 0.559616 0.530497 -1.02787 
46 1.85723 1.59487 1.06019 0.354938 0 0 0 0.539306 -0.052176 -0.419124 
342 1.94864 1.51664 1.09144 0.362942 0 0 0 0.365714 -0.248131 -0.311588 
468 1.84502 1.61503 1.04263 0.356897 0 0 0 0.605276 -0.0199561 -0.435441 
3 1.71463 1.71188 1.01634 0.352863 0 0 0 0.642146 0.223105 -0.361509 
305 1.96778 2.68474 0.388908 0.661754 0 0 0 0.243371 1.21754 0.507501 
197 2.25482 2.31208 0.348897 0.621997 0 0 0 0.537175 1.21493 0.27888 
405 2.37908 2.74229 0.381565 0.727042 0 0 0 0.265682 0.922405 0.602283 
401 2.75364 3.61331 0.3324 1.03902 0 0 0 0.115535 0.715406 0.107307 
13 1.5531 1.67704 1.20139 0.307971 0 0 0 0.786067 0.492097 -0.793943 
387 2.43195 1.6889 2.17915 0.610141 0 0 0 -3.33209 -1.77683 -2.95704 
482 2.5149 2.75823 2.04881 0.826894 0 0 0 -1.56764 -1.33385 -0.988744 
463 2.97197 2.60117 1.62743 0.818336 0 0 0 -1.0767 -0.446853 -0.0860564 
394 2.6422 1.6578 2.44455 0.691177 0 0 0 -1.51693 -0.0733849 -1.27237 
319 3.26548 1.82335 1.59356 0.744788 0 0 0 -0.412047 0.388333 0.342388 
500 3.11265 2.32838 2.11934 0.848987 0 0 0 -0.956481 -0.383041 -0.424584 
487 2.72998 2.14153 2.33658 0.768572 0 0 0 -1.73811 -0.883095 -1.23831 
502 2.94168 3.1234 2.45848 1.05467 0 0 0 -0.570293 -0.288464 -0.388166 
499 3.04774 2.90836 2.592 1.0427 0 0 0 -0.532255 -0.292098 -0.370334 
429 3.27855 2.24372 1.51449 0.807219 0 0 0 -0.495867 0.082125 0.239967 
504 1.83963 1.98458 2.3037 0.597601 0 0 0 -3.80616 -5.33866 -5.67483 
383 3.18367 1.5004 2.61693 0.827665 0 0 0 -0.0343519 0.389493 0.0164133 
99 1.58531 1.59036 3.49473 0.813435 0 0 0 0.149991 0.619316 0.283841 
382 2.94579 1.66321 3.32611 0.956233 0 0 0 0.0216987 0.231181 0.173938 
374 2.17946 1.70018 3.15937 0.782234 0 0 0 -0.408952 0.359883 -0.575167 
367 2.15103 1.73256 3.16273 0.783982 0 0 0 -0.427376 0.31545 -0.617697 
512 1.68195 3.18105 2.91329 0.986989 0 0 0 -0.181798 -0.379642 -0.491424 
498 3.03601 3.15207 3.07829 1.20085 0 0 0 -0.264322 -0.140574 -0.154738 
508 2.36177 2.26393 2.93279 0.84866 0 0 0 -1.00135 -0.572101 -1.0411 
488 2.7668 3.03525 3.02365 1.10813 0 0 0 -0.447035 -0.241964 -0.294059 
100 1.61345 1.74365 3.65537 0.886139 0 0 0 0.0867496 0.432633 0.364272 
245 1.53524 1.87341 3.55191 0.862725 0 0 0 0.113813 0.405921 0.1748 
ITEM: TIMESTEP
740902
ITEM: NUMBER OF ATOMS
512
ITEM: BOX BOUNDS ss ss ss
-8.1988304040437454e-01 3.8875120101141034e+00
-9.7693552394909078e-01 3.9476017366228966e+00
-9.1281994132074906e-01 3.9096273972560476e+00
ITEM: ATOMS id x y z width_SPH x_COM y_COM z_COM vx vy vz 
263 1.46291 0.886579 -0.255347 0.797053 0 0 0 -0.184413 0.0652901 0.617618 
403 1.47177 1.28214 -0.572761 0.836225 0 0 0 -0.296161 -0.417882 -0.281638 
25 0.482318 0.121023 0.00276575 1.02263 0 0 0 0.431002 0.529148 0.569922 
279 1.31897 1.03444 -0.485001 0.850873 0 0 0 -0.189073 -0.165785 0.106856 
402 1.48864 1.3275 -0.64802 0.856457 0 0 0 -0.281508 -0.409919 -0.42185 
16 0.28396 0.665574 0.148007 0.902207 0 0 0 0.586503 0.592035 0.780338 
8 0.548837 0.851554 0.116502 0.825735 0 0 0 0.734385 0.682642 1.15144 
131 1.20615 1.4082 0.665946 0.51765 0 0 0 4.79944 6.68233 7.3825 
217 -0.458204 1.32447 1.07566 0.827556 0 0 0 -0.140283 -0.412287 -0.139916 
2 -0.191098 0.578911 0.378219 0.976756 0 0 0 0.2694 0.35532 0.381131 
24 0.947287 0.53803 0.655868 0.73205 0 0 0 1.68977 2.78499 2.58744 
129 -0.0272468 1.21936 0.471859 0.809153 0 0 0 0.464866 -0.111334 0.504334 
224 -0.03819 1.2323 1.09789 0.718729 0 0 0 1.00078 -0.0777741 0.267184 
78 0.717453 0.416237 1.44599 0.684322 0 0 0 2.08581 2.94716 0.725707 
67 0.0566691 0.170695 1.35969 0.867436 0 0 0 0.646795 0.692223 0.00582673 
22 1.10959 0.782214 0.476487 0.689906 0 0 0 1.54589 2.71415 3.19734 
125 0.0919131 1.14992 0.334138 0.817639 0 0 0 0.528935 0.0431932 0.639704 
10 0.362719 0.340193 0.337041 0.920797 0 0 0 0.743163 0.865767 0.897088 
68 -0.629251 1.10997 1.49534 0.872297 0 0 0 -0.401539 -0.268312 -0.303205 
116 -0.467654 -0.22483 2.43602 1.06883 0 0 0 -0.510469 -0.413939 -0.0581877 
39 1.33122 1.26247 1.96202 0.349424 0 0 0 -0.248469 -0.393452 0.561637 
57 -0.136592 -0.184235 1.60661 0.978297 0 0 0 0.0862695 0.0850713 -0.196888 
111 1.47854 0.66154 1.94944 0.479332 0 0 0 3.06033 4.58024 2.61034 
59 0.836249 1.31492 2.27395 0.459123 0 0 0 -1.05549 -0.0553418 0.985167 
183 0.484326 1.33661 2.61271 0.586941 0 0 0 -0.675488 -0.0649794 0.479694 
80 1.06799 1.32418 2.08946 0.394885 0 0 0 -0.907559 0.0277103 0.821373 
103 -0.66644 -0.192844 2.21681 1.11079 0 0 0 -0.541746 -0.319404 -0.0821423 
63 -0.481042 0.335769 1.67077 0.939104 0 0 0 -0.201809 0.0269431 -0.274256 
64 0.692245 1.25095 1.95537 0.468155 0 0 0 1.81296 3.52197 2.44696 
65 1.41229 1.12564 2.09166 0.384749 0 0 0 0.113623 -1.07884 0.468894 
66 0.536313 -0.153308 1.5622 0.845281 0 0 0 0.649402 0.68361 -0.164188 
27 1.41507 1.3286 1.8037 0.309622 0 0 0 -0.411869 -0.394443 1.39305 
343 1.489 1.48456 1.52633 0.252367 0 0 0 0.062043 0.0889874 -0.0237132 
69 0.578524 1.29327 2.42892 0.533069 0 0 0 -0.970111 -0.283446 0.404244 
82 0.155981 0.760107 1.61801 0.699979 0 0 0 1.16216 0.799942 -0.325323 
71 0.319315 -0.0268703 1.59759 0.843497 0 0 0 0.61818 0.613285 -0.223045 
509 1.47934 1.47659 1.54574 0.254226 0 0 0 0.182484 0.0865923 -0.118285 
226 0.739734 1.28996 2.43123 0.504115 0 0 0 -0.860429 -0.174967 0.698027 
511 1.41956 1.17053 2.0196 0.366041 0 0 0 0.0940962 -0.909388 0.296977 
118 0.968943 0.167107 2.50853 0.690233 0 0 0 -0.380081 -0.897086 -0.669375 
26 1.04233 1.47276 1.9123 0.366372 0 0 0 -0.426136 0.304989 0.34784 
77 0.568466 0.474344 2.2866 0.658592 0 0 0 -0.193303 -0.487517 -0.883482 
92 0.62797 -0.707365 2.33072 0.983497 0 0 0 -0.0562677 -0.633953 -0.23183 
107 0.249775 0.44264 2.19696 0.724248 0 0 0 -0.0885114 -0.275279 -0.803401 
122 1.04948 0.384909 2.37968 0.613125 0 0 0 -0.286963 -0.858489 -0.736294 
94 1.1831 0.612678 2.42577 0.54558 0 0 0 -0.172908 -1.01247 -0.0156815 
247 0.952675 1.10214 2.48172 0.497483 0 0 0 -0.61202 -0.522943 0.847436 
73 1.44161 0.794441 2.54927 0.516402 0 0 0 0.0604986 -0.77863 0.685211 
87 0.75602 0.283341 2.07375 0.669737 0 0 0 0.352304 0.328701 -0.886051 
84 -0.667094 1.05545 2.40897 0.902823 0 0 0 -0.847689 -0.267148 -0.18099 
507 1.18215 1.1312 2.24888 0.425766 0 0 0 -0.485917 -0.575641 1.2414 
169 1.39493 0.991811 2.28372 0.436522 0 0 0 0.175153 -1.07746 1.11103 
85 0.770572 -0.606561 1.99598 0.927261 0 0 0 0.0904846 -0.341413 -0.356414 
371 1.36018 0.868798 2.51443 0.500144 0 0 0 -0.0252715 -0.821048 0.80625 
448 0.609013 1.28905 1.89854 0.483835 0 0 0 1.71752 3.16738 1.99165 
328 0.993101 0.774301 2.21875 0.511075 0 0 0 0.604162 0.591927 0.631536 
112 0.973466 1.266 2.22438 0.433455 0 0 0 -0.947596 -0.0536035 1.197 
40 0.542482 1.29074 2.4296 0.540916 0 0 0 -0.994582 -0.331567 0.322575 
496 1.48485 1.48105 1.5348 0.253068 0 0 0 0.119681 0.0926544 -0.0759596 
42 1.22246 1.29781 2.00115 0.362848 0 0 0 -0.557497 -0.189269 0.500923 
237 1.11561 1.25583 2.14124 0.402218 0 0 0 -0.810627 -0.184029 0.983641 
494 1.38749 1.19012 2.01749 0.364345 0 0 0 -0.0151597 -0.801886 0.357064 
181 0.316513 1.14154 2.56083 0.627433 0 0 0 -0.957876 -0.732027 -0.0854555 
81 -0.121092 -0.621638 2.09638 1.08733 0 0 0 -0.19701 -0.422681 -0.13128 
83 1.18469 -0.506675 2.52988 0.870692 0 0 0 -0.142367 -0.821274 -0.309904 
232 0.998013 1.01241 2.54916 0.515981 0 0 0 -0.467559 -0.616725 0.77117 
93 -0.508145 0.844913 2.02971 0.85166 0 0 0 -0.54056 -0.298773 -0.444184 
61 1.51202 0.359911 1.94817 0.566538 0 0 0 0.589469 1.3973 -0.113267 
349 1.50386 -0.381653 1.57127 0.808645 0 0 0 -0.129211 0.234037 -0.291409 
253 1.16406 1.08586 2.39569 0.460846 0 0 0 -0.611625 -0.907185 0.937647 
193 -0.72752 1.42164 1.5528 0.877432 0 0 0 -0.696381 -0.372892 -0.303503 
506 1.46209 1.27675 1.8387 0.320014 0 0 0 -0.221497 -0.637831 0.942348 
44 -0.248198 1.37176 1.89732 0.71293 0 0 0 -0.599185 -0.717581 -0.652012 
32 1.23784 1.37168 1.88978 0.336996 0 0 0 -0.418299 -0.0106359 0.780082 
493 1.20602 1.42553 1.84333 0.331295 0 0 0 -0.251815 0.0106126 0.833405 
9 1.40198 1.32545 1.82111 0.313662 0 0 0 -0.524549 -0.595572 1.18522 
218 1.31593 1.40023 1.78916 0.309638 0 0 0 -0.538551 -0.471025 1.28585 
200 -0.243762 1.45155 1.90838 0.706227 0 0 0 -0.690029 -0.73585 -0.614231 
486 1.31685 1.26322 1.98198 0.354054 0 0 0 0.426792 0.781377 1.35222 
98 0.192048 0.505976 2.67418 0.76268 0 0 0 -0.547809 -0.679273 -0.319384 
113 1.36474 -0.767745 2.84603 0.993315 0 0 0 -0.0519067 -0.877636 0.0551803 
114 -0.662809 0.667395 3.0988 1.04669 0 0 0 -0.73035 -0.20807 0.292164 
108 0.827867 -0.375039 3.19939 0.967026 0 0 0 -0.179651 -0.68332 0.269371 
163 0.568727 0.925259 2.79803 0.645964 0 0 0 -0.629009 -0.714702 0.303415 
60 0.824455 1.36371 3.15256 0.691631 0 0 0 0.333291 0.629396 0.835942 
117 0.983525 0.1179 3.7019 0.978816 0 0 0 -0.129092 -0.308784 0.718562 
51 0.407869 1.42256 2.78811 0.642069 0 0 0 -0.346638 0.249814 0.65677 
88 1.42973 0.538919 3.62919 0.869874 0 0 0 0.00639159 0.0152709 0.894956 
109 -0.521001 -0.19516 3.25587 1.19581 0 0 0 -0.575247 -0.438259 0.393267 
90 -0.819585 0.596008 2.78624 1.05283 0 0 0 -0.798732 -0.216509 0.11203 
91 0.794654 1.1685 3.90933 0.962239 0 0 0 -0.00640092 0.133372 0.951555 
227 1.33614 1.35544 2.76355 0.562287 0 0 0 -0.0936387 0.239728 -0.637898 
438 0.692841 1.45413 3.02107 0.665646 0 0 0 0.310265 0.681384 0.83189 
119 0.719815 0.0526637 3.43823 0.932507 0 0 0 -0.23006 -0.438123 0.511982 
430 1.20337 0.667939 2.80486 0.606691 0 0 0 -0.284842 -0.688798 0.485 
96 1.21336 -0.443178 3.49593 1.03711 0 0 0 -0.0580861 -0.627555 0.498015 
121 -0.478873 0.852548 3.15732 0.981828 0 0 0 -0.686137 -0.196806 0.337566 
110 0.000532796 -0.178562 2.91004 0.989029 0 0 0 -0.415654 -0.545736 0.0950905 
120 -0.757137 1.33216 2.86286 0.982954 0 0 0 -0.855562 -0.0638486 0.192643 
104 0.101182 -0.598297 3.21263 1.14763 0 0 0 -0.345984 -0.64243 0.341689 
101 0.53735 0.503484 3.11842 0.786335 0 0 0 -0.405485 -0.525511 0.336964 
238 1.23271 1.23412 2.83498 0.574661 0 0 0 0.1822 0.586683 0.304329 
123 -0.316977 2.86792 -0.691694 1.18976 0 0 0 -0.540368 0.329795 -0.659839 
159 0.397834 3.05213 -0.625375 1.0548 0 0 0 -0.285741 0.503089 -0.690801 
142 1.18785 3.80508 -0.0596129 1.0579 0 0 0 -0.106364 0.892023 -0.316711 
126 -0.541264 3.21741 0.184414 1.10843 0 0 0 -0.645002 0.551747 -0.319707 
127 0.805514 2.06304 -0.832071 0.949849 0 0 0 -0.270578 -0.262301 -0.886224 
158 0.89648 2.14782 -0.502446 0.825347 0 0 0 -0.343773 -0.410893 -0.874108 
143 -0.162416 2.51389 -0.788977 1.13561 0 0 0 -0.507504 0.116803 -0.735208 
149 1.11664 2.1868 -0.912522 0.958563 0 0 0 -0.152845 -0.115956 -0.939915 
151 1.36321 3.3662 0.288897 0.844519 0 0 0 0.0302136 0.959235 0.0450116 
274 1.33477 2.01646 -0.0267966 0.636667 0 0 0 -0.36698 -0.743687 -0.663939 
157 0.0134459 1.64301 0.128942 0.821067 0 0 0 -0.211191 -0.666855 -0.103428 
156 -0.609018 1.93331 -0.650117 1.19061 0 0 0 -0.599186 -0.0660178 -0.549879 
130 0.98618 2.15088 0.267702 0.59301 0 0 0 -0.525013 -0.340066 -0.635111 
148 0.698617 1.49459 -0.232561 0.791589 0 0 0 -0.0750871 -0.610827 0.0773722 
137 -0.708148 2.86987 0.246404 1.07807 0 0 0 -0.787254 0.323154 -0.310892 
138 0.424981 2.62752 -0.593767 0.963026 0 0 0 -0.356624 0.182129 -0.803871 
141 0.160037 1.99701 -0.415247 0.914393 0 0 0 -0.476602 -0.434299 -0.672683 
140 0.862152 2.60214 -0.80907 0.979752 0 0 0 -0.192287 0.196983 -0.875645 
443 1.31898 2.08521 0.116088 0.599072 0 0 0 -0.363283 -0.428126 -0.737907 
444 1.48155 2.2398 0.0627957 0.620897 0 0 0 -0.259573 0.134184 -0.787113 
136 1.03226 1.89171 0.221509 0.597168 0 0 0 -0.149077 -0.793344 0.0686025 
268 1.46276 2.00808 0.113344 0.589756 0 0 0 -0.280066 -0.513111 -0.711884 
146 0.824181 2.05115 0.253748 0.61559 0 0 0 -0.45128 -0.790368 -0.379477 
180 0.816329 2.50704 0.789627 0.565307 0 0 0 -0.422133 1.23144 -0.299285 
190 0.821826 3.29159 1.17401 0.77367 0 0 0 0.338221 0.7514 0.367125 
178 -0.546725 3.0854 1.13917 0.974055 0 0 0 -0.64605 0.581698 -0.0204907 
220 0.899103 2.23261 1.45459 0.460917 0 0 0 -1.92841 -2.5737 -1.96308 
189 1.01703 2.26102 0.814605 0.487545 0 0 0 -0.947834 1.11269 -0.606451 
165 1.04881 2.30436 0.745477 0.502528 0 0 0 -0.824793 1.15663 -0.661889 
128 1.38576 3.34334 1.2518 0.793523 0 0 0 0.238334 -0.0104513 0.379244 
185 0.700683 3.36966 1.30718 0.807794 0 0 0 0.306433 0.749879 0.317365 
168 0.77937 2.05423 1.00594 0.471615 0 0 0 -0.205986 1.53664 0.706608 
186 -0.767686 1.72337 0.481585 0.983525 0 0 0 -0.740695 -0.285037 -0.211646 
170 0.556751 2.28227 0.547189 0.609202 0 0 0 -0.639533 -0.127128 -0.555103 
171 0.284593 3.56151 0.915819 0.929531 0 0 0 -0.12412 0.92202 0.0251734 
175 -0.673978 2.64647 1.34235 0.92231 0 0 0 -0.838192 0.28563 -0.0589441 
124 0.946529 2.13443 1.03011 0.448054 0 0 0 -1.034 1.02043 -0.156168 
187 -0.341963 2.06188 0.381163 0.853127 0 0 0 -0.732703 -0.502043 -0.361241 
134 1.44029 2.99974 0.715252 0.686522 0 0 0 0.237599 0.772284 0.575613 
198 1.10455 2.48529 1.3249 0.519705 0 0 0 -1.07291 -2.52533 -1.23731 
426 1.5256 1.80969 1.03414 0.350826 0 0 0 0.374695 0.399593 0.236823 
147 1.22189 1.92071 1.15986 0.365564 0 0 0 -0.681519 -0.612116 0.428175 
133 1.0445 2.31189 0.324253 0.588097 0 0 0 -0.518703 0.365651 -0.734337 
188 0.398839 2.22613 0.467438 0.652188 0 0 0 -0.608997 -0.528003 -0.525462 
20 1.40119 1.64926 1.36986 0.284346 0 0 0 1.58829 -0.491267 -0.209947 
216 -0.0737701 2.3515 1.33667 0.682754 0 0 0 -0.676907 0.16302 -0.232994 
206 -0.717426 1.91109 1.19379 0.879567 0 0 0 -0.880971 -0.367047 -0.250334 
154 -0.280082 3.20779 0.526568 0.978395 0 0 0 -0.533225 0.672519 -0.188917 
144 1.30248 2.01086 0.912945 0.407613 0 0 0 -0.67305 1.05398 -0.238637 
423 1.18174 2.03442 0.977319 0.411236 0 0 0 -0.851671 1.06095 0.0833266 
135 -0.226246 3.12138 0.410255 0.958206 0 0 0 -0.535696 0.632125 -0.247145 
192 0.529702 2.18855 0.465843 0.623391 0 0 0 -0.590091 -0.541567 -0.501854 
194 0.171588 2.21543 0.651676 0.670487 0 0 0 -0.636187 -0.568251 -0.480131 
196 0.990075 2.89058 1.10308 0.640599 0 0 0 0.388178 0.633302 0.41903 
203 0.532333 2.55461 0.541057 0.65519 0 0 0 -0.46116 0.623928 -0.448615 
150 1.41054 1.88547 0.988705 0.370978 0 0 0 2.87876 5.47325 3.79804 
214 -0.0711003 1.80497 0.791842 0.711166 0 0 0 -0.190372 -1.00773 -0.172963 
425 1.42104 1.95117 0.905409 0.394386 0 0 0 -0.268542 0.944101 -0.302512 
48 0.228432 2.29404 0.623429 0.667387 0 0 0 -0.652924 -0.340573 -0.509612 
162 1.52739 1.51565 1.44982 0.254792 0 0 0 -0.40039 0.11366 0.320345 
177 0.870221 1.99605 1.31464 0.416623 0 0 0 -0.428377 0.917031 0.359075 
139 0.901011 3.9473 0.7486 1.0206 0 0 0 -0.0239525 0.908772 -0.0296572 
461 1.38948 1.75363 1.23162 0.316837 0 0 0 0.789031 0.0387916 0.354074 
210 0.26162 2.176 0.847571 0.615996 0 0 0 -0.594718 -0.510627 -0.434905 
480 1.02344 2.02372 1.13292 0.409865 0 0 0 -0.664439 0.947413 0.473187 
28 1.05075 1.83854 1.40399 0.360319 0 0 0 0.745173 0.122661 0.746583 
489 0.558862 2.27472 1.21428 0.519889 0 0 0 -0.640217 0.853631 -0.177988 
4 1.22243 1.72085 1.42291 0.315217 0 0 0 1.31367 -0.333614 0.539498 
19 1.14084 2.47425 0.4288 0.585354 0 0 0 -0.345487 1.10188 -0.529139 
336 0.479592 2.37428 1.18931 0.555282 0 0 0 -0.452059 0.940838 -0.147875 
469 1.04051 2.0173 1.12835 0.406965 0 0 0 -0.641989 0.936025 0.52029 
308 0.4172 2.38388 1.20765 0.568904 0 0 0 -0.42211 0.883028 -0.144399 
15 1.22459 1.8628 1.21611 0.350382 0 0 0 0.329903 0.10961 1.24268 
424 1.33272 2.62682 0.39719 0.618364 0 0 0 -0.0725575 1.29745 -0.162156 
7 1.3725 2.12813 0.709282 0.457154 0 0 0 -0.584569 1.11291 -1.16724 
174 1.29679 1.80757 1.23497 0.33218 0 0 0 0.573575 -0.124873 0.947081 
6 1.09485 1.81937 1.39358 0.350539 0 0 0 0.885864 -0.0217255 0.82074 
458 0.509361 2.15863 1.40969 0.503687 0 0 0 -0.692847 0.732893 -0.055625 
433 1.53014 1.83935 0.985041 0.363362 0 0 0 0.31801 0.587864 0.0928847 
437 1.4675 2.04175 0.748717 0.434915 0 0 0 -0.337009 1.01697 -1.2326 
153 1.27972 1.81894 1.23332 0.335819 0 0 0 0.53194 -0.101068 1.03914 
286 1.48251 2.02988 0.75339 0.432205 0 0 0 -0.289589 0.996403 -1.23893 
195 0.960329 1.93964 1.32812 0.392721 0 0 0 -0.00443987 0.66968 0.654049 
399 1.51635 1.93623 0.866655 0.397928 0 0 0 -0.430207 0.218407 -1.13977 
354 0.503423 2.10104 1.49637 0.495889 0 0 0 -0.74114 0.714536 0.020332 
372 1.50625 1.49957 1.49052 0.251512 0 0 0 -0.213123 0.0451061 0.26429 
164 0.232476 1.81997 1.47903 0.55541 0 0 0 -0.187232 -0.251002 -0.150808 
17 1.50459 1.49817 1.49391 0.25144 0 0 0 -0.188204 0.0475287 0.240404 
52 0.953882 1.86576 1.44846 0.38025 0 0 0 0.395305 0.462949 0.490599 
145 0.944093 3.68322 0.319781 0.962023 0 0 0 -0.069744 0.942575 -0.13654 
256 0.558359 2.11603 1.73864 0.496379 0 0 0 -0.760267 0.519668 0.0905012 
495 1.04309 1.64387 1.68228 0.346148 0 0 0 0.726133 0.284228 0.134057 
248 0.868791 1.56289 1.93385 0.401679 0 0 0 -0.734328 0.724794 0.574593 
43 0.148922 2.31438 1.81883 0.623839 0 0 0 -0.18695 0.906581 0.49133 
76 0.906807 1.57911 1.88405 0.389077 0 0 0 -0.518318 0.646501 0.347098 
450 0.854484 1.64816 1.83468 0.397153 0 0 0 -0.471715 0.832947 0.328212 
166 1.19151 3.39112 1.71318 0.833436 0 0 0 0.311564 -0.187274 0.084787 
70 0.975124 2.32047 2.30293 0.608765 0 0 0 0.374829 -1.55691 -1.46653 
199 -0.163988 2.48212 2.51654 0.815891 0 0 0 -0.221992 0.751751 0.499408 
223 -0.313707 3.51998 2.20262 1.0656 0 0 0 -0.343014 0.73076 0.185283 
201 -0.0322991 3.01378 1.68138 0.815636 0 0 0 -0.0813039 0.978498 0.267408 
243 0.900444 2.03174 2.39424 0.562187 0 0 0 0.103004 -1.11847 -1.35641 
191 0.401998 2.14626 2.61254 0.667707 0 0 0 0.537553 1.16207 0.686793 
204 0.494254 3.83158 2.13436 1.03917 0 0 0 0.0831288 0.663327 0.133733 
49 0.769423 1.87245 1.59107 0.417369 0 0 0 -0.388143 1.00502 0.29492 
160 0.914951 1.82327 1.54462 0.382718 0 0 0 0.276042 0.470467 0.187773 
207 0.786899 2.75747 2.50756 0.754782 0 0 0 0.726068 0.142233 -0.116931 
208 1.03099 2.39117 1.63949 0.518118 0 0 0 -1.29615 -4.1566 -2.32179 
209 0.529464 2.20088 1.58261 0.507844 0 0 0 -0.583258 0.778378 0.088306 
447 0.197363 2.26424 2.14672 0.639118 0 0 0 0.08576 1.11291 0.777251 
211 0.711169 3.69217 1.79547 0.943616 0 0 0 0.228613 0.561465 0.15218 
212 0.655025 3.2858 1.83325 0.812308 0 0 0 0.469016 0.508433 0.273215 
213 0.0678192 3.47689 2.25792 0.980737 0 0 0 -0.0321105 0.748326 0.229364 
490 1.46127 1.49806 1.53103 0.253856 0 0 0 1.29294 -0.711756 0.128786 
215 0.794992 3.88391 2.27497 1.06152 0 0 0 0.148997 0.50277 0.0716724 
184 1.50041 1.49456 1.50257 0.251402 0 0 0 -0.121627 0.0573699 0.171778 
55 0.266695 2.26504 1.5319 0.574506 0 0 0 -0.404464 0.671165 0.0856253 
505 0.361129 1.60465 2.26191 0.548758 0 0 0 -0.983799 0.18062 0.294884 
255 1.2108 2.61051 2.17653 0.668972 0 0 0 0.0490719 -2.31911 -1.57538 
479 0.016847 2.3686 2.04037 0.686483 0 0 0 -0.170034 0.920331 0.583058 
173 -0.124519 1.91621 1.83533 0.659825 0 0 0 -0.837793 -0.402869 -0.215141 
318 0.349885 1.78872 2.07952 0.534858 0 0 0 -0.899132 0.413729 0.36046 
54 0.430631 1.94053 1.80009 0.502876 0 0 0 -0.876061 0.602273 0.284618 
34 0.259997 2.18275 1.85537 0.577327 0 0 0 -0.275884 0.845134 0.514579 
172 0.165974 2.12749 1.58858 0.58257 0 0 0 -0.604351 0.131478 -0.0734938 
229 1.0813 2.3335 2.53381 0.661714 0 0 0 0.497578 -1.05236 -1.40595 
234 1.04408 1.64646 1.67795 0.345829 0 0 0 0.74459 0.277125 0.135607 
252 1.15749 1.61768 1.62227 0.31815 0 0 0 1.06406 -0.250224 0.524477 
235 1.04832 1.62 1.71022 0.345716 0 0 0 0.625732 0.289061 0.162135 
29 0.843077 1.72177 1.74556 0.396692 0 0 0 -0.259019 0.877977 0.216097 
513 0.66071 1.56777 2.09003 0.460308 0 0 0 -1.20308 0.513729 0.742872 
241 1.06009 1.60521 1.72045 0.343451 0 0 0 0.600369 0.255447 0.206889 
38 0.320527 1.7588 2.27449 0.566245 0 0 0 -0.69315 0.511554 0.471362 
35 0.252092 1.76159 2.40263 0.603923 0 0 0 -0.543976 0.556795 0.510686 
30 0.500225 1.66022 2.12087 0.499527 0 0 0 -1.1078 0.440832 0.496631 
239 -0.586844 2.64441 2.57886 0.974135 0 0 0 -0.577192 0.458324 0.298058 
233 0.904615 1.60662 1.8497 0.386758 0 0 0 -0.399559 0.669494 0.256626 
75 0.829574 1.66227 1.83747 0.403135 0 0 0 -0.564331 0.867701 0.36583 
219 1.50021 1.49439 1.50297 0.251406 0 0 0 -0.118448 0.0579275 0.168376 
167 1.5004 1.49455 1.50258 0.251402 0 0 0 -0.121489 0.057394 0.17163 
466 1.5002 1.49437 1.503 0.251406 0 0 0 -0.11822 0.0579678 0.168131 
471 1.50021 1.49439 1.50297 0.251406 0 0 0 -0.118492 0.0579198 0.168422 
36 1.50029 1.49445 1.50282 0.251404 0 0 0 -0.119667 0.0577133 0.169681 
278 1.50196 1.4959 1.49935 0.251391 0 0 0 -0.146779 0.0531999 0.198348 
37 1.50089 1.49497 1.50157 0.251396 0 0 0 -0.129543 0.0560764 0.180115 
58 1.50159 1.49559 1.5001 0.251391 0 0 0 -0.141033 0.0542056 0.192206 
47 1.0781 1.75571 1.49969 0.343429 0 0 0 1.02027 -0.136315 0.347806 
477 1.50167 1.49566 1.49993 0.251391 0 0 0 -0.142253 0.0539165 0.193615 
355 1.50134 1.49537 1.50062 0.251392 0 0 0 -0.136863 0.0547905 0.187949 
334 1.50104 1.49511 1.50125 0.251394 0 0 0 -0.131959 0.0556037 0.182768 
476 1.50097 1.49505 1.50139 0.251395 0 0 0 -0.130887 0.0557837 0.181632 
179 1.50089 1.49498 1.50157 0.251396 0 0 0 -0.129479 0.0560213 0.180139 
222 1.50059 1.49472 1.50218 0.251399 0 0 0 -0.124639 0.0568479 0.174992 
302 1.50066 1.49477 1.50204 0.251398 0 0 0 -0.125727 0.0566608 0.17615 
176 1.50066 1.49478 1.50204 0.251398 0 0 0 -0.125787 0.0566505 0.176214 
225 0.922804 2.39725 3.41234 0.888286 0 0 0 0.373675 0.376986 0.311785 
106 0.302737 2.02714 3.35322 0.857237 0 0 0 0.12077 0.569714 0.780074 
249 -0.498554 2.47087 2.81671 0.959169 0 0 0 -0.536709 0.431532 0.394123 
228 -0.108654 3.23445 3.60257 1.22453 0 0 0 -0.281631 0.494526 0.579474 
254 -0.486114 2.76307 3.51219 1.1744 0 0 0 -0.471152 0.385425 0.584941 
230 0.506969 3.7114 2.9996 1.13779 0 0 0 0.0269003 0.554995 0.264716 
231 0.5699 2.27619 3.57917 0.935085 0 0 0 0.214643 0.457901 0.68614 
242 0.544171 2.40526 3.25163 0.8569 0 0 0 0.388546 0.605918 0.516835 
246 -0.356547 2.01123 3.5201 1.04152 0 0 0 -0.460437 0.227392 0.669542 
464 0.277937 1.66566 2.73314 0.660814 0 0 0 -0.253252 0.600722 0.673392 
205 0.789499 1.62296 3.04756 0.674935 0 0 0 0.588768 0.903085 0.639748 
251 0.368725 3.45846 3.03809 1.07461 0 0 0 0.0473204 0.574813 0.331749 
105 -0.172729 1.52945 3.72935 1.0418 0 0 0 -0.383892 0.0755037 0.777718 
250 0.796412 3.13053 3.3993 1.05192 0 0 0 0.168002 0.346673 0.318543 
244 1.25515 2.37352 3.45388 0.901674 0 0 0 0.225142 0.194156 0.0630234 
240 -0.316573 3.69298 3.4091 1.33893 0 0 0 -0.398575 0.574281 0.44318 
257 3.62636 1.21803 -0.278444 1.02737 0 0 0 0.662296 -0.095928 -0.447612 
441 1.86626 1.15929 0.0293831 0.661003 0 0 0 -0.675404 -0.369687 0.601509 
288 3.6737 0.857924 0.0530759 0.991889 0 0 0 0.717094 -0.235546 -0.334328 
260 3.13229 0.827987 -0.609106 1.0191 0 0 0 0.333843 -0.274307 -0.675074 
261 3.52397 -0.100118 0.154684 1.093 0 0 0 0.50273 -0.634767 -0.330551 
276 2.55309 0.780204 -0.320842 0.838312 0 0 0 -0.251421 -0.566753 -0.547738 
427 2.22869 1.08024 0.208781 0.63271 0 0 0 -0.822429 -0.71399 -0.101832 
285 1.77615 0.218843 -0.0315164 0.864556 0 0 0 -0.185627 0.145304 0.51783 
436 2.35116 1.4222 -0.0512602 0.678324 0 0 0 -0.406521 -0.673935 -0.734159 
266 2.66024 0.936353 -0.843415 1.00717 0 0 0 0.0635744 -0.223764 -0.78396 
267 3.03037 0.60886 -0.039803 0.865178 0 0 0 0.15906 -0.643747 -0.506129 
293 2.10192 1.07615 -0.870517 0.95715 0 0 0 -0.17411 -0.223618 -0.718739 
269 2.55512 0.949703 -0.706875 0.943086 0 0 0 -0.0495115 -0.288845 -0.74355 
270 2.46766 0.612229 -0.432205 0.891625 0 0 0 -0.223508 -0.52398 -0.496716 
271 3.23129 -0.579422 -0.176074 1.23192 0 0 0 0.360716 -0.69275 -0.37633 
272 1.64671 0.823007 0.128485 0.702442 0 0 0 -0.205744 0.701004 1.55316 
284 2.04211 0.324124 -0.432476 0.936208 0 0 0 -0.243789 -0.335179 -0.149031 
290 2.38962 -0.69083 -0.21417 1.17656 0 0 0 0.0652753 -0.547432 -0.230044 
291 3.16121 0.334529 -0.492716 1.06554 0 0 0 0.325712 -0.499009 -0.575623 
294 3.06872 0.327595 0.682216 0.794005 0 0 0 0.101737 -0.942253 -0.433137 
23 1.96012 1.40534 1.23483 0.34908 0 0 0 -0.599506 -0.21732 0.085769 
453 2.93382 0.913309 1.3622 0.60281 0 0 0 0.732854 -0.100545 0.132461 
18 1.90809 1.36094 1.34066 0.333038 0 0 0 -1.2507 0.0128266 0.295325 
298 2.04667 1.34272 1.25147 0.36717 0 0 0 -0.540377 -0.421749 0.078192 
299 2.9192 0.965588 1.15319 0.600931 0 0 0 0.69581 -0.293973 -0.119126 
451 2.1258 1.28905 1.26587 0.385298 0 0 0 -0.254699 -0.637434 -0.0746493 
301 3.70181 0.535438 1.4268 0.900407 0 0 0 0.879144 -0.217155 0.0446103 
264 2.45149 0.855541 0.620132 0.597319 0 0 0 -0.523696 -0.843216 -0.416922 
445 2.28053 1.21987 1.24788 0.423468 0 0 0 0.555523 -0.751828 -0.307211 
304 2.1973 1.11981 1.14346 0.431075 0 0 0 2.27674 2.78781 2.37309 
41 2.8642 0.99107 0.872289 0.609241 0 0 0 0.493123 -0.669857 -0.497204 
306 1.99421 1.20525 1.4957 0.358721 0 0 0 -1.5516 -0.175443 0.0554759 
307 2.0721 1.04491 1.19271 0.425509 0 0 0 3.78007 7.11514 5.71647 
277 2.64746 1.39934 0.721812 0.548755 0 0 0 0.848681 -0.164867 -0.41067 
309 3.42367 0.409373 1.28612 0.825451 0 0 0 0.705411 -0.50758 -0.10806 
310 2.04762 -0.00926429 1.06794 0.725923 0 0 0 -0.566305 0.412262 0.0785197 
311 2.88347 1.04323 0.925483 0.602772 0 0 0 0.62764 -0.456675 -0.367849 
341 2.75568 1.06759 0.733265 0.594091 0 0 0 0.363332 -0.793528 -0.668168 
432 2.74184 1.44695 0.883124 0.554667 0 0 0 0.863066 0.249319 0.0388615 
161 2.00056 1.43223 1.16426 0.363504 0 0 0 -0.0699208 -0.338726 -0.117073 
182 2.69527 1.32605 0.523288 0.596682 0 0 0 0.459746 -0.519052 -0.622885 
316 2.92723 -0.308175 0.756851 0.924406 0 0 0 0.0547538 -0.866014 -0.307153 
317 3.34936 0.0148033 0.768081 0.924393 0 0 0 0.394659 -0.76769 -0.282413 
275 3.40929 -0.820397 0.709985 1.19499 0 0 0 0.430008 -0.788067 -0.184201 
33 2.6597 0.845102 1.48871 0.537868 0 0 0 0.731297 -0.584698 0.0577353 
320 1.86542 0.0375146 0.931891 0.734208 0 0 0 -0.348846 1.04573 0.599289 
72 2.19326 1.16819 1.39319 0.403131 0 0 0 -0.136028 -0.769833 -0.0246998 
265 1.93826 -0.369083 0.732908 0.882172 0 0 0 -0.20494 0.0533085 0.157737 
501 2.42644 1.15685 1.21413 0.460772 0 0 0 0.925173 -0.6128 -0.326 
56 2.57031 0.703003 0.532533 0.656284 0 0 0 -0.587875 -1.04466 -0.47226 
325 2.33715 1.10414 1.34222 0.440658 0 0 0 0.761472 -0.601065 0.0306479 
287 2.41139 -0.366528 0.555641 0.915701 0 0 0 -0.190798 -0.554717 -0.138687 
327 3.36119 1.24899 1.48976 0.729278 0 0 0 0.602898 0.610951 0.465255 
329 1.95982 0.208849 1.14448 0.655291 0 0 0 -0.514511 1.36125 0.56793 
428 2.78132 0.813922 1.48194 0.571733 0 0 0 0.696751 -0.43454 0.085694 
31 2.45658 0.720521 0.487638 0.649592 0 0 0 -0.729163 -0.862229 -0.283713 
283 1.78565 0.844192 0.90287 0.529973 0 0 0 2.21306 7.11477 5.72754 
326 2.49869 1.10645 1.22629 0.479722 0 0 0 0.917798 -0.586998 -0.275371 
470 3.20793 1.21786 1.38465 0.675376 0 0 0 0.604975 0.650668 0.479892 
313 2.78303 0.837267 1.4233 0.569369 0 0 0 0.688862 -0.469721 0.0305314 
457 1.88297 1.3176 1.42381 0.328059 0 0 0 -1.57505 0.172919 0.325218 
455 2.09928 1.46729 1.04027 0.396734 0 0 0 0.737342 -0.567063 -0.644773 
422 2.35312 1.29627 1.08161 0.446568 0 0 0 1.03428 -0.563815 -0.623529 
456 2.55984 0.341747 1.38464 0.62805 0 0 0 -0.349849 -1.08264 -0.530394 
474 1.85408 1.41999 1.30336 0.322767 0 0 0 -0.756339 0.168391 0.00891909 
300 3.62896 -0.222309 1.47508 1.02441 0 0 0 0.628928 -0.628296 -0.0936691 
478 2.35706 1.45327 0.867216 0.466209 0 0 0 1.20538 -0.344406 -0.812666 
340 1.70264 1.43603 1.41148 0.286354 0 0 0 -0.968773 0.606749 -0.388399 
281 1.70783 0.00683539 0.314204 0.851727 0 0 0 -0.0687028 0.525063 0.736434 
333 2.95212 0.625799 2.57619 0.753145 0 0 0 0.713191 0.398759 0.502318 
323 1.96024 1.06257 1.74773 0.38267 0 0 0 -0.574075 -0.518625 -0.531171 
335 2.66601 0.847265 2.44811 0.64609 0 0 0 0.592477 0.832683 0.530792 
491 1.78688 1.17972 1.7055 0.338071 0 0 0 -0.880323 0.101688 -0.51618 
337 2.05362 -0.945711 1.91696 0.993524 0 0 0 -0.0302155 -0.872234 -0.198417 
338 3.03181 0.240152 2.16305 0.772451 0 0 0 0.621386 -0.400472 0.185039 
339 1.79311 0.243005 1.69179 0.598003 0 0 0 -0.162388 1.31183 -0.0847599 
370 1.65925 -0.976637 2.59511 1.03459 0 0 0 -0.00371401 -0.913971 -0.00497957 
452 2.42607 0.244144 1.74989 0.624611 0 0 0 -0.262875 -1.04637 -0.488996 
295 2.09993 0.574221 2.39618 0.559708 0 0 0 0.422682 -0.554881 0.449842 
296 2.19624 1.05237 1.56909 0.416344 0 0 0 0.0525562 -0.767427 0.00181278 
344 2.37282 0.960812 1.94511 0.49317 0 0 0 0.0947069 -0.747984 -0.194911 
345 3.40707 1.06475 2.12277 0.795705 0 0 0 0.617741 0.513883 0.40896 
346 2.01392 0.960284 1.86444 0.415937 0 0 0 0.212651 -0.860611 0.00210676 
364 1.68475 1.12266 1.87406 0.355485 0 0 0 0.0337678 -0.643411 -0.44141 
348 3.88721 1.46542 2.1892 0.98417 0 0 0 0.623128 0.145077 0.180695 
331 2.11756 0.995957 1.72374 0.41584 0 0 0 0.0796117 -0.764205 -0.0600271 
350 2.3602 -0.0945924 1.61191 0.719201 0 0 0 -0.476428 -0.847095 -0.611053 
351 1.7726 1.23309 1.64011 0.323704 0 0 0 -1.06186 0.26449 -0.192933 
352 2.46184 0.66852 2.26259 0.582329 0 0 0 0.676374 0.0572792 0.582593 
363 2.55574 -0.637608 2.03573 0.923294 0 0 0 0.0626223 -0.993181 -0.189391 
45 1.68419 1.14929 1.8349 0.346041 0 0 0 -0.0692366 -0.452163 -0.38783 
365 1.6938 0.222916 2.3901 0.619912 0 0 0 -0.246704 -1.20416 -0.522408 
356 3.26093 1.43478 2.49167 0.819985 0 0 0 0.0772439 0.442801 0.108644 
357 2.16288 1.08652 2.24834 0.502372 0 0 0 -1.19513 -1.26625 -1.34781 
358 2.14802 0.666397 2.60497 0.595296 0 0 0 0.560611 0.181413 0.638803 
359 3.56756 -0.60034 2.21029 1.1353 0 0 0 0.5712 -0.671611 0.0263378 
360 1.95003 0.186208 2.18313 0.617074 0 0 0 -0.299097 -1.06725 -0.548356 
361 2.06205 -0.71742 1.53365 0.916864 0 0 0 -0.165979 -0.667961 -0.288173 
362 2.41713 0.274365 1.96776 0.621368 0 0 0 -0.019618 -1.05119 -0.266814 
460 1.9702 1.14592 1.60674 0.364138 0 0 0 -1.33181 -0.186573 -0.368156 
303 2.32215 1.05426 1.64056 0.44636 0 0 0 -0.243898 -1.64999 -0.78218 
393 1.97008 -0.328907 2.07154 0.770045 0 0 0 -0.341785 -0.895115 -0.523342 
324 2.45376 0.691635 1.9828 0.539925 0 0 0 0.65897 -0.447204 0.399912 
312 3.14154 1.31986 1.96637 0.699456 0 0 0 -0.0355816 0.799515 0.326182 
375 1.7987 0.918477 2.09439 0.426671 0 0 0 0.572708 -1.16243 0.509543 
459 2.65914 0.45717 1.80806 0.61256 0 0 0 0.369613 -0.819298 -0.048611 
62 1.74291 1.0577 1.9291 0.377705 0 0 0 0.10372 -0.931338 -0.415041 
380 2.33974 0.664182 2.34271 0.57309 0 0 0 0.614362 -0.00930157 0.600999 
485 1.68786 1.16813 1.80446 0.339539 0 0 0 -0.171953 -0.32288 -0.330979 
510 2.07899 0.979147 1.78211 0.41585 0 0 0 0.124327 -0.791784 -0.0553719 
497 1.81804 0.609494 2.4823 0.542847 0 0 0 0.301729 -0.771566 0.409485 
347 1.77136 -0.881249 1.97401 0.962729 0 0 0 -0.0895692 -0.786543 -0.247516 
377 3.60722 1.30345 2.56839 0.933676 0 0 0 0.51427 0.272031 0.2389 
314 2.71489 0.746785 1.7233 0.570731 0 0 0 0.739726 -0.29275 0.267058 
388 1.75471 1.18522 1.72429 0.334978 0 0 0 -0.686869 0.0357072 -0.442505 
315 2.63579 0.314024 1.72366 0.638914 0 0 0 0.0537935 -1.04202 -0.326236 
472 2.09292 0.870503 1.94172 0.448089 0 0 0 0.491805 -0.963366 0.346391 
483 1.82858 0.756609 2.34806 0.49368 0 0 0 0.439518 -0.870011 0.607231 
481 2.18418 0.922727 1.7832 0.44124 0 0 0 0.450515 -0.865521 0.16145 
53 1.96945 0.83714 2.09144 0.454924 0 0 0 0.52372 -1.05331 0.546446 
484 1.59689 0.907457 2.25909 0.443743 0 0 0 0.520929 -1.21092 0.880375 
384 3.31989 -0.642169 2.68997 1.13434 0 0 0 0.468078 -0.689844 0.149539 
79 1.6855 1.09274 1.92023 0.366689 0 0 0 0.137852 -0.883456 -0.419658 
492 1.57912 1.14676 1.92413 0.353492 0 0 0 0.285159 -0.824472 -0.069042 
102 1.57313 0.883428 2.31386 0.456285 0 0 0 0.432948 -1.15595 0.886222 
353 2.07857 1.26352 2.6402 0.588628 0 0 0 -0.784792 0.435478 -1.26496 
462 2.05824 1.16867 1.5 0.374844 0 0 0 -1.12475 -0.44158 -0.00754237 
366 3.1868 0.39456 3.69955 1.1194 0 0 0 0.427864 -0.0589656 0.661267 
89 1.72107 0.843352 2.90212 0.612806 0 0 0 0.333722 0.563329 0.677299 
368 3.28496 -0.261771 3.55746 1.21014 0 0 0 0.427478 -0.424274 0.520488 
369 3.64677 0.246241 3.45703 1.1909 0 0 0 0.608281 -0.163267 0.482327 
378 2.68147 0.577423 2.86986 0.757388 0 0 0 0.589628 0.356545 0.599859 
389 2.14752 0.922794 3.36327 0.790329 0 0 0 0.301182 0.639914 0.697763 
95 1.59937 0.244864 3.84568 0.991721 0 0 0 0.0260051 -0.174657 0.844436 
373 1.65834 -0.0884454 2.8068 0.767129 0 0 0 -0.127079 -0.983976 -0.0238774 
390 2.59698 1.19522 3.71532 0.975792 0 0 0 0.204656 0.334102 0.633333 
86 1.82023 1.15321 3.19896 0.705228 0 0 0 0.238591 0.999347 0.374365 
376 2.3167 1.0375 3.19032 0.75819 0 0 0 0.302558 0.831205 0.474072 
391 3.65085 0.0254072 3.455 1.22491 0 0 0 0.591533 -0.276206 0.462944 
236 1.54662 0.573479 2.76919 0.603725 0 0 0 0.00803588 -0.614122 0.469234 
379 2.28479 0.0643995 2.74732 0.757379 0 0 0 0.197697 -0.711341 0.263064 
392 3.16306 0.164084 2.91473 0.933104 0 0 0 0.561894 -0.18114 0.368115 
381 3.3365 -0.184159 3.45155 1.17626 0 0 0 0.468473 -0.388438 0.486813 
115 1.62184 0.85672 2.99926 0.635534 0 0 0 0.269764 0.566704 0.738461 
386 3.19115 1.2429 3.66152 1.08251 0 0 0 0.343956 0.20202 0.542291 
97 1.83971 0.614678 2.73121 0.599045 0 0 0 0.341797 -0.192331 0.590671 
385 2.36353 -0.0875359 3.34841 0.945009 0 0 0 0.184324 -0.438183 0.551921 
413 2.04561 3.55203 0.256289 0.93759 0 0 0 0.0167897 0.826889 0.106736 
396 3.29247 3.22368 0.0353813 1.07479 0 0 0 0.396769 0.490328 -0.151139 
417 1.86394 3.11944 -0.421512 0.938943 0 0 0 0.0259777 0.635545 -0.497449 
398 3.25695 2.67494 0.143853 0.921568 0 0 0 0.465745 0.363364 -0.0248145 
418 3.60252 2.06812 -0.0315353 0.979931 0 0 0 0.6682 0.103296 -0.267782 
400 3.51105 2.53616 -0.0693548 1.01263 0 0 0 0.566685 0.20784 -0.261324 
420 1.73365 2.37768 -0.458353 0.802554 0 0 0 0.0173917 0.149983 -0.822012 
414 2.021 2.40555 -0.00566885 0.688312 0 0 0 0.194061 0.747625 -0.386262 
416 2.84933 3.42505 -0.151606 1.0695 0 0 0 0.207379 0.613234 -0.261578 
404 3.31269 3.00275 -0.201164 1.07257 0 0 0 0.424791 0.366722 -0.332247 
415 3.39604 3.43406 0.0890931 1.15433 0 0 0 0.404629 0.538805 -0.15142 
322 1.89507 1.81397 -0.137572 0.663459 0 0 0 -0.32227 -0.680416 -0.736611 
407 3.49972 1.68272 -0.386584 1.01346 0 0 0 0.577622 0.0301532 -0.502845 
408 2.0203 1.93863 -0.60717 0.832 0 0 0 -0.0249535 -0.176068 -0.869696 
202 2.56612 1.60662 0.174913 0.644139 0 0 0 0.242833 -0.252869 -0.704199 
410 3.59068 2.9862 -0.00984836 1.11004 0 0 0 0.546414 0.338204 -0.22181 
411 1.93646 3.67858 -0.355086 1.08848 0 0 0 -0.0202915 0.765235 -0.41815 
289 2.40056 1.93837 0.244717 0.61426 0 0 0 0.514152 0.450166 -0.390156 
262 1.74618 2.1512 0.279806 0.555163 0 0 0 0.012787 0.577707 -0.810597 
12 2.05401 1.71887 0.758059 0.43805 0 0 0 1.01325 -0.0353342 -1.31541 
419 2.13205 2.72408 0.899571 0.661816 0 0 0 -0.342829 -0.25325 0.90739 
406 2.42478 3.61752 0.659936 0.970483 0 0 0 -0.0178856 0.633407 0.3258 
5 1.83386 1.60258 1.06899 0.350516 0 0 0 0.518419 -0.00484252 -0.43931 
282 2.10937 1.7138 0.72522 0.45101 0 0 0 1.02976 -0.00762525 -1.22516 
332 2.94219 1.87249 1.48281 0.658021 0 0 0 -1.34647 0.0501106 0.272376 
273 1.97811 2.02245 0.498358 0.505722 0 0 0 0.418282 0.715757 -0.889838 
465 1.55316 1.80293 1.02061 0.352749 0 0 0 0.423807 0.413227 0.116735 
473 2.46733 1.59649 0.666439 0.518457 0 0 0 0.967354 0.00930602 -0.462041 
431 2.32607 2.05446 0.519978 0.560175 0 0 0 0.724133 0.993838 0.163008 
14 1.55419 1.93328 0.8284 0.405061 0 0 0 0.0452434 0.830477 -0.972523 
292 1.85024 1.93214 0.623221 0.458605 0 0 0 0.52037 0.633287 -1.45588 
434 2.75644 2.12253 0.776646 0.640348 0 0 0 0.276022 0.828516 0.976952 
435 2.2755 2.78878 1.36395 0.724163 0 0 0 -1.28361 -1.59748 0.0353528 
449 1.78491 1.65285 1.04033 0.351591 0 0 0 0.620304 0.0967065 -0.444056 
397 2.83484 3.18347 0.751302 0.894629 0 0 0 -0.0118693 0.462724 0.500413 
503 1.69432 1.53291 1.28279 0.296974 0 0 0 0.0872478 0.668223 -1.17523 
439 2.23606 1.68881 0.72163 0.470067 0 0 0 0.997568 -0.149414 -1.01184 
440 3.40613 2.58475 1.18372 0.890001 0 0 0 0.0148379 0.225986 0.34153 
321 3.75634 1.95026 1.30416 0.908663 0 0 0 0.522764 0.204482 0.235081 
442 2.01406 1.55506 0.987749 0.389564 0 0 0 0.846815 -0.376449 -0.68074 
280 3.36551 1.9208 0.844512 0.776132 0 0 0 0.563194 0.495338 0.460954 
409 2.06941 2.09255 1.00966 0.487111 0 0 0 -3.00201 -4.83792 -2.50845 
132 1.60203 2.67405 1.23181 0.597769 0 0 0 -0.896569 -2.87785 -0.340635 
412 3.37692 2.95078 0.915979 0.958065 0 0 0 0.185468 0.354265 0.329064 
467 2.39565 1.7078 0.607569 0.518872 0 0 0 0.911757 0.184934 -0.45415 
475 1.63585 1.75674 1.01821 0.351079 0 0 0 0.57219 0.320068 -0.169939 
297 1.88583 2.11884 0.468278 0.516631 0 0 0 0.269667 0.900498 -0.811045 
258 1.88163 2.07848 0.490098 0.505798 0 0 0 0.292776 0.819162 -0.959418 
21 1.95023 1.79309 0.73701 0.43378 0 0 0 0.835075 0.192425 -1.45183 
155 1.57049 2.57306 1.03081 0.556287 0 0 0 -0.930585 -1.97372 -0.346088 
152 1.64318 3.26844 0.896388 0.775454 0 0 0 0.145062 0.320254 0.577035 
330 3.25835 2.11221 1.26291 0.765142 0 0 0 -0.227349 0.34656 0.517387 
50 2.1097 2.01879 0.461303 0.528908 0 0 0 0.523384 0.760794 -0.524204 
11 1.82699 1.65768 0.998596 0.364154 0 0 0 0.726242 0.0561025 -0.479168 
221 3.06292 2.07823 0.892997 0.704356 0 0 0 0.191776 0.675909 0.805536 
74 3.04859 1.89687 0.613133 0.697116 0 0 0 0.733974 0.698633 0.481359 
446 2.36992 1.57697 0.416048 0.551069 0 0 0 0.338444 -0.381172 -0.777627 
395 2.2081 3.17315 0.332802 0.823201 0 0 0 0.0906882 0.789293 0.380097 
259 2.61539 1.55377 0.447529 0.589883 0 0 0 0.615135 -0.134934 -0.484157 
421 3.45212 3.42162 0.546129 1.11866 0 0 0 0.356779 0.514225 0.0955116 
454 1.56662 1.58654 1.31651 0.280867 0 0 0 0.559597 0.5305 -1.02789 
46 1.85723 1.59487 1.06019 0.354938 0 0 0 0.539288 -0.0521742 -0.419129 
342 1.94864 1.51664 1.09144 0.362942 0 0 0 0.365702 -0.248125 -0.311592 
468 1.84502 1.61503 1.04263 0.356898 0 0 0 0.605257 -0.0199549 -0.435446 
3 1.71463 1.71188 1.01634 0.352864 0 0 0 0.642122 0.223101 -0.361518 
305 1.96778 2.68474 0.388909 0.661754 0 0 0 0.243369 1.21754 0.507503 
197 2.25482 2.31208 0.348897 0.621997 0 0 0 0.537172 1.21493 0.278884 
405 2.37908 2.74229 0.381565 0.727042 0 0 0 0.26568 0.922404 0.602285 
401 2.75364 3.61332 0.3324 1.03902 0 0 0 0.115535 0.715405 0.107308 
13 1.5531 1.67704 1.20139 0.307972 0 0 0 0.786019 0.492063 -0.793987 
387 2.43194 1.6889 2.17914 0.610139 0 0 0 -3.33212 -1.77686 -2.95707 
482 2.5149 2.75823 2.04881 0.826893 0 0 0 -1.56765 -1.33385 -0.988746 
463 2.97197 2.60117 1.62743 0.818336 0 0 0 -1.07671 -0.446853 -0.086057 
394 2.6422 1.6578 2.44455 0.691176 0 0 0 -1.51694 -0.073387 -1.27238 
319 3.26548 1.82336 1.59356 0.744788 0 0 0 -0.412051 0.388331 0.342387 
500 3.11264 2.32838 2.11934 0.848987 0 0 0 -0.956486 -0.383041 -0.424585 
487 2.72998 2.14153 2.33658 0.768572 0 0 0 -1.73812 -0.883098 -1.23831 
502 2.94168 3.1234 2.45848 1.05467 0 0 0 -0.570296 -0.288462 -0.388166 
499 3.04774 2.90836 2.592 1.0427 0 0 0 -0.532258 -0.292096 -0.370334 
429 3.27855 2.24372 1.51449 0.807219 0 0 0 -0.495871 0.0821249 0.239967 
504 1.83963 1.98458 2.30369 0.597598 0 0 0 -3.80625 -5.33879 -5.67494 
383 3.18367 1.5004 2.61693 0.827665 0 0 0 -0.0343544 0.389493 0.0164132 
99 1.58531 1.59036 3.49473 0.813435 0 0 0 0.149991 0.619318 0.283841 
382 2.94579 1.66321 3.32611 0.956233 0 0 0 0.0216976 0.231183 0.173938 
374 2.17946 1.70018 3.15937 0.782233 0 0 0 -0.408954 0.359885 -0.575169 
367 2.15103 1.73256 3.16273 0.783982 0 0 0 -0.427378 0.315452 -0.617699 
512 1.68195 3.18105 2.91329 0.986989 0 0 0 -0.181799 -0.379639 -0.491423 
498 3.03601 3.15207 3.07829 1.20085 0 0 0 -0.264323 -0.140572 -0.154738 
508 2.36177 2.26393 2.93279 0.84866 0 0 0 -1.00136 -0.5721 -1.0411 
488 2.7668 3.03525 3.02365 1.10813 0 0 0 -0.447036 -0.241961 -0.294058 
100 1.61345 1.74365 3.65537 0.886139 0 0 0 0.0867496 0.432636 0.364272 
245 1.53524 1.87341 3.55191 0.862725 0 0 0 0.113813 0.405924 0.174801 
ITEM: TIMESTEP
740903
ITEM: NUMBER OF ATOMS
512
ITEM: BOX BOUNDS ss ss ss
-8.1988304040437454e-01 3.8875120101141034e+00
-9.7693552394909078e-01 3.9476017366228966e+00
-9.1281994132074906e-01 3.9096273972560476e+00
ITEM: ATOMS id x y z width_SPH x_COM y_COM z_COM vx vy vz 
263 1.46291 0.886579 -0.255346 0.797053 0 0 0 -0.184411 0.0652898 0.617621 
403 1.47177 1.28214 -0.572762 0.836225 0 0 0 -0.29616 -0.417883 -0.281636 
25 0.482319 0.121024 0.00276632 1.02263 0 0 0 0.431006 0.529147 0.569923 
279 1.31897 1.03444 -0.485001 0.850873 0 0 0 -0.189072 -0.165786 0.106858 
402 1.48864 1.3275 -0.648021 0.856457 0 0 0 -0.281508 -0.409919 -0.421848 
16 0.283961 0.665574 0.148007 0.902207 0 0 0 0.58651 0.592035 0.78034 
8 0.548838 0.851555 0.116503 0.825734 0 0 0 0.734392 0.682643 1.15145 
131 1.20615 1.40821 0.665954 0.517646 0 0 0 4.7996 6.68258 7.38267 
217 -0.458204 1.32447 1.07566 0.827556 0 0 0 -0.140279 -0.412286 -0.139915 
2 -0.191098 0.578912 0.37822 0.976756 0 0 0 0.269405 0.35532 0.381132 
24 0.947289 0.538033 0.65587 0.732049 0 0 0 1.68979 2.78501 2.58746 
129 -0.0272463 1.21936 0.47186 0.809153 0 0 0 0.464873 -0.111333 0.504337 
224 -0.038189 1.2323 1.09789 0.718729 0 0 0 1.00079 -0.0777722 0.267187 
78 0.717455 0.41624 1.44599 0.684321 0 0 0 2.08583 2.94718 0.725718 
67 0.0566697 0.170696 1.35969 0.867436 0 0 0 0.6468 0.692224 0.00582845 
22 1.10959 0.782217 0.47649 0.689905 0 0 0 1.54591 2.71417 3.19736 
125 0.0919136 1.14992 0.334138 0.817639 0 0 0 0.528942 0.0431939 0.639707 
10 0.36272 0.340194 0.337041 0.920796 0 0 0 0.74317 0.865768 0.89709 
68 -0.629251 1.10997 1.49534 0.872297 0 0 0 -0.401535 -0.268312 -0.303204 
116 -0.467654 -0.224831 2.43602 1.06883 0 0 0 -0.510468 -0.413939 -0.0581874 
39 1.33122 1.26247 1.96202 0.349424 0 0 0 -0.248454 -0.393411 0.561661 
57 -0.136592 -0.184235 1.60661 0.978297 0 0 0 0.0862719 0.085071 -0.196887 
111 1.47854 0.661545 1.94945 0.47933 0 0 0 3.06035 4.58022 2.61038 
59 0.836248 1.31492 2.27396 0.459123 0 0 0 -1.05547 -0.0553406 0.985161 
183 0.484325 1.33661 2.61271 0.586941 0 0 0 -0.675484 -0.0649811 0.479693 
80 1.06799 1.32418 2.08946 0.394885 0 0 0 -0.907546 0.0277142 0.821369 
103 -0.666441 -0.192844 2.21681 1.11079 0 0 0 -0.541745 -0.319404 -0.0821419 
63 -0.481042 0.335769 1.67077 0.939104 0 0 0 -0.201806 0.0269429 -0.274255 
64 0.692247 1.25095 1.95537 0.468154 0 0 0 1.81294 3.52194 2.44696 
65 1.41229 1.12564 2.09166 0.384749 0 0 0 0.113616 -1.07882 0.468894 
66 0.536314 -0.153307 1.5622 0.845281 0 0 0 0.649405 0.68361 -0.164187 
27 1.41507 1.3286 1.8037 0.309623 0 0 0 -0.41185 -0.394397 1.39311 
343 1.489 1.48456 1.52633 0.252367 0 0 0 0.0620426 0.0889924 -0.0237153 
69 0.578523 1.29327 2.42892 0.533069 0 0 0 -0.970104 -0.28345 0.40424 
82 0.155982 0.760108 1.61801 0.699979 0 0 0 1.16217 0.799946 -0.32532 
71 0.319315 -0.0268697 1.59759 0.843497 0 0 0 0.618184 0.613286 -0.223044 
509 1.47934 1.47659 1.54574 0.254226 0 0 0 0.182482 0.0865989 -0.118284 
226 0.739733 1.28996 2.43123 0.504115 0 0 0 -0.860419 -0.174967 0.698024 
511 1.41956 1.17053 2.0196 0.366041 0 0 0 0.0941017 -0.909345 0.296994 
118 0.968943 0.167106 2.50853 0.690233 0 0 0 -0.380083 -0.897087 -0.669377 
26 1.04233 1.47276 1.9123 0.366372 0 0 0 -0.426104 0.305009 0.347858 
77 0.568466 0.474343 2.2866 0.658593 0 0 0 -0.193301 -0.487516 -0.883484 
92 0.62797 -0.707366 2.33072 0.983497 0 0 0 -0.0562678 -0.633954 -0.23183 
107 0.249775 0.44264 2.19695 0.724248 0 0 0 -0.0885085 -0.275278 -0.803402 
122 1.04948 0.384909 2.37968 0.613125 0 0 0 -0.286965 -0.85849 -0.736298 
94 1.1831 0.612677 2.42577 0.54558 0 0 0 -0.172915 -1.01247 -0.0156884 
247 0.952674 1.10214 2.48173 0.497483 0 0 0 -0.612015 -0.522942 0.847431 
73 1.44161 0.79444 2.54928 0.516403 0 0 0 0.0604903 -0.778627 0.685205 
87 0.75602 0.283342 2.07375 0.669737 0 0 0 0.352306 0.328703 -0.886051 
84 -0.667095 1.05545 2.40897 0.902824 0 0 0 -0.847687 -0.267149 -0.18099 
507 1.18215 1.1312 2.24888 0.425766 0 0 0 -0.485919 -0.575639 1.24138 
169 1.39493 0.99181 2.28372 0.436523 0 0 0 0.175139 -1.07745 1.11101 
85 0.770572 -0.606561 1.99598 0.927261 0 0 0 0.0904849 -0.341414 -0.356414 
371 1.36018 0.868798 2.51444 0.500144 0 0 0 -0.0252791 -0.821043 0.806244 
448 0.609014 1.28905 1.89854 0.483834 0 0 0 1.71752 3.16737 1.99165 
328 0.993102 0.774302 2.21875 0.511075 0 0 0 0.604158 0.591919 0.631535 
112 0.973465 1.266 2.22438 0.433456 0 0 0 -0.947585 -0.0536039 1.19699 
40 0.542481 1.29074 2.4296 0.540916 0 0 0 -0.994576 -0.331571 0.322571 
496 1.48485 1.48105 1.5348 0.253068 0 0 0 0.11968 0.0926603 -0.0759605 
42 1.22246 1.29781 2.00115 0.362848 0 0 0 -0.557473 -0.189232 0.500942 
237 1.11561 1.25583 2.14124 0.402218 0 0 0 -0.810622 -0.184027 0.983632 
494 1.38749 1.19012 2.01749 0.364345 0 0 0 -0.0151509 -0.801842 0.357082 
181 0.316512 1.14154 2.56082 0.627433 0 0 0 -0.957873 -0.732031 -0.0854588 
81 -0.121092 -0.621638 2.09638 1.08733 0 0 0 -0.197009 -0.422681 -0.13128 
83 1.18469 -0.506675 2.52988 0.870692 0 0 0 -0.142368 -0.821275 -0.309905 
232 0.998013 1.0124 2.54916 0.515982 0 0 0 -0.467558 -0.616724 0.771165 
93 -0.508146 0.844912 2.02971 0.851661 0 0 0 -0.540557 -0.298773 -0.444183 
61 1.51202 0.359912 1.94817 0.566538 0 0 0 0.589474 1.3973 -0.11326 
349 1.50386 -0.381652 1.57127 0.808645 0 0 0 -0.129211 0.234036 -0.291409 
253 1.16406 1.08586 2.39569 0.460846 0 0 0 -0.611622 -0.907174 0.937643 
193 -0.727521 1.42164 1.5528 0.877432 0 0 0 -0.696378 -0.372892 -0.303502 
506 1.46209 1.27675 1.83871 0.320014 0 0 0 -0.221512 -0.637827 0.94236 
44 -0.248199 1.37176 1.89732 0.71293 0 0 0 -0.59918 -0.717581 -0.652013 
32 1.23784 1.37168 1.88978 0.336996 0 0 0 -0.418282 -0.0106153 0.780103 
493 1.20602 1.42553 1.84333 0.331295 0 0 0 -0.251802 0.0106212 0.833424 
9 1.40198 1.32545 1.82111 0.313663 0 0 0 -0.524557 -0.59557 1.18524 
218 1.31593 1.40023 1.78916 0.309638 0 0 0 -0.538553 -0.471024 1.28588 
200 -0.243762 1.45155 1.90838 0.706227 0 0 0 -0.690024 -0.735851 -0.614232 
486 1.31685 1.26322 1.98198 0.354054 0 0 0 0.426612 0.7811 1.35202 
98 0.192047 0.505976 2.67418 0.76268 0 0 0 -0.547807 -0.679273 -0.319386 
113 1.36474 -0.767745 2.84603 0.993316 0 0 0 -0.0519074 -0.877636 0.0551799 
114 -0.66281 0.667395 3.0988 1.04669 0 0 0 -0.730348 -0.20807 0.292164 
108 0.827867 -0.375039 3.19939 0.967026 0 0 0 -0.179652 -0.68332 0.26937 
163 0.568726 0.925258 2.79803 0.645965 0 0 0 -0.629008 -0.714704 0.303412 
60 0.824456 1.36371 3.15257 0.691631 0 0 0 0.333293 0.629398 0.835942 
117 0.983525 0.1179 3.7019 0.978816 0 0 0 -0.129093 -0.308784 0.718561 
51 0.407869 1.42256 2.78811 0.642069 0 0 0 -0.346635 0.249814 0.656771 
88 1.42973 0.538919 3.6292 0.869874 0 0 0 0.0063909 0.0152713 0.894955 
109 -0.521001 -0.19516 3.25587 1.19581 0 0 0 -0.575247 -0.43826 0.393267 
90 -0.819585 0.596008 2.78624 1.05283 0 0 0 -0.79873 -0.216509 0.11203 
91 0.794654 1.1685 3.90933 0.962239 0 0 0 -0.00640092 0.133372 0.951555 
227 1.33614 1.35544 2.76355 0.562287 0 0 0 -0.0936418 0.239731 -0.637899 
438 0.692841 1.45413 3.02107 0.665647 0 0 0 0.310268 0.681386 0.831891 
119 0.719815 0.0526632 3.43823 0.932507 0 0 0 -0.23006 -0.438123 0.511981 
430 1.20337 0.667938 2.80486 0.606692 0 0 0 -0.284845 -0.688798 0.484998 
96 1.21336 -0.443179 3.49593 1.03711 0 0 0 -0.0580868 -0.627555 0.498015 
121 -0.478873 0.852548 3.15732 0.981829 0 0 0 -0.686136 -0.196807 0.337565 
110 0.00053238 -0.178562 2.91004 0.989029 0 0 0 -0.415654 -0.545737 0.0950903 
120 -0.757138 1.33216 2.86286 0.982954 0 0 0 -0.85556 -0.0638489 0.192643 
104 0.101182 -0.598298 3.21263 1.14763 0 0 0 -0.345984 -0.642431 0.341689 
101 0.53735 0.503483 3.11842 0.786335 0 0 0 -0.405485 -0.525511 0.336962 
238 1.23271 1.23412 2.83499 0.574662 0 0 0 0.182201 0.58669 0.304328 
123 -0.316978 2.86792 -0.691695 1.18976 0 0 0 -0.540366 0.329795 -0.659837 
159 0.397834 3.05213 -0.625376 1.0548 0 0 0 -0.28574 0.503088 -0.6908 
142 1.18785 3.80508 -0.0596132 1.0579 0 0 0 -0.106364 0.892023 -0.31671 
126 -0.541264 3.21741 0.184414 1.10843 0 0 0 -0.645 0.551746 -0.319707 
127 0.805514 2.06304 -0.832072 0.949849 0 0 0 -0.270577 -0.262301 -0.886222 
158 0.89648 2.14782 -0.502447 0.825347 0 0 0 -0.343771 -0.410894 -0.874105 
143 -0.162417 2.51389 -0.788978 1.13561 0 0 0 -0.507501 0.116803 -0.735206 
149 1.11664 2.1868 -0.912523 0.958563 0 0 0 -0.152844 -0.115956 -0.939913 
151 1.36321 3.3662 0.288897 0.844519 0 0 0 0.0302139 0.959234 0.0450125 
274 1.33477 2.01646 -0.0267973 0.636667 0 0 0 -0.36698 -0.74369 -0.663934 
157 0.0134456 1.64301 0.128942 0.821067 0 0 0 -0.211186 -0.666854 -0.103426 
156 -0.609018 1.93331 -0.650117 1.19061 0 0 0 -0.599183 -0.0660178 -0.549878 
130 0.98618 2.15088 0.267701 0.59301 0 0 0 -0.525009 -0.340072 -0.635104 
148 0.698617 1.49459 -0.232561 0.791589 0 0 0 -0.0750832 -0.610826 0.0773757 
137 -0.708149 2.86987 0.246404 1.07807 0 0 0 -0.787251 0.323153 -0.310891 
138 0.424981 2.62752 -0.593768 0.963027 0 0 0 -0.356622 0.182128 -0.803869 
141 0.160037 1.99701 -0.415248 0.914393 0 0 0 -0.476599 -0.434299 -0.672681 
140 0.862152 2.60214 -0.809071 0.979752 0 0 0 -0.192286 0.196983 -0.875642 
443 1.31898 2.08521 0.116088 0.599072 0 0 0 -0.363283 -0.42813 -0.7379 
444 1.48155 2.2398 0.0627949 0.620897 0 0 0 -0.259574 0.13418 -0.78711 
136 1.03226 1.89171 0.221509 0.597168 0 0 0 -0.149072 -0.793345 0.0686127 
268 1.46276 2.00808 0.113343 0.589757 0 0 0 -0.280068 -0.513116 -0.711877 
146 0.824181 2.05115 0.253747 0.61559 0 0 0 -0.451273 -0.790372 -0.37947 
180 0.816328 2.50704 0.789626 0.565308 0 0 0 -0.422125 1.23144 -0.299285 
190 0.821826 3.29159 1.17401 0.77367 0 0 0 0.338222 0.7514 0.367126 
178 -0.546725 3.0854 1.13917 0.974055 0 0 0 -0.646048 0.581698 -0.0204903 
220 0.899101 2.23261 1.45459 0.460916 0 0 0 -1.92841 -2.57365 -1.96306 
189 1.01702 2.26103 0.814605 0.487546 0 0 0 -0.947818 1.11269 -0.606446 
165 1.04881 2.30436 0.745476 0.502528 0 0 0 -0.82478 1.15663 -0.661883 
128 1.38576 3.34334 1.2518 0.793523 0 0 0 0.238333 -0.0104512 0.379245 
185 0.700683 3.36966 1.30718 0.807794 0 0 0 0.306435 0.749878 0.317366 
168 0.77937 2.05423 1.00594 0.471615 0 0 0 -0.205972 1.53662 0.706597 
186 -0.767687 1.72337 0.481585 0.983525 0 0 0 -0.740691 -0.285036 -0.211644 
170 0.55675 2.28227 0.547188 0.609202 0 0 0 -0.639525 -0.127133 -0.555103 
171 0.284593 3.56151 0.915819 0.929532 0 0 0 -0.124118 0.92202 0.0251739 
175 -0.673979 2.64647 1.34235 0.92231 0 0 0 -0.838189 0.285629 -0.0589437 
124 0.946528 2.13443 1.03011 0.448054 0 0 0 -1.03398 1.02043 -0.156167 
187 -0.341964 2.06188 0.381163 0.853127 0 0 0 -0.732699 -0.502043 -0.36124 
134 1.44029 2.99974 0.715253 0.686522 0 0 0 0.237599 0.772282 0.575614 
198 1.10455 2.48529 1.3249 0.519704 0 0 0 -1.07293 -2.52533 -1.23733 
426 1.5256 1.80969 1.03414 0.350826 0 0 0 0.374672 0.399586 0.236807 
147 1.22189 1.92071 1.15986 0.365564 0 0 0 -0.681555 -0.612192 0.428106 
133 1.0445 2.31189 0.324252 0.588098 0 0 0 -0.518699 0.365646 -0.734333 
188 0.398838 2.22613 0.467437 0.652189 0 0 0 -0.60899 -0.528006 -0.52546 
20 1.40119 1.64926 1.36986 0.284345 0 0 0 1.58829 -0.49125 -0.209976 
216 -0.0737708 2.3515 1.33667 0.682754 0 0 0 -0.676905 0.163017 -0.232994 
206 -0.717426 1.91109 1.19379 0.879567 0 0 0 -0.880968 -0.367046 -0.250333 
154 -0.280082 3.2078 0.526568 0.978395 0 0 0 -0.533223 0.672519 -0.188916 
144 1.30248 2.01086 0.912945 0.407613 0 0 0 -0.673039 1.05399 -0.238625 
423 1.18174 2.03442 0.977319 0.411236 0 0 0 -0.851652 1.06096 0.0833332 
135 -0.226247 3.12139 0.410255 0.958206 0 0 0 -0.535693 0.632124 -0.247144 
192 0.529701 2.18855 0.465842 0.623391 0 0 0 -0.590083 -0.541571 -0.501851 
194 0.171587 2.21543 0.651675 0.670487 0 0 0 -0.636182 -0.568254 -0.48013 
196 0.990075 2.89059 1.10308 0.640599 0 0 0 0.388179 0.633301 0.41903 
203 0.532332 2.55461 0.541057 0.655191 0 0 0 -0.461156 0.623926 -0.448615 
150 1.41055 1.88548 0.988709 0.370978 0 0 0 2.87835 5.47261 3.79757 
214 -0.0711005 1.80497 0.791842 0.711166 0 0 0 -0.190365 -1.00773 -0.172961 
425 1.42104 1.95117 0.905409 0.394386 0 0 0 -0.268538 0.944118 -0.302499 
48 0.228432 2.29404 0.623428 0.667387 0 0 0 -0.652918 -0.340577 -0.509612 
162 1.52739 1.51565 1.44982 0.254792 0 0 0 -0.40039 0.113655 0.320342 
177 0.87022 1.99605 1.31464 0.416623 0 0 0 -0.428358 0.917033 0.359071 
139 0.901011 3.9473 0.7486 1.0206 0 0 0 -0.0239521 0.908772 -0.0296566 
461 1.38948 1.75363 1.23162 0.316837 0 0 0 0.789015 0.0387991 0.354032 
210 0.261619 2.176 0.84757 0.615996 0 0 0 -0.594711 -0.510632 -0.434905 
480 1.02344 2.02372 1.13292 0.409865 0 0 0 -0.664415 0.94742 0.473182 
28 1.05076 1.83854 1.40399 0.360319 0 0 0 0.745186 0.122659 0.746571 
489 0.558862 2.27472 1.21428 0.51989 0 0 0 -0.640206 0.853628 -0.177989 
4 1.22243 1.72085 1.42291 0.315217 0 0 0 1.31367 -0.333613 0.53947 
19 1.14084 2.47425 0.4288 0.585354 0 0 0 -0.345483 1.10188 -0.529135 
336 0.479592 2.37428 1.18931 0.555283 0 0 0 -0.452052 0.940836 -0.147875 
469 1.04051 2.0173 1.12835 0.406965 0 0 0 -0.641965 0.936032 0.520286 
308 0.417199 2.38388 1.20765 0.568904 0 0 0 -0.422104 0.883026 -0.144399 
15 1.22459 1.8628 1.21611 0.350382 0 0 0 0.329904 0.109599 1.24265 
424 1.33272 2.62682 0.39719 0.618364 0 0 0 -0.0725564 1.29745 -0.162153 
7 1.3725 2.12814 0.709281 0.457154 0 0 0 -0.584563 1.11291 -1.16723 
174 1.29679 1.80757 1.23497 0.33218 0 0 0 0.573566 -0.124878 0.947037 
6 1.09485 1.81937 1.39358 0.350539 0 0 0 0.885871 -0.0217297 0.820721 
458 0.509361 2.15863 1.40969 0.503687 0 0 0 -0.692837 0.73289 -0.0556238 
433 1.53014 1.83935 0.985042 0.363362 0 0 0 0.317994 0.587864 0.0928789 
437 1.46749 2.04175 0.748716 0.434916 0 0 0 -0.337007 1.01698 -1.23258 
153 1.27972 1.81894 1.23332 0.335819 0 0 0 0.531932 -0.101076 1.0391 
286 1.48251 2.02988 0.753389 0.432205 0 0 0 -0.289586 0.996412 -1.23892 
195 0.960329 1.93964 1.32812 0.392721 0 0 0 -0.00442205 0.669681 0.65404 
399 1.51635 1.93623 0.866654 0.397928 0 0 0 -0.430167 0.218491 -1.13972 
354 0.503422 2.10104 1.49637 0.495889 0 0 0 -0.741129 0.714533 0.0203338 
372 1.50625 1.49957 1.49052 0.251512 0 0 0 -0.213119 0.0451067 0.264285 
164 0.232476 1.81997 1.47903 0.555411 0 0 0 -0.187222 -0.251005 -0.150809 
17 1.50459 1.49817 1.49392 0.25144 0 0 0 -0.188201 0.0475298 0.240399 
52 0.953882 1.86576 1.44846 0.38025 0 0 0 0.39532 0.462948 0.490594 
145 0.944093 3.68322 0.319781 0.962024 0 0 0 -0.0697434 0.942574 -0.136539 
256 0.558358 2.11603 1.73864 0.49638 0 0 0 -0.760257 0.519674 0.0905089 
495 1.04309 1.64387 1.68228 0.346148 0 0 0 0.726152 0.284231 0.134074 
248 0.86879 1.56289 1.93385 0.401679 0 0 0 -0.734312 0.724788 0.57459 
43 0.148922 2.31438 1.81883 0.62384 0 0 0 -0.186947 0.906582 0.491333 
76 0.906806 1.57911 1.88405 0.389078 0 0 0 -0.518297 0.6465 0.347101 
450 0.854484 1.64816 1.83468 0.397154 0 0 0 -0.4717 0.832941 0.328212 
166 1.19151 3.39112 1.71318 0.833436 0 0 0 0.311563 -0.187274 0.0847882 
70 0.975125 2.32047 2.30293 0.608764 0 0 0 0.374818 -1.55692 -1.46654 
199 -0.163988 2.48212 2.51655 0.815891 0 0 0 -0.22199 0.751752 0.499409 
223 -0.313707 3.51998 2.20262 1.0656 0 0 0 -0.343013 0.730761 0.185284 
201 -0.0322992 3.01378 1.68138 0.815636 0 0 0 -0.0813016 0.978498 0.267408 
243 0.900444 2.03174 2.39424 0.562186 0 0 0 0.102994 -1.11848 -1.35641 
191 0.401998 2.14627 2.61254 0.667707 0 0 0 0.537556 1.16208 0.686796 
204 0.494254 3.83159 2.13436 1.03917 0 0 0 0.0831294 0.663329 0.133735 
49 0.769423 1.87246 1.59107 0.417369 0 0 0 -0.388131 1.00501 0.294921 
160 0.914951 1.82327 1.54462 0.382718 0 0 0 0.276065 0.47048 0.187785 
207 0.7869 2.75747 2.50756 0.754782 0 0 0 0.726068 0.142236 -0.11693 
208 1.03099 2.39117 1.63949 0.518116 0 0 0 -1.29619 -4.15663 -2.32182 
209 0.529463 2.20088 1.58261 0.507844 0 0 0 -0.58325 0.77838 0.0883109 
447 0.197363 2.26424 2.14672 0.639118 0 0 0 0.0857637 1.11292 0.777254 
211 0.71117 3.69217 1.79547 0.943616 0 0 0 0.228614 0.561466 0.152181 
212 0.655025 3.2858 1.83325 0.812308 0 0 0 0.469018 0.508434 0.273216 
213 0.0678192 3.47689 2.25792 0.980737 0 0 0 -0.0321093 0.748327 0.229365 
490 1.46127 1.49806 1.53103 0.253856 0 0 0 1.2929 -0.71172 0.128774 
215 0.794992 3.88391 2.27497 1.06152 0 0 0 0.148997 0.502771 0.0716737 
184 1.50041 1.49456 1.50257 0.251402 0 0 0 -0.121624 0.0573723 0.171773 
55 0.266695 2.26504 1.5319 0.574506 0 0 0 -0.40446 0.671164 0.0856266 
505 0.361128 1.60465 2.26191 0.548758 0 0 0 -0.983793 0.180618 0.294882 
255 1.2108 2.6105 2.17653 0.668971 0 0 0 0.049062 -2.31912 -1.57539 
479 0.0168468 2.36861 2.04037 0.686483 0 0 0 -0.170032 0.920332 0.583059 
173 -0.12452 1.91621 1.83533 0.659825 0 0 0 -0.83779 -0.402872 -0.215143 
318 0.349884 1.78872 2.07952 0.534858 0 0 0 -0.899125 0.413729 0.360459 
54 0.43063 1.94053 1.80009 0.502876 0 0 0 -0.876051 0.602272 0.284619 
34 0.259996 2.18275 1.85537 0.577328 0 0 0 -0.27588 0.845136 0.514582 
172 0.165973 2.12749 1.58858 0.58257 0 0 0 -0.604348 0.131475 -0.0734943 
229 1.0813 2.3335 2.53381 0.661714 0 0 0 0.497572 -1.05236 -1.40596 
234 1.04408 1.64646 1.67795 0.345828 0 0 0 0.744609 0.277127 0.135623 
252 1.15749 1.61768 1.62227 0.318149 0 0 0 1.06406 -0.250234 0.524487 
235 1.04832 1.62 1.71022 0.345716 0 0 0 0.625752 0.289065 0.162153 
29 0.843077 1.72177 1.74556 0.396692 0 0 0 -0.259005 0.87797 0.216098 
513 0.660709 1.56777 2.09003 0.460309 0 0 0 -1.20306 0.51373 0.742869 
241 1.06009 1.60521 1.72045 0.343451 0 0 0 0.600388 0.25545 0.206907 
38 0.320526 1.7588 2.27449 0.566245 0 0 0 -0.693145 0.511555 0.471363 
35 0.252092 1.76159 2.40264 0.603923 0 0 0 -0.543972 0.556796 0.510688 
30 0.500224 1.66022 2.12087 0.499527 0 0 0 -1.10779 0.440832 0.496629 
239 -0.586844 2.64441 2.57886 0.974135 0 0 0 -0.577191 0.458324 0.298059 
233 0.904614 1.60662 1.8497 0.386758 0 0 0 -0.399539 0.669493 0.256631 
75 0.829573 1.66227 1.83747 0.403136 0 0 0 -0.564319 0.867691 0.365827 
219 1.50021 1.49439 1.50297 0.251406 0 0 0 -0.118445 0.0579299 0.16837 
167 1.5004 1.49455 1.50258 0.251402 0 0 0 -0.121486 0.0573964 0.171625 
466 1.5002 1.49437 1.503 0.251406 0 0 0 -0.118217 0.0579703 0.168126 
471 1.50021 1.49439 1.50297 0.251406 0 0 0 -0.118489 0.0579222 0.168417 
36 1.50029 1.49445 1.50282 0.251404 0 0 0 -0.119664 0.0577157 0.169676 
278 1.50195 1.4959 1.49935 0.251391 0 0 0 -0.146776 0.0532018 0.198343 
37 1.50089 1.49497 1.50157 0.251396 0 0 0 -0.12954 0.0560787 0.18011 
58 1.50159 1.49559 1.5001 0.251391 0 0 0 -0.14103 0.0542077 0.192201 
47 1.07811 1.75571 1.49969 0.343429 0 0 0 1.02028 -0.136312 0.347804 
477 1.50167 1.49566 1.49993 0.251391 0 0 0 -0.14225 0.0539185 0.19361 
355 1.50134 1.49537 1.50062 0.251392 0 0 0 -0.136859 0.0547926 0.187943 
334 1.50104 1.49511 1.50125 0.251394 0 0 0 -0.131956 0.0556059 0.182763 
476 1.50097 1.49505 1.50139 0.251395 0 0 0 -0.130884 0.055786 0.181627 
179 1.50089 1.49498 1.50157 0.251396 0 0 0 -0.129476 0.0560235 0.180134 
222 1.50059 1.49472 1.50218 0.251399 0 0 0 -0.124636 0.0568502 0.174987 
302 1.50066 1.49477 1.50204 0.251398 0 0 0 -0.125723 0.0566631 0.176145 
176 1.50066 1.49478 1.50204 0.251398 0 0 0 -0.125784 0.0566528 0.176209 
225 0.922805 2.39725 3.41234 0.888286 0 0 0 0.373676 0.376988 0.311786 
106 0.302737 2.02714 3.35322 0.857237 0 0 0 0.120772 0.569715 0.780074 
249 -0.498555 2.47087 2.81671 0.959169 0 0 0 -0.536708 0.431532 0.394124 
228 -0.108654 3.23445 3.60257 1.22453 0 0 0 -0.281631 0.494527 0.579475 
254 -0.486114 2.76307 3.51219 1.1744 0 0 0 -0.471151 0.385426 0.584942 
230 0.506969 3.7114 2.9996 1.13779 0 0 0 0.0269007 0.554997 0.264717 
231 0.5699 2.27619 3.57917 0.935085 0 0 0 0.214643 0.457903 0.68614 
242 0.544172 2.40527 3.25163 0.8569 0 0 0 0.388547 0.60592 0.516836 
246 -0.356548 2.01123 3.52011 1.04152 0 0 0 -0.460436 0.227392 0.669543 
464 0.277937 1.66566 2.73314 0.660814 0 0 0 -0.253249 0.600722 0.673394 
205 0.789499 1.62296 3.04756 0.674935 0 0 0 0.58877 0.903087 0.639748 
251 0.368725 3.45846 3.03809 1.07461 0 0 0 0.0473211 0.574815 0.33175 
105 -0.172729 1.52945 3.72935 1.0418 0 0 0 -0.383891 0.0755036 0.777718 
250 0.796412 3.13053 3.3993 1.05192 0 0 0 0.168003 0.346676 0.318544 
244 1.25516 2.37352 3.45388 0.901674 0 0 0 0.225143 0.19416 0.0630241 
240 -0.316573 3.69298 3.4091 1.33893 0 0 0 -0.398575 0.574282 0.443181 
257 3.62636 1.21803 -0.278445 1.02737 0 0 0 0.662295 -0.0959289 -0.447612 
441 1.86626 1.15929 0.0293837 0.661003 0 0 0 -0.675402 -0.369685 0.601513 
288 3.6737 0.857924 0.0530756 0.991889 0 0 0 0.717094 -0.235547 -0.334328 
260 3.13229 0.827986 -0.609107 1.0191 0 0 0 0.333842 -0.274308 -0.675074 
261 3.52397 -0.100119 0.154684 1.093 0 0 0 0.50273 -0.634767 -0.330552 
276 2.55309 0.780204 -0.320843 0.838312 0 0 0 -0.251421 -0.566754 -0.547738 
427 2.22869 1.08024 0.208781 0.63271 0 0 0 -0.822429 -0.71399 -0.101829 
285 1.77615 0.218843 -0.0315159 0.864556 0 0 0 -0.185626 0.145304 0.517831 
436 2.35116 1.4222 -0.0512609 0.678324 0 0 0 -0.406523 -0.673937 -0.734158 
266 2.66024 0.936353 -0.843416 1.00717 0 0 0 0.0635743 -0.223764 -0.78396 
267 3.03037 0.608859 -0.0398035 0.865178 0 0 0 0.15906 -0.643748 -0.506129 
293 2.10192 1.07615 -0.870518 0.957151 0 0 0 -0.17411 -0.223618 -0.718738 
269 2.55512 0.949702 -0.706876 0.943086 0 0 0 -0.0495115 -0.288846 -0.743549 
270 2.46766 0.612229 -0.432205 0.891625 0 0 0 -0.223507 -0.523981 -0.496716 
271 3.23129 -0.579423 -0.176074 1.23192 0 0 0 0.360717 -0.692751 -0.37633 
272 1.64671 0.823008 0.128486 0.702441 0 0 0 -0.205739 0.701007 1.55317 
284 2.04211 0.324123 -0.432476 0.936208 0 0 0 -0.243789 -0.33518 -0.14903 
290 2.38962 -0.690831 -0.21417 1.17656 0 0 0 0.0652762 -0.547433 -0.230045 
291 3.16121 0.334529 -0.492717 1.06554 0 0 0 0.325713 -0.499009 -0.575623 
294 3.06872 0.327594 0.682216 0.794005 0 0 0 0.101737 -0.942253 -0.433138 
23 1.96012 1.40534 1.23483 0.34908 0 0 0 -0.599514 -0.217303 0.0857696 
453 2.93383 0.913309 1.3622 0.60281 0 0 0 0.732853 -0.100547 0.13246 
18 1.90809 1.36094 1.34066 0.333038 0 0 0 -1.25071 0.0128566 0.295334 
298 2.04667 1.34271 1.25147 0.36717 0 0 0 -0.54038 -0.421735 0.0781921 
299 2.9192 0.965588 1.15319 0.600931 0 0 0 0.695809 -0.293976 -0.119128 
451 2.1258 1.28905 1.26587 0.385298 0 0 0 -0.254699 -0.637426 -0.074651 
301 3.70181 0.535438 1.4268 0.900407 0 0 0 0.879143 -0.217156 0.0446092 
264 2.45149 0.85554 0.620131 0.597319 0 0 0 -0.523694 -0.843216 -0.416921 
445 2.28053 1.21987 1.24788 0.423469 0 0 0 0.555522 -0.751833 -0.30722 
304 2.1973 1.11981 1.14346 0.431074 0 0 0 2.27672 2.78773 2.37302 
41 2.8642 0.991069 0.872289 0.609241 0 0 0 0.493122 -0.66986 -0.497207 
306 1.99421 1.20525 1.4957 0.358721 0 0 0 -1.5516 -0.17542 0.0554868 
307 2.0721 1.04491 1.19271 0.425507 0 0 0 3.78009 7.11506 5.71642 
277 2.64746 1.39934 0.721811 0.548756 0 0 0 0.848678 -0.16487 -0.410671 
309 3.42367 0.409372 1.28612 0.825451 0 0 0 0.705411 -0.507582 -0.108061 
310 2.04762 -0.00926388 1.06794 0.725923 0 0 0 -0.566302 0.412264 0.0785179 
311 2.88347 1.04323 0.925483 0.602772 0 0 0 0.627639 -0.456678 -0.367851 
341 2.75568 1.06759 0.733264 0.594091 0 0 0 0.36333 -0.793533 -0.66817 
432 2.74184 1.44695 0.883124 0.554667 0 0 0 0.863061 0.249318 0.0388623 
161 2.00056 1.43223 1.16426 0.363504 0 0 0 -0.0699279 -0.338715 -0.117076 
182 2.69527 1.32605 0.523287 0.596682 0 0 0 0.459744 -0.519056 -0.622887 
316 2.92723 -0.308176 0.756851 0.924407 0 0 0 0.0547546 -0.866015 -0.307155 
317 3.34936 0.0148025 0.768081 0.924394 0 0 0 0.394659 -0.767691 -0.282414 
275 3.40929 -0.820398 0.709985 1.19499 0 0 0 0.430008 -0.788068 -0.184202 
33 2.6597 0.845102 1.48871 0.537868 0 0 0 0.731295 -0.584702 0.0577317 
320 1.86542 0.0375156 0.931892 0.734208 0 0 0 -0.348842 1.04573 0.599288 
72 2.19326 1.16819 1.39319 0.403131 0 0 0 -0.136029 -0.769838 -0.0247063 
265 1.93826 -0.369083 0.732908 0.882172 0 0 0 -0.204939 0.0533077 0.157735 
501 2.42644 1.15685 1.21413 0.460773 0 0 0 0.925169 -0.612807 -0.326007 
56 2.57031 0.703002 0.532532 0.656285 0 0 0 -0.587875 -1.04466 -0.472259 
325 2.33715 1.10414 1.34222 0.440658 0 0 0 0.761468 -0.601079 0.0306356 
287 2.41139 -0.366529 0.555641 0.915701 0 0 0 -0.190797 -0.554718 -0.138689 
327 3.36119 1.24899 1.48976 0.729279 0 0 0 0.602896 0.610949 0.465254 
329 1.95982 0.20885 1.14448 0.655291 0 0 0 -0.514504 1.36126 0.567932 
428 2.78132 0.813921 1.48194 0.571733 0 0 0 0.69675 -0.434543 0.0856914 
31 2.45658 0.72052 0.487637 0.649592 0 0 0 -0.729162 -0.862228 -0.283711 
283 1.78565 0.844199 0.902876 0.52997 0 0 0 2.21318 7.11494 5.72766 
326 2.49869 1.10645 1.22629 0.479723 0 0 0 0.917794 -0.587004 -0.275377 
470 3.20793 1.21786 1.38465 0.675376 0 0 0 0.604972 0.650667 0.479891 
313 2.78303 0.837267 1.4233 0.569369 0 0 0 0.688861 -0.469724 0.0305287 
457 1.88297 1.3176 1.42381 0.328059 0 0 0 -1.57504 0.172954 0.325232 
455 2.09928 1.46729 1.04027 0.396734 0 0 0 0.737341 -0.567052 -0.644774 
422 2.35312 1.29627 1.08161 0.446569 0 0 0 1.03427 -0.563819 -0.623536 
456 2.55984 0.341746 1.38464 0.62805 0 0 0 -0.349848 -1.08264 -0.530398 
474 1.85408 1.41999 1.30336 0.322767 0 0 0 -0.756346 0.168416 0.00892305 
300 3.62896 -0.22231 1.47508 1.02441 0 0 0 0.628928 -0.628296 -0.0936701 
478 2.35706 1.45327 0.867216 0.46621 0 0 0 1.20537 -0.344409 -0.812668 
340 1.70264 1.43603 1.41148 0.286354 0 0 0 -0.968789 0.606779 -0.388393 
281 1.70783 0.00683592 0.314205 0.851727 0 0 0 -0.0687005 0.525064 0.736434 
333 2.95212 0.6258 2.57619 0.753145 0 0 0 0.71319 0.398759 0.502317 
323 1.96024 1.06257 1.74773 0.38267 0 0 0 -0.574082 -0.518623 -0.531173 
335 2.66602 0.847266 2.44811 0.646091 0 0 0 0.592474 0.832686 0.530789 
491 1.78688 1.17972 1.7055 0.33807 0 0 0 -0.880315 0.101731 -0.516143 
337 2.05362 -0.945712 1.91696 0.993524 0 0 0 -0.0302152 -0.872235 -0.198418 
338 3.03181 0.240151 2.16305 0.772451 0 0 0 0.621386 -0.400473 0.185038 
339 1.79311 0.243006 1.69179 0.598002 0 0 0 -0.16238 1.31183 -0.0847571 
370 1.65925 -0.976638 2.59511 1.03459 0 0 0 -0.00371441 -0.913971 -0.00498004 
452 2.42607 0.244143 1.74989 0.624611 0 0 0 -0.262874 -1.04637 -0.489001 
295 2.09993 0.57422 2.39618 0.559708 0 0 0 0.422679 -0.554882 0.449838 
296 2.19624 1.05237 1.56909 0.416344 0 0 0 0.0525532 -0.767439 0.00180277 
344 2.37282 0.960811 1.94511 0.49317 0 0 0 0.0947025 -0.747982 -0.194917 
345 3.40707 1.06475 2.12277 0.795705 0 0 0 0.617739 0.513881 0.408959 
346 2.01392 0.960283 1.86444 0.415938 0 0 0 0.212641 -0.860622 0.00209456 
364 1.68475 1.12266 1.87406 0.355485 0 0 0 0.0337654 -0.643363 -0.441382 
348 3.88721 1.46542 2.1892 0.98417 0 0 0 0.623126 0.145077 0.180694 
331 2.11756 0.995956 1.72374 0.41584 0 0 0 0.079606 -0.764219 -0.0600385 
350 2.3602 -0.0945932 1.61191 0.719201 0 0 0 -0.476427 -0.847096 -0.611055 
351 1.7726 1.23309 1.64011 0.323703 0 0 0 -1.06185 0.264519 -0.192903 
352 2.46184 0.66852 2.26259 0.582329 0 0 0 0.676373 0.0572814 0.582589 
363 2.55574 -0.637609 2.03573 0.923294 0 0 0 0.0626225 -0.993182 -0.189391 
45 1.68419 1.14929 1.83489 0.346041 0 0 0 -0.0692377 -0.452113 -0.387798 
365 1.6938 0.222915 2.3901 0.619912 0 0 0 -0.246708 -1.20416 -0.522411 
356 3.26093 1.43478 2.49167 0.819985 0 0 0 0.0772414 0.442801 0.108644 
357 2.16288 1.08652 2.24833 0.502372 0 0 0 -1.19513 -1.26625 -1.34781 
358 2.14802 0.666397 2.60497 0.595296 0 0 0 0.560609 0.181417 0.638801 
359 3.56756 -0.600341 2.21029 1.1353 0 0 0 0.571199 -0.671612 0.0263371 
360 1.95003 0.186207 2.18313 0.617074 0 0 0 -0.299099 -1.06725 -0.54836 
361 2.06205 -0.717421 1.53365 0.916865 0 0 0 -0.165978 -0.667962 -0.288174 
362 2.41713 0.274363 1.96776 0.621368 0 0 0 -0.0196181 -1.05119 -0.266819 
460 1.9702 1.14592 1.60674 0.364138 0 0 0 -1.33181 -0.186554 -0.368145 
303 2.32215 1.05426 1.64056 0.44636 0 0 0 -0.243892 -1.64998 -0.782173 
393 1.97008 -0.328908 2.07154 0.770045 0 0 0 -0.341786 -0.895117 -0.523343 
324 2.45376 0.691635 1.9828 0.539926 0 0 0 0.658969 -0.447204 0.399905 
312 3.14154 1.31986 1.96637 0.699456 0 0 0 -0.035586 0.799513 0.32618 
375 1.7987 0.918476 2.09439 0.426671 0 0 0 0.572689 -1.16243 0.509531 
459 2.65914 0.457169 1.80806 0.61256 0 0 0 0.369614 -0.819301 -0.0486153 
62 1.74291 1.0577 1.9291 0.377705 0 0 0 0.103707 -0.931316 -0.415034 
380 2.33974 0.664182 2.34271 0.57309 0 0 0 0.614361 -0.00929903 0.600995 
485 1.68786 1.16813 1.80446 0.339539 0 0 0 -0.171954 -0.322833 -0.330944 
510 2.07899 0.979146 1.78211 0.41585 0 0 0 0.124319 -0.791797 -0.0553838 
497 1.81804 0.609494 2.4823 0.542847 0 0 0 0.301723 -0.771567 0.409481 
347 1.77136 -0.88125 1.97401 0.96273 0 0 0 -0.0895691 -0.786544 -0.247517 
377 3.60722 1.30345 2.56839 0.933677 0 0 0 0.514268 0.272031 0.2389 
314 2.71489 0.746785 1.7233 0.570731 0 0 0 0.739725 -0.292751 0.267055 
388 1.75471 1.18522 1.72429 0.334978 0 0 0 -0.686865 0.0357497 -0.442468 
315 2.63579 0.314022 1.72366 0.638915 0 0 0 0.0537938 -1.04202 -0.32624 
472 2.09292 0.870502 1.94172 0.448089 0 0 0 0.491797 -0.963374 0.346378 
483 1.82858 0.756608 2.34806 0.49368 0 0 0 0.439509 -0.870008 0.607223 
481 2.18418 0.922726 1.7832 0.44124 0 0 0 0.45051 -0.865532 0.161438 
53 1.96945 0.837139 2.09145 0.454924 0 0 0 0.523709 -1.05331 0.546434 
484 1.59689 0.907456 2.25909 0.443743 0 0 0 0.520911 -1.21091 0.880363 
384 3.31989 -0.64217 2.68997 1.13434 0 0 0 0.468078 -0.689845 0.149538 
79 1.6855 1.09274 1.92023 0.366689 0 0 0 0.137843 -0.883421 -0.419642 
492 1.57912 1.14676 1.92413 0.353493 0 0 0 0.285157 -0.824421 -0.0690159 
102 1.57313 0.883426 2.31386 0.456285 0 0 0 0.432932 -1.15595 0.886211 
353 2.07857 1.26352 2.6402 0.588628 0 0 0 -0.784802 0.435477 -1.26497 
462 2.05824 1.16867 1.5 0.374844 0 0 0 -1.12475 -0.441572 -0.00754018 
366 3.1868 0.39456 3.69955 1.1194 0 0 0 0.427863 -0.0589655 0.661266 
89 1.72107 0.843353 2.90212 0.612806 0 0 0 0.33372 0.563334 0.677298 
368 3.28496 -0.261771 3.55746 1.21014 0 0 0 0.427477 -0.424274 0.520487 
369 3.64677 0.246241 3.45703 1.1909 0 0 0 0.60828 -0.163267 0.482327 
378 2.68147 0.577423 2.86986 0.757388 0 0 0 0.589627 0.356546 0.599858 
389 2.14752 0.922795 3.36327 0.790329 0 0 0 0.301181 0.639915 0.697762 
95 1.59937 0.244864 3.84568 0.991721 0 0 0 0.0260044 -0.174657 0.844435 
373 1.65834 -0.0884464 2.8068 0.76713 0 0 0 -0.127081 -0.983977 -0.0238789 
390 2.59698 1.19522 3.71532 0.975793 0 0 0 0.204656 0.334103 0.633333 
86 1.82023 1.15321 3.19896 0.705228 0 0 0 0.23859 0.99935 0.374363 
376 2.3167 1.0375 3.19032 0.75819 0 0 0 0.302556 0.831206 0.47407 
391 3.65085 0.025407 3.455 1.22491 0 0 0 0.591532 -0.276207 0.462944 
236 1.54662 0.573478 2.76919 0.603725 0 0 0 0.00803128 -0.614122 0.469233 
379 2.28479 0.0643988 2.74732 0.75738 0 0 0 0.197696 -0.711342 0.263062 
392 3.16306 0.164084 2.91473 0.933105 0 0 0 0.561893 -0.18114 0.368114 
381 3.3365 -0.18416 3.45155 1.17626 0 0 0 0.468472 -0.388438 0.486812 
115 1.62184 0.85672 2.99927 0.635534 0 0 0 0.269762 0.566709 0.738461 
386 3.19115 1.2429 3.66152 1.08251 0 0 0 0.343955 0.202021 0.542291 
97 1.83971 0.614678 2.73121 0.599046 0 0 0 0.341794 -0.192328 0.59067 
385 2.36353 -0.0875363 3.34841 0.945009 0 0 0 0.184323 -0.438183 0.55192 
413 2.04561 3.55203 0.256289 0.93759 0 0 0 0.0167893 0.826888 0.106736 
396 3.29247 3.22368 0.0353812 1.07479 0 0 0 0.396769 0.490328 -0.151139 
417 1.86394 3.11944 -0.421513 0.938943 0 0 0 0.0259773 0.635544 -0.497448 
398 3.25695 2.67494 0.143853 0.921568 0 0 0 0.465744 0.363363 -0.0248141 
418 3.60252 2.06812 -0.0315355 0.979931 0 0 0 0.668199 0.103295 -0.267782 
400 3.51105 2.53616 -0.0693551 1.01263 0 0 0 0.566684 0.207839 -0.261324 
420 1.73365 2.37768 -0.458354 0.802554 0 0 0 0.0173908 0.149982 -0.82201 
414 2.021 2.40555 -0.00566924 0.688312 0 0 0 0.194059 0.747623 -0.38626 
416 2.84933 3.42505 -0.151607 1.0695 0 0 0 0.207379 0.613233 -0.261578 
404 3.31269 3.00275 -0.201164 1.07257 0 0 0 0.42479 0.366721 -0.332247 
415 3.39604 3.43406 0.0890929 1.15433 0 0 0 0.404628 0.538805 -0.15142 
322 1.89507 1.81396 -0.137573 0.663459 0 0 0 -0.322273 -0.680419 -0.736608 
407 3.49972 1.68272 -0.386585 1.01346 0 0 0 0.577621 0.0301522 -0.502845 
408 2.0203 1.93863 -0.607171 0.832001 0 0 0 -0.0249544 -0.176069 -0.869694 
202 2.56612 1.60662 0.174912 0.64414 0 0 0 0.242831 -0.252872 -0.704199 
410 3.59068 2.9862 -0.00984858 1.11004 0 0 0 0.546413 0.338203 -0.221809 
411 1.93646 3.67858 -0.355086 1.08848 0 0 0 -0.0202915 0.765234 -0.418149 
289 2.40056 1.93837 0.244716 0.61426 0 0 0 0.514149 0.450164 -0.390154 
262 1.74618 2.1512 0.279806 0.555163 0 0 0 0.0127827 0.577703 -0.810591 
12 2.05402 1.71887 0.758057 0.43805 0 0 0 1.01324 -0.0353306 -1.3154 
419 2.13205 2.72408 0.899572 0.661816 0 0 0 -0.342835 -0.253254 0.907388 
406 2.42478 3.61752 0.659937 0.970484 0 0 0 -0.0178864 0.633407 0.3258 
5 1.83386 1.60258 1.06899 0.350517 0 0 0 0.518399 -0.00484131 -0.439315 
282 2.10937 1.7138 0.725218 0.451011 0 0 0 1.02975 -0.00762494 -1.22515 
332 2.94219 1.87249 1.48281 0.658021 0 0 0 -1.34648 0.0501069 0.272373 
273 1.97811 2.02245 0.498357 0.505722 0 0 0 0.418274 0.715755 -0.889829 
465 1.55316 1.80293 1.02061 0.352749 0 0 0 0.423783 0.413222 0.116721 
473 2.46733 1.59649 0.666439 0.518457 0 0 0 0.967348 0.00930357 -0.46204 
431 2.32607 2.05446 0.519978 0.560175 0 0 0 0.724128 0.993837 0.163014 
14 1.55419 1.93328 0.828399 0.405061 0 0 0 0.0452437 0.830495 -0.972507 
292 1.85024 1.93215 0.623219 0.458605 0 0 0 0.52036 0.633286 -1.45587 
434 2.75644 2.12253 0.776647 0.640349 0 0 0 0.276016 0.828513 0.976954 
435 2.2755 2.78878 1.36395 0.724162 0 0 0 -1.28362 -1.59749 0.0353499 
449 1.78491 1.65285 1.04033 0.351591 0 0 0 0.620282 0.0967052 -0.444063 
397 2.83484 3.18347 0.751303 0.894629 0 0 0 -0.0118709 0.462724 0.500414 
503 1.69432 1.53291 1.28279 0.296974 0 0 0 0.0872271 0.668222 -1.17524 
439 2.23606 1.68881 0.721629 0.470067 0 0 0 0.997559 -0.149414 -1.01183 
440 3.40613 2.58475 1.18372 0.890001 0 0 0 0.0148357 0.225986 0.34153 
321 3.75634 1.95026 1.30416 0.908663 0 0 0 0.522762 0.204481 0.23508 
442 2.01406 1.55506 0.987749 0.389564 0 0 0 0.846811 -0.376437 -0.680739 
280 3.36551 1.9208 0.844512 0.776132 0 0 0 0.563192 0.495336 0.460953 
409 2.06941 2.09254 1.00966 0.487109 0 0 0 -3.00203 -4.83795 -2.5085 
132 1.60203 2.67404 1.23181 0.597769 0 0 0 -0.896588 -2.87787 -0.340652 
412 3.37692 2.95078 0.915979 0.958065 0 0 0 0.185467 0.354265 0.329063 
467 2.39565 1.7078 0.607568 0.518873 0 0 0 0.911751 0.184932 -0.454147 
475 1.63585 1.75674 1.01821 0.351079 0 0 0 0.572165 0.320064 -0.169952 
297 1.88583 2.11884 0.468277 0.516632 0 0 0 0.26966 0.900495 -0.811036 
258 1.88163 2.07848 0.490097 0.505798 0 0 0 0.292769 0.819159 -0.959408 
21 1.95023 1.79309 0.737008 0.43378 0 0 0 0.835066 0.192431 -1.45182 
155 1.57049 2.57306 1.03081 0.556287 0 0 0 -0.930599 -1.97372 -0.346104 
152 1.64318 3.26844 0.896389 0.775454 0 0 0 0.145061 0.320253 0.577036 
330 3.25835 2.11222 1.26291 0.765142 0 0 0 -0.227353 0.346559 0.517386 
50 2.1097 2.01879 0.461302 0.528909 0 0 0 0.523378 0.760792 -0.524198 
11 1.82699 1.65768 0.998596 0.364154 0 0 0 0.726224 0.0561048 -0.479172 
221 3.06292 2.07823 0.892998 0.704356 0 0 0 0.191771 0.675907 0.805536 
74 3.04859 1.89687 0.613134 0.697117 0 0 0 0.733972 0.698631 0.48136 
446 2.36992 1.57697 0.416048 0.551069 0 0 0 0.338439 -0.381177 -0.777628 
395 2.2081 3.17315 0.332802 0.823201 0 0 0 0.0906872 0.789292 0.380098 
259 2.61539 1.55377 0.447529 0.589884 0 0 0 0.615133 -0.134937 -0.484157 
421 3.45212 3.42162 0.546129 1.11866 0 0 0 0.356778 0.514225 0.0955118 
454 1.56662 1.58654 1.3165 0.280868 0 0 0 0.559579 0.530503 -1.02792 
46 1.85723 1.59487 1.06019 0.354938 0 0 0 0.53927 -0.0521724 -0.419134 
342 1.94864 1.51664 1.09144 0.362942 0 0 0 0.365691 -0.248118 -0.311596 
468 1.84502 1.61503 1.04263 0.356898 0 0 0 0.605238 -0.0199537 -0.435451 
3 1.71463 1.71188 1.01634 0.352864 0 0 0 0.642097 0.223098 -0.361528 
305 1.96778 2.68474 0.388909 0.661754 0 0 0 0.243367 1.21754 0.507506 
197 2.25482 2.31208 0.348897 0.621998 0 0 0 0.537169 1.21493 0.278889 
405 2.37908 2.74229 0.381566 0.727042 0 0 0 0.265677 0.922402 0.602287 
401 2.75364 3.61332 0.3324 1.03902 0 0 0 0.115534 0.715405 0.107308 
13 1.5531 1.67704 1.20139 0.307972 0 0 0 0.785971 0.492029 -0.794031 
387 2.43194 1.6889 2.17914 0.610138 0 0 0 -3.33216 -1.77689 -2.95711 
482 2.5149 2.75823 2.04881 0.826893 0 0 0 -1.56766 -1.33385 -0.988749 
463 2.97197 2.60117 1.62743 0.818336 0 0 0 -1.07671 -0.446853 -0.0860575 
394 2.6422 1.6578 2.44455 0.691176 0 0 0 -1.51695 -0.0733891 -1.27238 
319 3.26548 1.82336 1.59356 0.744788 0 0 0 -0.412055 0.38833 0.342387 
500 3.11264 2.32838 2.11934 0.848987 0 0 0 -0.956491 -0.38304 -0.424585 
487 2.72998 2.14153 2.33658 0.768571 0 0 0 -1.73813 -0.883101 -1.23831 
502 2.94168 3.1234 2.45848 1.05467 0 0 0 -0.570298 -0.28846 -0.388165 
499 3.04774 2.90836 2.592 1.0427 0 0 0 -0.53226 -0.292094 -0.370333 
429 3.27855 2.24372 1.51449 0.807219 0 0 0 -0.495874 0.0821249 0.239966 
504 1.83962 1.98457 2.30368 0.597595 0 0 0 -3.80634 -5.33891 -5.67505 
383 3.18367 1.5004 2.61693 0.827665 0 0 0 -0.0343569 0.389493 0.016413 
99 1.58531 1.59036 3.49473 0.813435 0 0 0 0.149991 0.61932 0.283841 
382 2.94579 1.66321 3.32611 0.956233 0 0 0 0.0216965 0.231185 0.173938 
374 2.17946 1.70018 3.15937 0.782233 0 0 0 -0.408956 0.359887 -0.57517 
367 2.15103 1.73257 3.16272 0.783982 0 0 0 -0.427379 0.315455 -0.6177 
512 1.68195 3.18105 2.91329 0.986989 0 0 0 -0.1818 -0.379636 -0.491423 
498 3.03601 3.15207 3.07829 1.20085 0 0 0 -0.264324 -0.14057 -0.154737 
508 2.36177 2.26393 2.93279 0.84866 0 0 0 -1.00136 -0.572099 -1.0411 
488 2.76679 3.03525 3.02365 1.10813 0 0 0 -0.447038 -0.241959 -0.294057 
100 1.61345 1.74365 3.65537 0.886139 0 0 0 0.0867497 0.432638 0.364272 
245 1.53524 1.87341 3.55191 0.862725 0 0 0 0.113813 0.405927 0.174801 
ITEM: TIMESTEP
740904
ITEM: NUMBER OF ATOMS
512
ITEM: BOX BOUNDS ss ss ss
-8.1988304040437454e-01 3.8875120101141034e+00
-9.7693552394909078e-01 3.9476017366228966e+00
-9.1281994132074906e-01 3.9096273972560476e+00
ITEM: ATOMS id x y z width_SPH x_COM y_COM z_COM vx vy vz 
263 1.46291 0.886579 -0.255345 0.797053 0 0 0 -0.18441 0.0652895 0.617624 
403 1.47177 1.28214 -0.572762 0.836225 0 0 0 -0.29616 -0.417883 -0.281634 
25 0.482319 0.121024 0.00276689 1.02263 0 0 0 0.43101 0.529147 0.569924 
279 1.31897 1.03444 -0.485001 0.850873 0 0 0 -0.189071 -0.165787 0.10686 
402 1.48864 1.3275 -0.648021 0.856457 0 0 0 -0.281507 -0.40992 -0.421846 
16 0.283961 0.665575 0.148008 0.902207 0 0 0 0.586516 0.592036 0.780342 
8 0.548839 0.851555 0.116505 0.825734 0 0 0 0.734399 0.682644 1.15145 
131 1.20616 1.40821 0.665961 0.517643 0 0 0 4.79975 6.68282 7.38284 
217 -0.458204 1.32447 1.07566 0.827556 0 0 0 -0.140274 -0.412285 -0.139913 
2 -0.191098 0.578912 0.37822 0.976756 0 0 0 0.26941 0.35532 0.381133 
24 0.94729 0.538036 0.655873 0.732048 0 0 0 1.68981 2.78503 2.58747 
129 -0.0272459 1.21936 0.47186 0.809152 0 0 0 0.46488 -0.111332 0.504339 
224 -0.038188 1.2323 1.09789 0.718729 0 0 0 1.0008 -0.0777702 0.26719 
78 0.717457 0.416243 1.44599 0.68432 0 0 0 2.08585 2.9472 0.725728 
67 0.0566704 0.170696 1.35969 0.867436 0 0 0 0.646804 0.692225 0.00583018 
22 1.10959 0.782219 0.476494 0.689904 0 0 0 1.54593 2.7142 3.19738 
125 0.0919142 1.14992 0.334139 0.817639 0 0 0 0.528949 0.0431946 0.639709 
10 0.362721 0.340195 0.337042 0.920796 0 0 0 0.743176 0.865769 0.897092 
68 -0.629252 1.10997 1.49534 0.872297 0 0 0 -0.401531 -0.268312 -0.303203 
116 -0.467655 -0.224831 2.43602 1.06883 0 0 0 -0.510467 -0.413939 -0.0581872 
39 1.33122 1.26247 1.96202 0.349425 0 0 0 -0.24844 -0.393371 0.561684 
57 -0.136592 -0.184235 1.60661 0.978297 0 0 0 0.0862743 0.0850707 -0.196886 
111 1.47854 0.66155 1.94945 0.479329 0 0 0 3.06037 4.58021 2.61041 
59 0.836247 1.31492 2.27396 0.459124 0 0 0 -1.05546 -0.0553395 0.985156 
183 0.484325 1.33661 2.61271 0.586941 0 0 0 -0.67548 -0.0649829 0.479693 
80 1.06798 1.32418 2.08946 0.394886 0 0 0 -0.907533 0.0277181 0.821365 
103 -0.666441 -0.192844 2.21681 1.11079 0 0 0 -0.541743 -0.319404 -0.0821415 
63 -0.481043 0.335769 1.67077 0.939104 0 0 0 -0.201803 0.0269427 -0.274254 
64 0.692249 1.25095 1.95537 0.468153 0 0 0 1.81293 3.52192 2.44696 
65 1.41229 1.12564 2.09166 0.384749 0 0 0 0.113609 -1.0788 0.468894 
66 0.536315 -0.153306 1.5622 0.845281 0 0 0 0.649407 0.683611 -0.164186 
27 1.41507 1.3286 1.8037 0.309623 0 0 0 -0.411831 -0.39435 1.39316 
343 1.489 1.48456 1.52633 0.252367 0 0 0 0.0620421 0.0889975 -0.0237174 
69 0.578522 1.29327 2.42892 0.533069 0 0 0 -0.970097 -0.283454 0.404236 
82 0.155984 0.760108 1.61801 0.699978 0 0 0 1.16218 0.799949 -0.325317 
71 0.319316 -0.026869 1.59759 0.843496 0 0 0 0.618187 0.613287 -0.223042 
509 1.47935 1.47659 1.54574 0.254225 0 0 0 0.182479 0.0866056 -0.118284 
226 0.739732 1.28996 2.43123 0.504115 0 0 0 -0.860409 -0.174967 0.698021 
511 1.41956 1.17053 2.0196 0.366041 0 0 0 0.0941071 -0.909302 0.297011 
118 0.968943 0.167105 2.50852 0.690233 0 0 0 -0.380084 -0.897088 -0.669379 
26 1.04233 1.47276 1.9123 0.366372 0 0 0 -0.426071 0.305029 0.347876 
77 0.568466 0.474343 2.28659 0.658593 0 0 0 -0.193298 -0.487515 -0.883486 
92 0.62797 -0.707367 2.33072 0.983498 0 0 0 -0.0562679 -0.633954 -0.23183 
107 0.249775 0.442639 2.19695 0.724248 0 0 0 -0.0885056 -0.275277 -0.803402 
122 1.04948 0.384908 2.37968 0.613125 0 0 0 -0.286967 -0.858491 -0.736302 
94 1.18309 0.612676 2.42577 0.54558 0 0 0 -0.172922 -1.01248 -0.0156953 
247 0.952673 1.10214 2.48173 0.497484 0 0 0 -0.61201 -0.52294 0.847426 
73 1.44161 0.79444 2.54928 0.516403 0 0 0 0.060482 -0.778624 0.6852 
87 0.756021 0.283342 2.07374 0.669736 0 0 0 0.352309 0.328705 -0.88605 
84 -0.667095 1.05545 2.40897 0.902824 0 0 0 -0.847684 -0.267149 -0.18099 
507 1.18215 1.1312 2.24889 0.425766 0 0 0 -0.485921 -0.575637 1.24137 
169 1.39493 0.991808 2.28372 0.436523 0 0 0 0.175126 -1.07745 1.111 
85 0.770572 -0.606561 1.99598 0.927262 0 0 0 0.0904851 -0.341415 -0.356414 
371 1.36018 0.868797 2.51444 0.500145 0 0 0 -0.0252867 -0.821038 0.806237 
448 0.609016 1.28905 1.89854 0.483833 0 0 0 1.71751 3.16736 1.99166 
328 0.993102 0.774302 2.21875 0.511075 0 0 0 0.604154 0.59191 0.631535 
112 0.973464 1.266 2.22438 0.433456 0 0 0 -0.947574 -0.0536042 1.19698 
40 0.54248 1.29074 2.4296 0.540916 0 0 0 -0.99457 -0.331575 0.322567 
496 1.48485 1.48105 1.5348 0.253068 0 0 0 0.119678 0.0926661 -0.0759614 
42 1.22246 1.29781 2.00115 0.362849 0 0 0 -0.55745 -0.189196 0.500961 
237 1.11561 1.25582 2.14124 0.402219 0 0 0 -0.810616 -0.184025 0.983624 
494 1.38749 1.19012 2.01749 0.364346 0 0 0 -0.0151422 -0.801799 0.357101 
181 0.316511 1.14154 2.56082 0.627433 0 0 0 -0.957871 -0.732035 -0.0854621 
81 -0.121093 -0.621639 2.09638 1.08733 0 0 0 -0.197008 -0.422682 -0.13128 
83 1.18469 -0.506676 2.52988 0.870693 0 0 0 -0.142368 -0.821275 -0.309906 
232 0.998012 1.0124 2.54916 0.515982 0 0 0 -0.467557 -0.616723 0.77116 
93 -0.508146 0.844912 2.02971 0.851661 0 0 0 -0.540554 -0.298774 -0.444182 
61 1.51202 0.359914 1.94817 0.566537 0 0 0 0.58948 1.3973 -0.113252 
349 1.50386 -0.381652 1.57127 0.808645 0 0 0 -0.12921 0.234035 -0.29141 
253 1.16406 1.08586 2.39569 0.460846 0 0 0 -0.611618 -0.907163 0.937639 
193 -0.727522 1.42164 1.5528 0.877432 0 0 0 -0.696374 -0.372891 -0.303501 
506 1.46209 1.27675 1.83871 0.320014 0 0 0 -0.221527 -0.637824 0.942372 
44 -0.248199 1.37176 1.89732 0.71293 0 0 0 -0.599174 -0.717582 -0.652014 
32 1.23784 1.37168 1.88978 0.336996 0 0 0 -0.418265 -0.0105947 0.780124 
493 1.20602 1.42553 1.84333 0.331295 0 0 0 -0.251789 0.0106299 0.833443 
9 1.40198 1.32545 1.82111 0.313663 0 0 0 -0.524565 -0.595568 1.18526 
218 1.31593 1.40023 1.78916 0.309638 0 0 0 -0.538555 -0.471022 1.2859 
200 -0.243763 1.45155 1.90838 0.706227 0 0 0 -0.690018 -0.735852 -0.614233 
486 1.31685 1.26322 1.98198 0.354054 0 0 0 0.426433 0.780823 1.35181 
98 0.192047 0.505975 2.67418 0.76268 0 0 0 -0.547806 -0.679274 -0.319387 
113 1.36474 -0.767746 2.84603 0.993316 0 0 0 -0.051908 -0.877637 0.0551794 
114 -0.662811 0.667395 3.0988 1.04669 0 0 0 -0.730347 -0.20807 0.292163 
108 0.827867 -0.37504 3.19939 0.967026 0 0 0 -0.179652 -0.68332 0.269369 
163 0.568725 0.925257 2.79803 0.645965 0 0 0 -0.629007 -0.714706 0.30341 
60 0.824456 1.36371 3.15257 0.691631 0 0 0 0.333295 0.6294 0.835942 
117 0.983525 0.1179 3.7019 0.978816 0 0 0 -0.129093 -0.308784 0.71856 
51 0.407869 1.42256 2.78811 0.642069 0 0 0 -0.346632 0.249814 0.656773 
88 1.42973 0.53892 3.6292 0.869875 0 0 0 0.00639021 0.0152717 0.894954 
109 -0.521002 -0.195161 3.25587 1.19581 0 0 0 -0.575246 -0.43826 0.393267 
90 -0.819586 0.596007 2.78624 1.05283 0 0 0 -0.798728 -0.21651 0.11203 
91 0.794654 1.1685 3.90933 0.96224 0 0 0 -0.00640092 0.133373 0.951554 
227 1.33614 1.35544 2.76355 0.562286 0 0 0 -0.093645 0.239734 -0.637901 
438 0.692841 1.45414 3.02107 0.665647 0 0 0 0.310271 0.681388 0.831892 
119 0.719815 0.0526628 3.43823 0.932507 0 0 0 -0.23006 -0.438123 0.51198 
430 1.20337 0.667937 2.80486 0.606692 0 0 0 -0.284849 -0.688799 0.484995 
96 1.21336 -0.443179 3.49593 1.03711 0 0 0 -0.0580874 -0.627555 0.498014 
121 -0.478874 0.852548 3.15732 0.981829 0 0 0 -0.686135 -0.196807 0.337565 
110 0.000531965 -0.178563 2.91004 0.989029 0 0 0 -0.415653 -0.545737 0.0950901 
120 -0.757139 1.33216 2.86286 0.982954 0 0 0 -0.855559 -0.0638492 0.192643 
104 0.101182 -0.598298 3.21263 1.14763 0 0 0 -0.345984 -0.642431 0.341688 
101 0.537349 0.503483 3.11842 0.786335 0 0 0 -0.405485 -0.525512 0.336961 
238 1.23271 1.23412 2.83499 0.574662 0 0 0 0.182201 0.586696 0.304326 
123 -0.316978 2.86792 -0.691695 1.18976 0 0 0 -0.540364 0.329794 -0.659836 
159 0.397834 3.05213 -0.625376 1.0548 0 0 0 -0.285738 0.503087 -0.690798 
142 1.18785 3.80508 -0.0596136 1.0579 0 0 0 -0.106363 0.892022 -0.31671 
126 -0.541265 3.21741 0.184414 1.10843 0 0 0 -0.644998 0.551746 -0.319706 
127 0.805514 2.06304 -0.832073 0.949849 0 0 0 -0.270576 -0.262301 -0.886219 
158 0.89648 2.14782 -0.502448 0.825348 0 0 0 -0.34377 -0.410894 -0.874102 
143 -0.162417 2.51389 -0.788978 1.13561 0 0 0 -0.507499 0.116803 -0.735205 
149 1.11664 2.1868 -0.912524 0.958564 0 0 0 -0.152843 -0.115956 -0.939911 
151 1.36321 3.3662 0.288897 0.84452 0 0 0 0.0302141 0.959232 0.0450135 
274 1.33477 2.01646 -0.0267979 0.636667 0 0 0 -0.36698 -0.743693 -0.663928 
157 0.0134454 1.64301 0.128942 0.821067 0 0 0 -0.211181 -0.666852 -0.103424 
156 -0.609019 1.93331 -0.650118 1.19061 0 0 0 -0.599181 -0.0660178 -0.549876 
130 0.986179 2.15088 0.2677 0.593011 0 0 0 -0.525004 -0.340078 -0.635098 
148 0.698617 1.49459 -0.232561 0.791589 0 0 0 -0.0750793 -0.610825 0.0773792 
137 -0.70815 2.86987 0.246404 1.07807 0 0 0 -0.787249 0.323153 -0.31089 
138 0.42498 2.62752 -0.593769 0.963027 0 0 0 -0.35662 0.182128 -0.803867 
141 0.160036 1.99701 -0.415249 0.914393 0 0 0 -0.476596 -0.434298 -0.672679 
140 0.862152 2.60215 -0.809072 0.979753 0 0 0 -0.192285 0.196982 -0.87564 
443 1.31898 2.08521 0.116087 0.599072 0 0 0 -0.363283 -0.428135 -0.737894 
444 1.48155 2.2398 0.0627941 0.620897 0 0 0 -0.259575 0.134176 -0.787106 
136 1.03226 1.89171 0.221509 0.597168 0 0 0 -0.149066 -0.793346 0.0686229 
268 1.46276 2.00808 0.113343 0.589757 0 0 0 -0.28007 -0.513121 -0.71187 
146 0.82418 2.05115 0.253747 0.61559 0 0 0 -0.451267 -0.790376 -0.379464 
180 0.816328 2.50704 0.789626 0.565308 0 0 0 -0.422116 1.23143 -0.299285 
190 0.821826 3.29159 1.17401 0.77367 0 0 0 0.338223 0.751399 0.367127 
178 -0.546726 3.0854 1.13917 0.974055 0 0 0 -0.646046 0.581697 -0.0204899 
220 0.899099 2.23261 1.45458 0.460916 0 0 0 -1.9284 -2.5736 -1.96304 
189 1.01702 2.26103 0.814604 0.487546 0 0 0 -0.947802 1.11268 -0.606441 
165 1.0488 2.30436 0.745475 0.502529 0 0 0 -0.824767 1.15662 -0.661877 
128 1.38576 3.34334 1.2518 0.793523 0 0 0 0.238332 -0.0104511 0.379246 
185 0.700683 3.36966 1.30718 0.807794 0 0 0 0.306436 0.749877 0.317367 
168 0.779369 2.05423 1.00594 0.471615 0 0 0 -0.205957 1.53661 0.706586 
186 -0.767687 1.72337 0.481585 0.983525 0 0 0 -0.740688 -0.285035 -0.211643 
170 0.55675 2.28227 0.547188 0.609202 0 0 0 -0.639518 -0.127138 -0.555102 
171 0.284593 3.56151 0.915819 0.929532 0 0 0 -0.124117 0.922019 0.0251745 
175 -0.673979 2.64647 1.34235 0.92231 0 0 0 -0.838187 0.285628 -0.0589433 
124 0.946527 2.13444 1.03011 0.448055 0 0 0 -1.03396 1.02043 -0.156167 
187 -0.341964 2.06188 0.381162 0.853127 0 0 0 -0.732695 -0.502042 -0.361238 
134 1.44029 2.99974 0.715253 0.686522 0 0 0 0.237599 0.77228 0.575614 
198 1.10455 2.48529 1.32489 0.519703 0 0 0 -1.07295 -2.52532 -1.23734 
426 1.5256 1.80969 1.03414 0.350826 0 0 0 0.374649 0.39958 0.23679 
147 1.22189 1.92071 1.15986 0.365564 0 0 0 -0.68159 -0.612268 0.428038 
133 1.0445 2.31189 0.324252 0.588098 0 0 0 -0.518696 0.365641 -0.734328 
188 0.398838 2.22613 0.467437 0.652189 0 0 0 -0.608984 -0.52801 -0.525459 
20 1.40119 1.64926 1.36986 0.284345 0 0 0 1.58828 -0.491233 -0.210005 
216 -0.0737714 2.3515 1.33667 0.682754 0 0 0 -0.676902 0.163015 -0.232995 
206 -0.717427 1.91109 1.19379 0.879568 0 0 0 -0.880964 -0.367046 -0.250332 
154 -0.280083 3.2078 0.526568 0.978395 0 0 0 -0.533221 0.672518 -0.188916 
144 1.30248 2.01086 0.912945 0.407613 0 0 0 -0.673027 1.05401 -0.238612 
423 1.18174 2.03442 0.977319 0.411236 0 0 0 -0.851634 1.06097 0.0833398 
135 -0.226247 3.12139 0.410255 0.958206 0 0 0 -0.535691 0.632123 -0.247144 
192 0.529701 2.18855 0.465842 0.623391 0 0 0 -0.590076 -0.541576 -0.501849 
194 0.171586 2.21543 0.651675 0.670487 0 0 0 -0.636176 -0.568257 -0.48013 
196 0.990075 2.89059 1.10308 0.640599 0 0 0 0.388179 0.633301 0.41903 
203 0.532332 2.55461 0.541056 0.655191 0 0 0 -0.461152 0.623923 -0.448615 
150 1.41055 1.88548 0.988712 0.370978 0 0 0 2.87795 5.47197 3.7971 
214 -0.0711007 1.80497 0.791842 0.711166 0 0 0 -0.190357 -1.00773 -0.172959 
425 1.42104 1.95117 0.905408 0.394386 0 0 0 -0.268534 0.944136 -0.302486 
48 0.228431 2.29404 0.623428 0.667387 0 0 0 -0.652913 -0.34058 -0.509612 
162 1.52739 1.51565 1.44982 0.254792 0 0 0 -0.400389 0.113649 0.32034 
177 0.87022 1.99606 1.31464 0.416623 0 0 0 -0.428339 0.917035 0.359066 
139 0.901011 3.94731 0.7486 1.0206 0 0 0 -0.0239517 0.908772 -0.0296559 
461 1.38948 1.75363 1.23162 0.316837 0 0 0 0.789 0.0388066 0.35399 
210 0.261619 2.176 0.84757 0.615996 0 0 0 -0.594704 -0.510637 -0.434905 
480 1.02344 2.02372 1.13292 0.409866 0 0 0 -0.664391 0.947427 0.473178 
28 1.05076 1.83854 1.404 0.360318 0 0 0 0.745198 0.122658 0.746559 
489 0.558861 2.27472 1.21428 0.51989 0 0 0 -0.640195 0.853625 -0.177989 
4 1.22244 1.72085 1.42292 0.315216 0 0 0 1.31366 -0.333612 0.539442 
19 1.14084 2.47425 0.428799 0.585355 0 0 0 -0.34548 1.10187 -0.529131 
336 0.479591 2.37428 1.18931 0.555283 0 0 0 -0.452045 0.940834 -0.147875 
469 1.0405 2.0173 1.12835 0.406965 0 0 0 -0.641942 0.93604 0.520282 
308 0.417199 2.38388 1.20765 0.568904 0 0 0 -0.422098 0.883024 -0.144399 
15 1.22459 1.8628 1.21611 0.350381 0 0 0 0.329904 0.109588 1.24262 
424 1.33272 2.62682 0.397189 0.618365 0 0 0 -0.0725552 1.29745 -0.16215 
7 1.3725 2.12814 0.709279 0.457155 0 0 0 -0.584558 1.11292 -1.16721 
174 1.29679 1.80757 1.23497 0.33218 0 0 0 0.573556 -0.124883 0.946994 
6 1.09485 1.81937 1.39358 0.350538 0 0 0 0.885879 -0.0217339 0.820701 
458 0.50936 2.15863 1.40969 0.503687 0 0 0 -0.692826 0.732886 -0.0556226 
433 1.53014 1.83935 0.985042 0.363362 0 0 0 0.317977 0.587865 0.092873 
437 1.46749 2.04175 0.748715 0.434916 0 0 0 -0.337004 1.01699 -1.23257 
153 1.27972 1.81894 1.23332 0.335818 0 0 0 0.531924 -0.101084 1.03906 
286 1.48251 2.02988 0.753388 0.432206 0 0 0 -0.289584 0.996421 -1.2389 
195 0.960329 1.93964 1.32812 0.392721 0 0 0 -0.00440423 0.669682 0.654032 
399 1.51635 1.93623 0.866653 0.397928 0 0 0 -0.430126 0.218575 -1.13966 
354 0.503421 2.10105 1.49637 0.49589 0 0 0 -0.741117 0.71453 0.0203356 
372 1.50625 1.49957 1.49052 0.251512 0 0 0 -0.213115 0.0451073 0.264279 
164 0.232475 1.81997 1.47903 0.555411 0 0 0 -0.187211 -0.251009 -0.15081 
17 1.50459 1.49817 1.49392 0.25144 0 0 0 -0.188197 0.0475309 0.240393 
52 0.953883 1.86576 1.44846 0.38025 0 0 0 0.395335 0.462946 0.49059 
145 0.944093 3.68322 0.31978 0.962024 0 0 0 -0.0697428 0.942573 -0.136539 
256 0.558357 2.11603 1.73864 0.49638 0 0 0 -0.760248 0.51968 0.0905166 
495 1.04309 1.64387 1.68228 0.346148 0 0 0 0.726171 0.284234 0.13409 
248 0.868789 1.56289 1.93385 0.40168 0 0 0 -0.734295 0.724782 0.574588 
43 0.148922 2.31438 1.81883 0.62384 0 0 0 -0.186944 0.906584 0.491335 
76 0.906805 1.57911 1.88405 0.389078 0 0 0 -0.518277 0.646498 0.347104 
450 0.854483 1.64816 1.83468 0.397154 0 0 0 -0.471684 0.832935 0.328213 
166 1.19151 3.39112 1.71318 0.833436 0 0 0 0.311562 -0.187273 0.0847894 
70 0.975125 2.32047 2.30293 0.608764 0 0 0 0.374807 -1.55692 -1.46654 
199 -0.163989 2.48212 2.51655 0.815891 0 0 0 -0.221988 0.751752 0.49941 
223 -0.313708 3.51998 2.20262 1.0656 0 0 0 -0.343012 0.730761 0.185285 
201 -0.0322992 3.01378 1.68138 0.815637 0 0 0 -0.0812992 0.978497 0.267409 
243 0.900444 2.03174 2.39424 0.562186 0 0 0 0.102984 -1.11848 -1.35641 
191 0.401999 2.14627 2.61254 0.667707 0 0 0 0.537559 1.16208 0.686798 
204 0.494254 3.83159 2.13436 1.03917 0 0 0 0.0831299 0.66333 0.133736 
49 0.769422 1.87246 1.59107 0.417369 0 0 0 -0.388118 1.00501 0.294922 
160 0.914952 1.82327 1.54462 0.382718 0 0 0 0.276088 0.470492 0.187797 
207 0.7869 2.75747 2.50756 0.754782 0 0 0 0.726068 0.142239 -0.116929 
208 1.03099 2.39116 1.63949 0.518115 0 0 0 -1.29623 -4.15665 -2.32185 
209 0.529463 2.20088 1.58261 0.507844 0 0 0 -0.583241 0.778382 0.0883157 
447 0.197363 2.26424 2.14672 0.639118 0 0 0 0.0857674 1.11292 0.777256 
211 0.71117 3.69218 1.79547 0.943617 0 0 0 0.228614 0.561466 0.152182 
212 0.655026 3.2858 1.83325 0.812308 0 0 0 0.469019 0.508435 0.273217 
213 0.0678191 3.47689 2.25792 0.980737 0 0 0 -0.0321081 0.748328 0.229367 
490 1.46127 1.49806 1.53103 0.253856 0 0 0 1.29286 -0.711683 0.128763 
215 0.794992 3.88391 2.27497 1.06152 0 0 0 0.148997 0.502773 0.071675 
184 1.50041 1.49456 1.50257 0.251402 0 0 0 -0.121621 0.0573746 0.171767 
55 0.266694 2.26504 1.5319 0.574506 0 0 0 -0.404457 0.671163 0.085628 
505 0.361127 1.60465 2.26191 0.548758 0 0 0 -0.983787 0.180616 0.29488 
255 1.2108 2.6105 2.17653 0.66897 0 0 0 0.0490521 -2.31913 -1.57539 
479 0.0168466 2.36861 2.04037 0.686483 0 0 0 -0.170029 0.920333 0.583061 
173 -0.124521 1.91621 1.83533 0.659826 0 0 0 -0.837788 -0.402875 -0.215145 
318 0.349883 1.78872 2.07952 0.534858 0 0 0 -0.899117 0.413728 0.360458 
54 0.430629 1.94053 1.80009 0.502876 0 0 0 -0.87604 0.60227 0.28462 
34 0.259996 2.18275 1.85537 0.577328 0 0 0 -0.275876 0.845138 0.514584 
172 0.165973 2.12749 1.58858 0.58257 0 0 0 -0.604345 0.131471 -0.0734949 
229 1.0813 2.3335 2.53381 0.661713 0 0 0 0.497567 -1.05236 -1.40596 
234 1.04408 1.64646 1.67795 0.345828 0 0 0 0.744627 0.27713 0.135639 
252 1.15749 1.61768 1.62227 0.318149 0 0 0 1.06406 -0.250245 0.524498 
235 1.04832 1.62 1.71022 0.345716 0 0 0 0.625773 0.28907 0.162171 
29 0.843077 1.72177 1.74556 0.396692 0 0 0 -0.258991 0.877963 0.2161 
513 0.660708 1.56777 2.09003 0.460309 0 0 0 -1.20304 0.51373 0.742866 
241 1.06009 1.60521 1.72045 0.343451 0 0 0 0.600408 0.255454 0.206926 
38 0.320525 1.7588 2.27449 0.566245 0 0 0 -0.69314 0.511555 0.471364 
35 0.252091 1.76159 2.40264 0.603923 0 0 0 -0.543968 0.556797 0.510689 
30 0.500223 1.66022 2.12087 0.499527 0 0 0 -1.10777 0.440832 0.496627 
239 -0.586845 2.64441 2.57886 0.974135 0 0 0 -0.577189 0.458324 0.298059 
233 0.904614 1.60662 1.8497 0.386758 0 0 0 -0.399519 0.669492 0.256635 
75 0.829573 1.66227 1.83747 0.403136 0 0 0 -0.564306 0.867681 0.365825 
219 1.50021 1.49439 1.50297 0.251406 0 0 0 -0.118442 0.0579323 0.168365 
167 1.5004 1.49455 1.50258 0.251402 0 0 0 -0.121483 0.0573987 0.17162 
466 1.5002 1.49437 1.503 0.251406 0 0 0 -0.118214 0.0579727 0.168121 
471 1.50021 1.49439 1.50297 0.251406 0 0 0 -0.118486 0.0579246 0.168412 
36 1.50029 1.49445 1.50282 0.251404 0 0 0 -0.119661 0.0577181 0.169671 
278 1.50195 1.4959 1.49935 0.251391 0 0 0 -0.146772 0.0532038 0.198337 
37 1.50089 1.49497 1.50157 0.251396 0 0 0 -0.129537 0.0560809 0.180105 
58 1.50159 1.49559 1.5001 0.251391 0 0 0 -0.141027 0.0542097 0.192195 
47 1.07811 1.75571 1.49969 0.343429 0 0 0 1.02029 -0.13631 0.347802 
477 1.50167 1.49566 1.49993 0.251391 0 0 0 -0.142247 0.0539205 0.193605 
355 1.50134 1.49537 1.50062 0.251392 0 0 0 -0.136856 0.0547947 0.187938 
334 1.50104 1.49511 1.50125 0.251394 0 0 0 -0.131953 0.0556081 0.182758 
476 1.50097 1.49505 1.50139 0.251395 0 0 0 -0.13088 0.0557882 0.181621 
179 1.50089 1.49498 1.50157 0.251396 0 0 0 -0.129473 0.0560257 0.180128 
222 1.50059 1.49472 1.50218 0.251399 0 0 0 -0.124633 0.0568525 0.174981 
302 1.50066 1.49478 1.50204 0.251398 0 0 0 -0.12572 0.0566654 0.17614 
176 1.50066 1.49478 1.50204 0.251398 0 0 0 -0.125781 0.0566551 0.176204 
225 0.922805 2.39725 3.41234 0.888286 0 0 0 0.373676 0.376991 0.311787 
106 0.302737 2.02714 3.35322 0.857238 0 0 0 0.120773 0.569716 0.780075 
249 -0.498555 2.47087 2.81671 0.959169 0 0 0 -0.536706 0.431532 0.394124 
228 -0.108654 3.23445 3.60257 1.22453 0 0 0 -0.28163 0.494529 0.579476 
254 -0.486115 2.76307 3.51219 1.1744 0 0 0 -0.47115 0.385426 0.584943 
230 0.506969 3.7114 2.9996 1.13779 0 0 0 0.026901 0.554998 0.264719 
231 0.5699 2.27619 3.57917 0.935085 0 0 0 0.214644 0.457904 0.686141 
242 0.544172 2.40527 3.25163 0.8569 0 0 0 0.388548 0.605922 0.516838 
246 -0.356548 2.01123 3.52011 1.04152 0 0 0 -0.460435 0.227392 0.669543 
464 0.277936 1.66566 2.73314 0.660814 0 0 0 -0.253245 0.600723 0.673396 
205 0.7895 1.62297 3.04756 0.674935 0 0 0 0.588772 0.903089 0.639749 
251 0.368725 3.45847 3.03809 1.07461 0 0 0 0.0473217 0.574817 0.331751 
105 -0.17273 1.52945 3.72935 1.0418 0 0 0 -0.38389 0.0755036 0.777717 
250 0.796412 3.13053 3.3993 1.05192 0 0 0 0.168003 0.346678 0.318545 
244 1.25516 2.37352 3.45388 0.901674 0 0 0 0.225143 0.194163 0.0630248 
240 -0.316574 3.69298 3.4091 1.33893 0 0 0 -0.398574 0.574283 0.443182 
257 3.62636 1.21803 -0.278445 1.02737 0 0 0 0.662294 -0.0959298 -0.447612 
441 1.86626 1.15929 0.0293843 0.661003 0 0 0 -0.675401 -0.369684 0.601518 
288 3.6737 0.857923 0.0530752 0.991889 0 0 0 0.717093 -0.235548 -0.334328 
260 3.13229 0.827986 -0.609107 1.0191 0 0 0 0.333842 -0.274309 -0.675074 
261 3.52398 -0.10012 0.154683 1.093 0 0 0 0.50273 -0.634768 -0.330552 
276 2.55309 0.780203 -0.320843 0.838312 0 0 0 -0.251421 -0.566755 -0.547738 
427 2.22869 1.08024 0.208781 0.63271 0 0 0 -0.822428 -0.71399 -0.101825 
285 1.77615 0.218843 -0.0315154 0.864556 0 0 0 -0.185624 0.145303 0.517832 
436 2.35116 1.4222 -0.0512616 0.678325 0 0 0 -0.406525 -0.673939 -0.734157 
266 2.66024 0.936353 -0.843416 1.00717 0 0 0 0.0635743 -0.223765 -0.78396 
267 3.03037 0.608859 -0.039804 0.865179 0 0 0 0.15906 -0.643749 -0.506129 
293 2.10191 1.07615 -0.870518 0.957151 0 0 0 -0.174109 -0.223619 -0.718738 
269 2.55512 0.949702 -0.706876 0.943086 0 0 0 -0.0495115 -0.288846 -0.743549 
270 2.46766 0.612228 -0.432206 0.891625 0 0 0 -0.223507 -0.523981 -0.496716 
271 3.23129 -0.579423 -0.176074 1.23192 0 0 0 0.360717 -0.692752 -0.376331 
272 1.6467 0.823008 0.128488 0.702441 0 0 0 -0.205734 0.701011 1.55318 
284 2.04211 0.324123 -0.432476 0.936208 0 0 0 -0.243788 -0.335181 -0.14903 
290 2.38962 -0.690831 -0.21417 1.17656 0 0 0 0.065277 -0.547434 -0.230045 
291 3.16121 0.334528 -0.492717 1.06554 0 0 0 0.325713 -0.49901 -0.575623 
294 3.06872 0.327593 0.682215 0.794006 0 0 0 0.101737 -0.942254 -0.433139 
23 1.96012 1.40534 1.23483 0.34908 0 0 0 -0.599521 -0.217286 0.0857702 
453 2.93383 0.913309 1.3622 0.602811 0 0 0 0.732852 -0.100549 0.132458 
18 1.90809 1.36094 1.34066 0.333038 0 0 0 -1.25071 0.0128866 0.295342 
298 2.04667 1.34271 1.25147 0.36717 0 0 0 -0.540384 -0.421722 0.0781922 
299 2.9192 0.965588 1.15319 0.600931 0 0 0 0.695808 -0.293978 -0.11913 
451 2.1258 1.28905 1.26587 0.385298 0 0 0 -0.254698 -0.637418 -0.0746527 
301 3.70181 0.535438 1.4268 0.900408 0 0 0 0.879143 -0.217157 0.0446081 
264 2.45149 0.855539 0.620131 0.597319 0 0 0 -0.523693 -0.843215 -0.41692 
445 2.28053 1.21986 1.24788 0.423469 0 0 0 0.555521 -0.751839 -0.307229 
304 2.1973 1.11981 1.14346 0.431074 0 0 0 2.2767 2.78764 2.37295 
41 2.8642 0.991069 0.872288 0.609241 0 0 0 0.493121 -0.669864 -0.49721 
306 1.99421 1.20525 1.4957 0.358721 0 0 0 -1.5516 -0.175397 0.0554976 
307 2.07211 1.04492 1.19272 0.425505 0 0 0 3.78011 7.11498 5.71637 
277 2.64746 1.39934 0.721811 0.548756 0 0 0 0.848674 -0.164873 -0.410672 
309 3.42367 0.409372 1.28612 0.825451 0 0 0 0.705411 -0.507583 -0.108062 
310 2.04762 -0.00926347 1.06794 0.725923 0 0 0 -0.5663 0.412266 0.0785161 
311 2.88347 1.04323 0.925482 0.602772 0 0 0 0.627638 -0.456682 -0.367854 
341 2.75568 1.06759 0.733263 0.594092 0 0 0 0.363329 -0.793537 -0.668173 
432 2.74184 1.44695 0.883124 0.554667 0 0 0 0.863057 0.249318 0.038863 
161 2.00056 1.43223 1.16426 0.363504 0 0 0 -0.0699351 -0.338704 -0.117079 
182 2.69527 1.32605 0.523287 0.596682 0 0 0 0.459742 -0.51906 -0.622889 
316 2.92723 -0.308177 0.756851 0.924407 0 0 0 0.0547555 -0.866016 -0.307156 
317 3.34937 0.0148018 0.76808 0.924394 0 0 0 0.394659 -0.767692 -0.282415 
275 3.40929 -0.820399 0.709985 1.19499 0 0 0 0.430008 -0.788068 -0.184203 
33 2.6597 0.845101 1.48871 0.537869 0 0 0 0.731293 -0.584706 0.0577281 
320 1.86542 0.0375167 0.931893 0.734208 0 0 0 -0.348839 1.04574 0.599288 
72 2.19326 1.16819 1.39319 0.403131 0 0 0 -0.136029 -0.769844 -0.0247129 
265 1.93826 -0.369083 0.732908 0.882172 0 0 0 -0.204937 0.0533069 0.157733 
501 2.42644 1.15685 1.21413 0.460773 0 0 0 0.925164 -0.612813 -0.326015 
56 2.57031 0.703001 0.532532 0.656285 0 0 0 -0.587875 -1.04466 -0.472258 
325 2.33715 1.10414 1.34222 0.440658 0 0 0 0.761464 -0.601093 0.0306232 
287 2.41139 -0.366529 0.555641 0.915701 0 0 0 -0.190796 -0.554719 -0.13869 
327 3.36119 1.24899 1.48976 0.729279 0 0 0 0.602893 0.610947 0.465253 
329 1.95982 0.208852 1.14448 0.65529 0 0 0 -0.514497 1.36126 0.567933 
428 2.78132 0.813921 1.48194 0.571733 0 0 0 0.696749 -0.434546 0.0856888 
31 2.45658 0.720519 0.487637 0.649592 0 0 0 -0.729161 -0.862227 -0.283709 
283 1.78565 0.844206 0.902882 0.529967 0 0 0 2.2133 7.11511 5.72779 
326 2.4987 1.10644 1.22629 0.479723 0 0 0 0.917789 -0.587011 -0.275383 
470 3.20794 1.21786 1.38465 0.675376 0 0 0 0.604969 0.650665 0.479891 
313 2.78303 0.837266 1.4233 0.569369 0 0 0 0.68886 -0.469727 0.0305261 
457 1.88296 1.3176 1.42381 0.328058 0 0 0 -1.57504 0.172988 0.325245 
455 2.09928 1.46729 1.04027 0.396735 0 0 0 0.737341 -0.56704 -0.644775 
422 2.35312 1.29627 1.08161 0.446569 0 0 0 1.03427 -0.563823 -0.623544 
456 2.55984 0.341745 1.38464 0.62805 0 0 0 -0.349848 -1.08264 -0.530402 
474 1.85408 1.41999 1.30336 0.322767 0 0 0 -0.756352 0.168441 0.008927 
300 3.62896 -0.22231 1.47508 1.02441 0 0 0 0.628928 -0.628297 -0.093671 
478 2.35706 1.45327 0.867215 0.46621 0 0 0 1.20536 -0.344412 -0.812671 
340 1.70264 1.43603 1.41148 0.286353 0 0 0 -0.968804 0.606809 -0.388387 
281 1.70783 0.00683644 0.314206 0.851727 0 0 0 -0.0686981 0.525064 0.736434 
333 2.95212 0.6258 2.57619 0.753145 0 0 0 0.713189 0.398759 0.502315 
323 1.96024 1.06257 1.74773 0.38267 0 0 0 -0.57409 -0.518621 -0.531175 
335 2.66602 0.847267 2.44811 0.646091 0 0 0 0.592472 0.832688 0.530786 
491 1.78688 1.17972 1.7055 0.33807 0 0 0 -0.880308 0.101774 -0.516106 
337 2.05362 -0.945713 1.91696 0.993525 0 0 0 -0.030215 -0.872237 -0.198419 
338 3.03181 0.240151 2.16305 0.772451 0 0 0 0.621386 -0.400474 0.185036 
339 1.79311 0.243007 1.69179 0.598002 0 0 0 -0.162373 1.31183 -0.0847543 
370 1.65925 -0.976639 2.59511 1.03459 0 0 0 -0.00371481 -0.913972 -0.00498051 
452 2.42607 0.244142 1.74989 0.624611 0 0 0 -0.262874 -1.04637 -0.489006 
295 2.09994 0.57422 2.39618 0.559709 0 0 0 0.422677 -0.554883 0.449834 
296 2.19624 1.05237 1.56909 0.416344 0 0 0 0.0525503 -0.767452 0.00179278 
344 2.37282 0.96081 1.94511 0.49317 0 0 0 0.0946981 -0.747979 -0.194923 
345 3.40707 1.06475 2.12277 0.795706 0 0 0 0.617737 0.51388 0.408958 
346 2.01393 0.960282 1.86444 0.415938 0 0 0 0.212631 -0.860634 0.00208237 
364 1.68475 1.12266 1.87406 0.355485 0 0 0 0.0337631 -0.643315 -0.441354 
348 3.88721 1.46542 2.1892 0.98417 0 0 0 0.623125 0.145076 0.180694 
331 2.11756 0.995955 1.72374 0.41584 0 0 0 0.0796003 -0.764232 -0.0600499 
350 2.3602 -0.0945941 1.61191 0.719201 0 0 0 -0.476426 -0.847097 -0.611058 
351 1.7726 1.23309 1.64011 0.323703 0 0 0 -1.06185 0.264548 -0.192873 
352 2.46184 0.66852 2.26259 0.582329 0 0 0 0.676373 0.0572836 0.582585 
363 2.55574 -0.63761 2.03573 0.923295 0 0 0 0.0626227 -0.993183 -0.189392 
45 1.68419 1.14929 1.83489 0.346041 0 0 0 -0.0692388 -0.452064 -0.387765 
365 1.6938 0.222914 2.3901 0.619912 0 0 0 -0.246712 -1.20416 -0.522415 
356 3.26093 1.43478 2.49167 0.819985 0 0 0 0.077239 0.442801 0.108644 
357 2.16288 1.08652 2.24833 0.502371 0 0 0 -1.19514 -1.26625 -1.34782 
358 2.14802 0.666397 2.60497 0.595296 0 0 0 0.560607 0.18142 0.6388 
359 3.56756 -0.600341 2.21029 1.1353 0 0 0 0.571199 -0.671612 0.0263363 
360 1.95003 0.186206 2.18313 0.617074 0 0 0 -0.299101 -1.06726 -0.548364 
361 2.06205 -0.717421 1.53365 0.916865 0 0 0 -0.165978 -0.667964 -0.288175 
362 2.41713 0.274362 1.96776 0.621368 0 0 0 -0.0196181 -1.0512 -0.266823 
460 1.97019 1.14592 1.60674 0.364137 0 0 0 -1.33181 -0.186534 -0.368134 
303 2.32215 1.05426 1.64056 0.44636 0 0 0 -0.243885 -1.64997 -0.782166 
393 1.97008 -0.328909 2.07153 0.770045 0 0 0 -0.341786 -0.895118 -0.523344 
324 2.45376 0.691634 1.9828 0.539926 0 0 0 0.658968 -0.447205 0.399899 
312 3.14154 1.31986 1.96637 0.699456 0 0 0 -0.0355905 0.799512 0.326179 
375 1.7987 0.918475 2.09439 0.426672 0 0 0 0.57267 -1.16243 0.509519 
459 2.65914 0.457169 1.80806 0.612561 0 0 0 0.369614 -0.819305 -0.0486195 
62 1.74291 1.0577 1.9291 0.377705 0 0 0 0.103694 -0.931294 -0.415028 
380 2.33974 0.664182 2.34271 0.57309 0 0 0 0.61436 -0.0092965 0.600991 
485 1.68786 1.16813 1.80446 0.339539 0 0 0 -0.171955 -0.322786 -0.33091 
510 2.07899 0.979145 1.78211 0.41585 0 0 0 0.124312 -0.791809 -0.0553957 
497 1.81804 0.609493 2.4823 0.542847 0 0 0 0.301717 -0.771568 0.409476 
347 1.77136 -0.881251 1.97401 0.96273 0 0 0 -0.0895691 -0.786546 -0.247518 
377 3.60722 1.30345 2.56839 0.933677 0 0 0 0.514266 0.272031 0.238899 
314 2.7149 0.746785 1.7233 0.570732 0 0 0 0.739724 -0.292753 0.267051 
388 1.75471 1.18522 1.72429 0.334978 0 0 0 -0.686861 0.0357921 -0.442431 
315 2.63579 0.314021 1.72366 0.638915 0 0 0 0.0537941 -1.04203 -0.326244 
472 2.09292 0.870501 1.94172 0.448089 0 0 0 0.491789 -0.963381 0.346366 
483 1.82858 0.756607 2.34806 0.49368 0 0 0 0.439499 -0.870006 0.607215 
481 2.18418 0.922725 1.7832 0.441241 0 0 0 0.450505 -0.865543 0.161427 
53 1.96945 0.837138 2.09145 0.454924 0 0 0 0.523698 -1.05332 0.546422 
484 1.59689 0.907455 2.25909 0.443743 0 0 0 0.520893 -1.21091 0.880352 
384 3.31989 -0.642171 2.68997 1.13434 0 0 0 0.468078 -0.689845 0.149538 
79 1.6855 1.09274 1.92023 0.366689 0 0 0 0.137834 -0.883385 -0.419626 
492 1.57912 1.14676 1.92413 0.353493 0 0 0 0.285156 -0.824371 -0.0689898 
102 1.57313 0.883425 2.31386 0.456286 0 0 0 0.432917 -1.15594 0.886201 
353 2.07857 1.26352 2.6402 0.588627 0 0 0 -0.784812 0.435476 -1.26498 
462 2.05824 1.16867 1.5 0.374844 0 0 0 -1.12475 -0.441564 -0.00753799 
366 3.1868 0.39456 3.69955 1.1194 0 0 0 0.427862 -0.0589654 0.661266 
89 1.72107 0.843354 2.90212 0.612807 0 0 0 0.333717 0.56334 0.677297 
368 3.28496 -0.261771 3.55746 1.21014 0 0 0 0.427477 -0.424274 0.520487 
369 3.64677 0.24624 3.45703 1.1909 0 0 0 0.608279 -0.163267 0.482326 
378 2.68147 0.577424 2.86986 0.757389 0 0 0 0.589626 0.356547 0.599856 
389 2.14752 0.922796 3.36327 0.790329 0 0 0 0.30118 0.639916 0.697761 
95 1.59937 0.244864 3.84568 0.991722 0 0 0 0.0260038 -0.174657 0.844434 
373 1.65834 -0.0884473 2.8068 0.76713 0 0 0 -0.127083 -0.983978 -0.0238804 
390 2.59698 1.19522 3.71532 0.975793 0 0 0 0.204655 0.334104 0.633332 
86 1.82023 1.15321 3.19896 0.705228 0 0 0 0.238588 0.999352 0.374362 
376 2.3167 1.0375 3.19032 0.758191 0 0 0 0.302555 0.831208 0.474069 
391 3.65085 0.0254067 3.455 1.22491 0 0 0 0.591531 -0.276207 0.462943 
236 1.54662 0.573478 2.76919 0.603725 0 0 0 0.00802669 -0.614122 0.469231 
379 2.28479 0.0643981 2.74732 0.75738 0 0 0 0.197695 -0.711343 0.263061 
392 3.16306 0.164084 2.91473 0.933105 0 0 0 0.561892 -0.18114 0.368113 
381 3.3365 -0.18416 3.45155 1.17626 0 0 0 0.468471 -0.388438 0.486811 
115 1.62184 0.856721 2.99927 0.635535 0 0 0 0.26976 0.566714 0.73846 
386 3.19115 1.2429 3.66152 1.08251 0 0 0 0.343954 0.202022 0.54229 
97 1.83971 0.614678 2.73121 0.599046 0 0 0 0.34179 -0.192326 0.590669 
385 2.36353 -0.0875367 3.34841 0.945009 0 0 0 0.184322 -0.438183 0.551919 
413 2.04561 3.55203 0.256289 0.93759 0 0 0 0.0167889 0.826888 0.106737 
396 3.29247 3.22368 0.035381 1.07479 0 0 0 0.396768 0.490327 -0.151138 
417 1.86394 3.11944 -0.421513 0.938944 0 0 0 0.025977 0.635543 -0.497446 
398 3.25695 2.67494 0.143853 0.921569 0 0 0 0.465742 0.363362 -0.0248137 
418 3.60252 2.06812 -0.0315358 0.979931 0 0 0 0.668198 0.103294 -0.267782 
400 3.51105 2.53616 -0.0693554 1.01263 0 0 0 0.566683 0.207839 -0.261324 
420 1.73365 2.37768 -0.458355 0.802555 0 0 0 0.0173899 0.149981 -0.822008 
414 2.021 2.40555 -0.00566963 0.688312 0 0 0 0.194057 0.747621 -0.386258 
416 2.84933 3.42506 -0.151607 1.0695 0 0 0 0.207378 0.613233 -0.261577 
404 3.3127 3.00275 -0.201165 1.07257 0 0 0 0.424789 0.36672 -0.332246 
415 3.39604 3.43406 0.0890928 1.15433 0 0 0 0.404627 0.538805 -0.151419 
322 1.89507 1.81396 -0.137573 0.663459 0 0 0 -0.322276 -0.680421 -0.736606 
407 3.49973 1.68272 -0.386585 1.01346 0 0 0 0.57762 0.0301513 -0.502844 
408 2.0203 1.93863 -0.607172 0.832001 0 0 0 -0.0249554 -0.17607 -0.869693 
202 2.56612 1.60662 0.174911 0.64414 0 0 0 0.242828 -0.252876 -0.704199 
410 3.59068 2.9862 -0.0098488 1.11004 0 0 0 0.546412 0.338203 -0.221809 
411 1.93646 3.67858 -0.355087 1.08848 0 0 0 -0.0202915 0.765233 -0.418148 
289 2.40056 1.93837 0.244716 0.61426 0 0 0 0.514146 0.450162 -0.390152 
262 1.74618 2.1512 0.279805 0.555163 0 0 0 0.0127783 0.577699 -0.810586 
12 2.05402 1.71887 0.758056 0.438051 0 0 0 1.01323 -0.035327 -1.3154 
419 2.13205 2.72408 0.899573 0.661816 0 0 0 -0.34284 -0.253258 0.907387 
406 2.42478 3.61752 0.659937 0.970484 0 0 0 -0.0178873 0.633407 0.325801 
5 1.83386 1.60258 1.06899 0.350517 0 0 0 0.51838 -0.0048401 -0.43932 
282 2.10937 1.7138 0.725217 0.451011 0 0 0 1.02974 -0.00762462 -1.22515 
332 2.94219 1.87249 1.48281 0.658021 0 0 0 -1.34649 0.0501031 0.27237 
273 1.97811 2.02245 0.498356 0.505723 0 0 0 0.418266 0.715752 -0.88982 
465 1.55316 1.80293 1.02061 0.352749 0 0 0 0.42376 0.413216 0.116706 
473 2.46734 1.59649 0.666438 0.518458 0 0 0 0.967342 0.00930112 -0.462038 
431 2.32607 2.05446 0.519979 0.560175 0 0 0 0.724123 0.993835 0.16302 
14 1.55419 1.93328 0.828398 0.405061 0 0 0 0.045244 0.830513 -0.972491 
292 1.85024 1.93215 0.623218 0.458606 0 0 0 0.520349 0.633285 -1.45586 
434 2.75644 2.12253 0.776648 0.640349 0 0 0 0.276009 0.82851 0.976955 
435 2.2755 2.78877 1.36395 0.724162 0 0 0 -1.28363 -1.59749 0.035347 
449 1.78491 1.65285 1.04033 0.351591 0 0 0 0.62026 0.096704 -0.44407 
397 2.83484 3.18347 0.751303 0.894629 0 0 0 -0.0118725 0.462724 0.500414 
503 1.69432 1.53291 1.28279 0.296974 0 0 0 0.0872064 0.668221 -1.17525 
439 2.23606 1.68881 0.721628 0.470067 0 0 0 0.997549 -0.149413 -1.01183 
440 3.40613 2.58475 1.18372 0.890001 0 0 0 0.0148335 0.225987 0.341529 
321 3.75634 1.95026 1.30416 0.908663 0 0 0 0.522761 0.20448 0.23508 
442 2.01407 1.55506 0.987748 0.389565 0 0 0 0.846807 -0.376424 -0.680738 
280 3.36551 1.9208 0.844513 0.776133 0 0 0 0.56319 0.495334 0.460953 
409 2.0694 2.09254 1.00965 0.487107 0 0 0 -3.00206 -4.83799 -2.50856 
132 1.60203 2.67404 1.23181 0.597768 0 0 0 -0.896607 -2.87788 -0.340669 
412 3.37692 2.95078 0.915979 0.958065 0 0 0 0.185465 0.354266 0.329063 
467 2.39565 1.7078 0.607568 0.518873 0 0 0 0.911744 0.184929 -0.454143 
475 1.63585 1.75674 1.01821 0.351079 0 0 0 0.57214 0.320059 -0.169965 
297 1.88583 2.11884 0.468277 0.516632 0 0 0 0.269654 0.900493 -0.811027 
258 1.88163 2.07848 0.490096 0.505798 0 0 0 0.292762 0.819156 -0.959398 
21 1.95023 1.79309 0.737007 0.43378 0 0 0 0.835056 0.192437 -1.45181 
155 1.57049 2.57306 1.03081 0.556286 0 0 0 -0.930614 -1.97373 -0.346119 
152 1.64318 3.26844 0.896389 0.775454 0 0 0 0.14506 0.320252 0.577036 
330 3.25835 2.11222 1.26291 0.765142 0 0 0 -0.227356 0.346559 0.517386 
50 2.10971 2.01879 0.461302 0.528909 0 0 0 0.523372 0.760791 -0.524191 
11 1.82699 1.65768 0.998595 0.364154 0 0 0 0.726206 0.056107 -0.479177 
221 3.06292 2.07823 0.892999 0.704356 0 0 0 0.191767 0.675905 0.805536 
74 3.04859 1.89687 0.613134 0.697117 0 0 0 0.733969 0.698629 0.481361 
446 2.36992 1.57697 0.416047 0.551069 0 0 0 0.338433 -0.381182 -0.777628 
395 2.2081 3.17315 0.332803 0.823201 0 0 0 0.0906862 0.789291 0.380099 
259 2.6154 1.55377 0.447529 0.589884 0 0 0 0.61513 -0.13494 -0.484157 
421 3.45212 3.42162 0.546129 1.11866 0 0 0 0.356777 0.514225 0.095512 
454 1.56662 1.58654 1.3165 0.280868 0 0 0 0.55956 0.530506 -1.02794 
46 1.85723 1.59487 1.06019 0.354938 0 0 0 0.539252 -0.0521705 -0.419139 
342 1.94864 1.51663 1.09144 0.362942 0 0 0 0.365679 -0.248111 -0.3116 
468 1.84502 1.61503 1.04263 0.356898 0 0 0 0.60522 -0.0199525 -0.435457 
3 1.71463 1.71188 1.01634 0.352864 0 0 0 0.642073 0.223095 -0.361537 
305 1.96778 2.68474 0.38891 0.661755 0 0 0 0.243365 1.21753 0.507509 
197 2.25482 2.31208 0.348898 0.621998 0 0 0 0.537165 1.21493 0.278893 
405 2.37908 2.7423 0.381567 0.727043 0 0 0 0.265675 0.9224 0.602289 
401 2.75364 3.61332 0.3324 1.03902 0 0 0 0.115533 0.715405 0.107309 
13 1.5531 1.67704 1.20139 0.307972 0 0 0 0.785924 0.491995 -0.794076 
387 2.43194 1.68889 2.17914 0.610137 0 0 0 -3.33219 -1.77692 -2.95714 
482 2.5149 2.75823 2.04881 0.826892 0 0 0 -1.56766 -1.33386 -0.988752 
463 2.97197 2.60117 1.62743 0.818336 0 0 0 -1.07672 -0.446853 -0.086058 
394 2.64219 1.6578 2.44455 0.691175 0 0 0 -1.51696 -0.0733912 -1.27239 
319 3.26548 1.82336 1.59356 0.744788 0 0 0 -0.41206 0.388329 0.342386 
500 3.11264 2.32838 2.11934 0.848986 0 0 0 -0.956496 -0.38304 -0.424585 
487 2.72998 2.14153 2.33657 0.768571 0 0 0 -1.73814 -0.883103 -1.23832 
502 2.94168 3.1234 2.45848 1.05467 0 0 0 -0.570301 -0.288459 -0.388164 
499 3.04774 2.90836 2.592 1.0427 0 0 0 -0.532263 -0.292092 -0.370332 
429 3.27855 2.24372 1.51449 0.807219 0 0 0 -0.495878 0.0821248 0.239966 
504 1.83962 1.98457 2.30368 0.597592 0 0 0 -3.80642 -5.33904 -5.67516 
383 3.18367 1.5004 2.61693 0.827666 0 0 0 -0.0343593 0.389494 0.0164128 
99 1.58531 1.59036 3.49473 0.813435 0 0 0 0.14999 0.619322 0.283841 
382 2.94579 1.66321 3.32611 0.956234 0 0 0 0.0216953 0.231187 0.173938 
374 2.17945 1.70018 3.15937 0.782233 0 0 0 -0.408957 0.359889 -0.575172 
367 2.15103 1.73257 3.16272 0.783982 0 0 0 -0.427381 0.315457 -0.617702 
512 1.68195 3.18105 2.91329 0.986989 0 0 0 -0.181801 -0.379633 -0.491422 
498 3.03601 3.15207 3.07829 1.20085 0 0 0 -0.264326 -0.140568 -0.154737 
508 2.36177 2.26393 2.93278 0.848659 0 0 0 -1.00136 -0.572097 -1.0411 
488 2.76679 3.03525 3.02365 1.10813 0 0 0 -0.44704 -0.241956 -0.294057 
100 1.61345 1.74365 3.65537 0.886139 0 0 0 0.0867497 0.43264 0.364272 
245 1.53524 1.87341 3.55191 0.862725 0 0 0 0.113813 0.40593 0.174801 
ITEM: TIMESTEP
740905
ITEM: NUMBER OF ATOMS
512
ITEM: BOX BOUNDS ss ss ss
-8.1988304040437454e-01 3.8875120101141034e+00
-9.7693552394909078e-01 3.9476017366228966e+00
-9.1281994132074906e-01 3.9096273972560476e+00
ITEM: ATOMS id x y z width_SPH x_COM y_COM z_COM vx vy vz 
263 1.46291 0.886579 -0.255345 0.797053 0 0 0 -0.184408 0.0652891 0.617626 
403 1.47177 1.28214 -0.572762 0.836225 0 0 0 -0.296159 -0.417884 -0.281632 
25 0.482319 0.121025 0.00276745 1.02263 0 0 0 0.431014 0.529147 0.569925 
279 1.31897 1.03444 -0.485001 0.850873 0 0 0 -0.18907 -0.165788 0.106862 
402 1.48864 1.3275 -0.648021 0.856457 0 0 0 -0.281507 -0.40992 -0.421844 
16 0.283962 0.665575 0.148009 0.902207 0 0 0 0.586522 0.592036 0.780344 
8 0.54884 0.851556 0.116506 0.825734 0 0 0 0.734406 0.682646 1.15145 
131 1.20616 1.40822 0.665968 0.517639 0 0 0 4.79991 6.68306 7.38301 
217 -0.458204 1.32447 1.07566 0.827556 0 0 0 -0.140269 -0.412285 -0.139912 
2 -0.191097 0.578912 0.37822 0.976756 0 0 0 0.269415 0.35532 0.381134 
24 0.947292 0.538038 0.655875 0.732046 0 0 0 1.68983 2.78505 2.58749 
129 -0.0272454 1.21936 0.471861 0.809152 0 0 0 0.464886 -0.111331 0.504341 
224 -0.038187 1.2323 1.09789 0.718728 0 0 0 1.00081 -0.0777683 0.267193 
78 0.717459 0.416246 1.44599 0.684319 0 0 0 2.08586 2.94722 0.725739 
67 0.056671 0.170697 1.35969 0.867435 0 0 0 0.646809 0.692225 0.00583191 
22 1.10959 0.782222 0.476497 0.689903 0 0 0 1.54595 2.71422 3.19741 
125 0.0919147 1.14992 0.33414 0.817639 0 0 0 0.528956 0.0431952 0.639711 
10 0.362721 0.340196 0.337043 0.920796 0 0 0 0.743182 0.865771 0.897094 
68 -0.629252 1.10997 1.49534 0.872298 0 0 0 -0.401528 -0.268312 -0.303202 
116 -0.467655 -0.224831 2.43602 1.06883 0 0 0 -0.510465 -0.413939 -0.0581869 
39 1.33122 1.26246 1.96203 0.349425 0 0 0 -0.248425 -0.39333 0.561707 
57 -0.136592 -0.184235 1.60661 0.978297 0 0 0 0.0862768 0.0850704 -0.196885 
111 1.47855 0.661554 1.94945 0.479327 0 0 0 3.06039 4.5802 2.61045 
59 0.836246 1.31492 2.27396 0.459124 0 0 0 -1.05544 -0.0553383 0.98515 
183 0.484324 1.33661 2.61271 0.586941 0 0 0 -0.675476 -0.0649847 0.479693 
80 1.06798 1.32418 2.08946 0.394886 0 0 0 -0.907519 0.027722 0.821361 
103 -0.666442 -0.192845 2.21681 1.11079 0 0 0 -0.541741 -0.319405 -0.0821411 
63 -0.481043 0.335769 1.67077 0.939104 0 0 0 -0.2018 0.0269425 -0.274253 
64 0.692251 1.25096 1.95537 0.468152 0 0 0 1.81291 3.5219 2.44696 
65 1.41229 1.12563 2.09166 0.384749 0 0 0 0.113602 -1.07878 0.468894 
66 0.536315 -0.153306 1.5622 0.845281 0 0 0 0.64941 0.683612 -0.164185 
27 1.41507 1.3286 1.8037 0.309623 0 0 0 -0.411813 -0.394304 1.39321 
343 1.489 1.48456 1.52633 0.252367 0 0 0 0.0620417 0.0890025 -0.0237196 
69 0.578521 1.29327 2.42892 0.533069 0 0 0 -0.97009 -0.283457 0.404232 
82 0.155985 0.760109 1.61801 0.699978 0 0 0 1.16218 0.799952 -0.325314 
71 0.319317 -0.0268684 1.59759 0.843496 0 0 0 0.61819 0.613287 -0.223041 
509 1.47935 1.47659 1.54574 0.254225 0 0 0 0.182477 0.0866123 -0.118283 
226 0.739731 1.28996 2.43123 0.504116 0 0 0 -0.860399 -0.174967 0.698018 
511 1.41956 1.17053 2.0196 0.366041 0 0 0 0.0941126 -0.909259 0.297029 
118 0.968942 0.167104 2.50852 0.690234 0 0 0 -0.380085 -0.897088 -0.669381 
26 1.04233 1.47276 1.9123 0.366373 0 0 0 -0.426039 0.305048 0.347893 
77 0.568466 0.474342 2.28659 0.658593 0 0 0 -0.193296 -0.487514 -0.883488 
92 0.62797 -0.707367 2.33072 0.983498 0 0 0 -0.056268 -0.633955 -0.23183 
107 0.249775 0.442639 2.19695 0.724248 0 0 0 -0.0885027 -0.275277 -0.803403 
122 1.04948 0.384907 2.37968 0.613125 0 0 0 -0.28697 -0.858492 -0.736305 
94 1.18309 0.612675 2.42577 0.545581 0 0 0 -0.172929 -1.01248 -0.0157022 
247 0.952673 1.10214 2.48173 0.497484 0 0 0 -0.612005 -0.522939 0.84742 
73 1.44161 0.794439 2.54928 0.516403 0 0 0 0.0604737 -0.778621 0.685195 
87 0.756021 0.283342 2.07374 0.669736 0 0 0 0.352311 0.328707 -0.88605 
84 -0.667096 1.05545 2.40897 0.902824 0 0 0 -0.847682 -0.267149 -0.18099 
507 1.18215 1.1312 2.24889 0.425767 0 0 0 -0.485924 -0.575635 1.24136 
169 1.39493 0.991807 2.28372 0.436523 0 0 0 0.175112 -1.07744 1.11099 
85 0.770572 -0.606562 1.99598 0.927262 0 0 0 0.0904854 -0.341416 -0.356414 
371 1.36018 0.868796 2.51444 0.500145 0 0 0 -0.0252944 -0.821034 0.806231 
448 0.609018 1.28906 1.89854 0.483832 0 0 0 1.71751 3.16736 1.99166 
328 0.993103 0.774303 2.21875 0.511075 0 0 0 0.60415 0.591902 0.631534 
112 0.973463 1.266 2.22438 0.433456 0 0 0 -0.947562 -0.0536046 1.19697 
40 0.542479 1.29074 2.4296 0.540917 0 0 0 -0.994563 -0.331579 0.322563 
496 1.48485 1.48105 1.5348 0.253068 0 0 0 0.119677 0.0926719 -0.0759622 
42 1.22246 1.29781 2.00115 0.362849 0 0 0 -0.557426 -0.189159 0.50098 
237 1.11561 1.25582 2.14124 0.402219 0 0 0 -0.81061 -0.184023 0.983616 
494 1.38749 1.19011 2.01749 0.364346 0 0 0 -0.0151334 -0.801756 0.357119 
181 0.31651 1.14154 2.56082 0.627434 0 0 0 -0.957868 -0.732038 -0.0854654 
81 -0.121093 -0.621639 2.09638 1.08733 0 0 0 -0.197007 -0.422682 -0.131279 
83 1.18469 -0.506677 2.52988 0.870693 0 0 0 -0.142369 -0.821276 -0.309906 
232 0.998012 1.0124 2.54916 0.515982 0 0 0 -0.467555 -0.616722 0.771155 
93 -0.508147 0.844912 2.0297 0.851661 0 0 0 -0.54055 -0.298774 -0.444182 
61 1.51202 0.359915 1.94817 0.566537 0 0 0 0.589485 1.3973 -0.113245 
349 1.50386 -0.381652 1.57127 0.808644 0 0 0 -0.129209 0.234034 -0.291411 
253 1.16406 1.08586 2.39569 0.460847 0 0 0 -0.611615 -0.907151 0.937635 
193 -0.727522 1.42164 1.5528 0.877433 0 0 0 -0.696371 -0.372891 -0.3035 
506 1.46209 1.27675 1.83871 0.320014 0 0 0 -0.221541 -0.63782 0.942384 
44 -0.2482 1.37176 1.89732 0.712931 0 0 0 -0.599169 -0.717583 -0.652014 
32 1.23784 1.37168 1.88978 0.336997 0 0 0 -0.418247 -0.0105741 0.780145 
493 1.20602 1.42553 1.84333 0.331295 0 0 0 -0.251776 0.0106385 0.833462 
9 1.40198 1.32545 1.82112 0.313663 0 0 0 -0.524573 -0.595566 1.18528 
218 1.31593 1.40023 1.78916 0.309639 0 0 0 -0.538557 -0.471021 1.28592 
200 -0.243764 1.45155 1.90838 0.706228 0 0 0 -0.690013 -0.735853 -0.614234 
486 1.31685 1.26322 1.98199 0.354054 0 0 0 0.426254 0.780545 1.3516 
98 0.192046 0.505974 2.67418 0.76268 0 0 0 -0.547805 -0.679274 -0.319389 
113 1.36474 -0.767747 2.84603 0.993316 0 0 0 -0.0519087 -0.877637 0.0551789 
114 -0.662812 0.667395 3.0988 1.04669 0 0 0 -0.730346 -0.208071 0.292163 
108 0.827867 -0.375041 3.19939 0.967026 0 0 0 -0.179653 -0.68332 0.269369 
163 0.568725 0.925256 2.79803 0.645965 0 0 0 -0.629006 -0.714708 0.303407 
60 0.824456 1.36372 3.15257 0.691631 0 0 0 0.333297 0.629403 0.835942 
117 0.983525 0.1179 3.7019 0.978816 0 0 0 -0.129094 -0.308784 0.71856 
51 0.407868 1.42257 2.78811 0.642069 0 0 0 -0.346628 0.249814 0.656774 
88 1.42973 0.53892 3.6292 0.869875 0 0 0 0.00638951 0.015272 0.894953 
109 -0.521003 -0.195161 3.25587 1.19581 0 0 0 -0.575245 -0.43826 0.393266 
90 -0.819587 0.596007 2.78624 1.05283 0 0 0 -0.798727 -0.21651 0.11203 
91 0.794654 1.1685 3.90933 0.96224 0 0 0 -0.00640092 0.133373 0.951553 
227 1.33614 1.35544 2.76355 0.562286 0 0 0 -0.0936481 0.239738 -0.637902 
438 0.692842 1.45414 3.02107 0.665647 0 0 0 0.310274 0.68139 0.831893 
119 0.719815 0.0526624 3.43823 0.932508 0 0 0 -0.230061 -0.438123 0.511979 
430 1.20337 0.667937 2.80486 0.606692 0 0 0 -0.284853 -0.688799 0.484993 
96 1.21336 -0.44318 3.49593 1.03711 0 0 0 -0.0580881 -0.627555 0.498013 
121 -0.478875 0.852548 3.15732 0.981829 0 0 0 -0.686133 -0.196807 0.337564 
110 0.000531549 -0.178563 2.91004 0.98903 0 0 0 -0.415653 -0.545737 0.0950899 
120 -0.75714 1.33216 2.86286 0.982955 0 0 0 -0.855557 -0.0638495 0.192642 
104 0.101181 -0.598299 3.21263 1.14763 0 0 0 -0.345984 -0.642431 0.341688 
101 0.537349 0.503482 3.11842 0.786336 0 0 0 -0.405485 -0.525512 0.33696 
238 1.23271 1.23412 2.83499 0.574662 0 0 0 0.182201 0.586702 0.304325 
123 -0.316979 2.86792 -0.691696 1.18976 0 0 0 -0.540362 0.329794 -0.659835 
159 0.397833 3.05213 -0.625377 1.0548 0 0 0 -0.285737 0.503086 -0.690796 
142 1.18785 3.80508 -0.0596139 1.0579 0 0 0 -0.106363 0.892021 -0.316709 
126 -0.541266 3.21741 0.184413 1.10843 0 0 0 -0.644996 0.551745 -0.319705 
127 0.805514 2.06304 -0.832074 0.94985 0 0 0 -0.270574 -0.262301 -0.886217 
158 0.896479 2.14782 -0.502449 0.825348 0 0 0 -0.343768 -0.410894 -0.874099 
143 -0.162418 2.51389 -0.788979 1.13561 0 0 0 -0.507497 0.116803 -0.735203 
149 1.11664 2.1868 -0.912525 0.958564 0 0 0 -0.152842 -0.115956 -0.939908 
151 1.36321 3.3662 0.288897 0.84452 0 0 0 0.0302144 0.95923 0.0450145 
274 1.33477 2.01646 -0.0267986 0.636668 0 0 0 -0.36698 -0.743696 -0.663923 
157 0.0134452 1.643 0.128942 0.821067 0 0 0 -0.211176 -0.666851 -0.103422 
156 -0.60902 1.93331 -0.650118 1.19061 0 0 0 -0.599178 -0.0660177 -0.549875 
130 0.986179 2.15088 0.2677 0.593011 0 0 0 -0.525 -0.340084 -0.635092 
148 0.698617 1.49459 -0.232561 0.791589 0 0 0 -0.0750755 -0.610824 0.0773827 
137 -0.708151 2.86987 0.246403 1.07807 0 0 0 -0.787246 0.323153 -0.310889 
138 0.42498 2.62752 -0.59377 0.963027 0 0 0 -0.356619 0.182127 -0.803865 
141 0.160036 1.99701 -0.415249 0.914394 0 0 0 -0.476593 -0.434298 -0.672677 
140 0.862152 2.60215 -0.809073 0.979753 0 0 0 -0.192284 0.196982 -0.875638 
443 1.31898 2.08521 0.116086 0.599073 0 0 0 -0.363284 -0.42814 -0.737888 
444 1.48155 2.2398 0.0627934 0.620897 0 0 0 -0.259576 0.134173 -0.787102 
136 1.03226 1.89171 0.221509 0.597168 0 0 0 -0.14906 -0.793348 0.0686332 
268 1.46276 2.00808 0.113342 0.589757 0 0 0 -0.280072 -0.513126 -0.711864 
146 0.82418 2.05115 0.253746 0.61559 0 0 0 -0.45126 -0.79038 -0.379457 
180 0.816327 2.50704 0.789626 0.565308 0 0 0 -0.422108 1.23143 -0.299284 
190 0.821827 3.2916 1.17401 0.773671 0 0 0 0.338224 0.751398 0.367128 
178 -0.546727 3.0854 1.13917 0.974056 0 0 0 -0.646044 0.581697 -0.0204895 
220 0.899097 2.2326 1.45458 0.460915 0 0 0 -1.9284 -2.57356 -1.96302 
189 1.01702 2.26103 0.814603 0.487546 0 0 0 -0.947786 1.11268 -0.606436 
165 1.0488 2.30436 0.745475 0.502529 0 0 0 -0.824755 1.15662 -0.661871 
128 1.38576 3.34334 1.2518 0.793523 0 0 0 0.23833 -0.0104511 0.379247 
185 0.700684 3.36967 1.30718 0.807794 0 0 0 0.306437 0.749877 0.317368 
168 0.779369 2.05423 1.00594 0.471615 0 0 0 -0.205942 1.5366 0.706574 
186 -0.767688 1.72337 0.481585 0.983526 0 0 0 -0.740684 -0.285035 -0.211642 
170 0.556749 2.28227 0.547187 0.609203 0 0 0 -0.639511 -0.127143 -0.555101 
171 0.284593 3.56151 0.915819 0.929532 0 0 0 -0.124116 0.922018 0.025175 
175 -0.67398 2.64647 1.34235 0.922311 0 0 0 -0.838184 0.285627 -0.058943 
124 0.946526 2.13444 1.03011 0.448055 0 0 0 -1.03393 1.02044 -0.156166 
187 -0.341965 2.06188 0.381162 0.853128 0 0 0 -0.732691 -0.502042 -0.361237 
134 1.44029 2.99974 0.715254 0.686523 0 0 0 0.237598 0.772278 0.575615 
198 1.10455 2.48529 1.32489 0.519702 0 0 0 -1.07297 -2.52532 -1.23736 
426 1.5256 1.80969 1.03414 0.350826 0 0 0 0.374626 0.399573 0.236773 
147 1.22189 1.9207 1.15986 0.365564 0 0 0 -0.681626 -0.612343 0.42797 
133 1.0445 2.31189 0.324251 0.588098 0 0 0 -0.518692 0.365636 -0.734324 
188 0.398837 2.22613 0.467436 0.652189 0 0 0 -0.608978 -0.528013 -0.525458 
20 1.40119 1.64926 1.36986 0.284345 0 0 0 1.58828 -0.491217 -0.210034 
216 -0.0737721 2.3515 1.33667 0.682754 0 0 0 -0.6769 0.163012 -0.232995 
206 -0.717428 1.91108 1.19379 0.879568 0 0 0 -0.880961 -0.367046 -0.250331 
154 -0.280083 3.2078 0.526568 0.978396 0 0 0 -0.533219 0.672517 -0.188915 
144 1.30248 2.01086 0.912944 0.407614 0 0 0 -0.673016 1.05402 -0.2386 
423 1.18174 2.03442 0.977319 0.411237 0 0 0 -0.851615 1.06098 0.0833464 
135 -0.226248 3.12139 0.410254 0.958207 0 0 0 -0.535689 0.632123 -0.247143 
192 0.5297 2.18855 0.465841 0.623392 0 0 0 -0.590068 -0.541581 -0.501847 
194 0.171586 2.21543 0.651674 0.670488 0 0 0 -0.636171 -0.568261 -0.480129 
196 0.990076 2.89059 1.10308 0.640599 0 0 0 0.38818 0.6333 0.41903 
203 0.532331 2.55461 0.541056 0.655191 0 0 0 -0.461147 0.623921 -0.448615 
150 1.41055 1.88549 0.988716 0.370978 0 0 0 2.87754 5.47133 3.79663 
214 -0.0711009 1.80497 0.791842 0.711166 0 0 0 -0.19035 -1.00773 -0.172957 
425 1.42104 1.95117 0.905408 0.394387 0 0 0 -0.268531 0.944153 -0.302472 
48 0.22843 2.29404 0.623427 0.667388 0 0 0 -0.652908 -0.340583 -0.509612 
162 1.52739 1.51565 1.44982 0.254791 0 0 0 -0.400389 0.113644 0.320338 
177 0.87022 1.99606 1.31464 0.416623 0 0 0 -0.42832 0.917036 0.359062 
139 0.901011 3.94731 0.7486 1.0206 0 0 0 -0.0239513 0.908772 -0.0296552 
461 1.38948 1.75363 1.23162 0.316837 0 0 0 0.788984 0.038814 0.353948 
210 0.261618 2.176 0.847569 0.615997 0 0 0 -0.594697 -0.510642 -0.434905 
480 1.02344 2.02372 1.13292 0.409866 0 0 0 -0.664367 0.947435 0.473174 
28 1.05076 1.83854 1.404 0.360318 0 0 0 0.745211 0.122657 0.746547 
489 0.55886 2.27472 1.21428 0.51989 0 0 0 -0.640184 0.853622 -0.177989 
4 1.22244 1.72085 1.42292 0.315216 0 0 0 1.31365 -0.333611 0.539414 
19 1.14084 2.47425 0.428799 0.585355 0 0 0 -0.345477 1.10187 -0.529127 
336 0.479591 2.37428 1.18931 0.555283 0 0 0 -0.452038 0.940832 -0.147875 
469 1.0405 2.0173 1.12835 0.406965 0 0 0 -0.641918 0.936047 0.520277 
308 0.417199 2.38388 1.20765 0.568905 0 0 0 -0.422093 0.883022 -0.144399 
15 1.22459 1.8628 1.21611 0.350381 0 0 0 0.329905 0.109576 1.24258 
424 1.33272 2.62682 0.397189 0.618365 0 0 0 -0.0725541 1.29744 -0.162147 
7 1.3725 2.12814 0.709278 0.457155 0 0 0 -0.584553 1.11292 -1.1672 
174 1.29679 1.80757 1.23497 0.33218 0 0 0 0.573547 -0.124889 0.94695 
6 1.09485 1.81937 1.39358 0.350538 0 0 0 0.885886 -0.021738 0.820682 
458 0.509359 2.15863 1.40969 0.503687 0 0 0 -0.692815 0.732883 -0.0556215 
433 1.53014 1.83935 0.985042 0.363362 0 0 0 0.31796 0.587866 0.0928671 
437 1.46749 2.04175 0.748714 0.434917 0 0 0 -0.337001 1.017 -1.23255 
153 1.27972 1.81894 1.23332 0.335818 0 0 0 0.531916 -0.101092 1.03901 
286 1.48251 2.02988 0.753387 0.432206 0 0 0 -0.289582 0.99643 -1.23888 
195 0.960329 1.93964 1.32812 0.392721 0 0 0 -0.00438641 0.669683 0.654023 
399 1.51635 1.93623 0.866652 0.397929 0 0 0 -0.430086 0.218658 -1.1396 
354 0.503421 2.10105 1.49637 0.49589 0 0 0 -0.741106 0.714526 0.0203373 
372 1.50625 1.49957 1.49052 0.251512 0 0 0 -0.213111 0.0451079 0.264274 
164 0.232475 1.81997 1.47903 0.555411 0 0 0 -0.1872 -0.251013 -0.150811 
17 1.50459 1.49817 1.49392 0.25144 0 0 0 -0.188193 0.047532 0.240387 
52 0.953883 1.86576 1.44846 0.38025 0 0 0 0.395349 0.462944 0.490586 
145 0.944092 3.68322 0.31978 0.962024 0 0 0 -0.0697421 0.942572 -0.136538 
256 0.558356 2.11603 1.73864 0.49638 0 0 0 -0.760239 0.519686 0.0905243 
495 1.04309 1.64387 1.68228 0.346148 0 0 0 0.72619 0.284237 0.134107 
248 0.868788 1.56289 1.93385 0.40168 0 0 0 -0.734279 0.724777 0.574586 
43 0.148921 2.31439 1.81883 0.62384 0 0 0 -0.186941 0.906585 0.491337 
76 0.906805 1.57911 1.88405 0.389078 0 0 0 -0.518257 0.646497 0.347106 
450 0.854483 1.64816 1.83468 0.397154 0 0 0 -0.471668 0.832929 0.328213 
166 1.19151 3.39112 1.71318 0.833436 0 0 0 0.311561 -0.187272 0.0847907 
70 0.975125 2.32046 2.30292 0.608763 0 0 0 0.374796 -1.55693 -1.46655 
199 -0.163989 2.48212 2.51655 0.815892 0 0 0 -0.221986 0.751753 0.499411 
223 -0.313708 3.51998 2.20262 1.0656 0 0 0 -0.34301 0.730762 0.185286 
201 -0.0322993 3.01378 1.68138 0.815637 0 0 0 -0.0812969 0.978497 0.26741 
243 0.900444 2.03174 2.39424 0.562185 0 0 0 0.102973 -1.11848 -1.35641 
191 0.401999 2.14627 2.61254 0.667707 0 0 0 0.537563 1.16208 0.686801 
204 0.494255 3.83159 2.13436 1.03917 0 0 0 0.0831304 0.663331 0.133737 
49 0.769422 1.87246 1.59107 0.417369 0 0 0 -0.388106 1.005 0.294923 
160 0.914952 1.82327 1.54462 0.382719 0 0 0 0.276111 0.470505 0.187809 
207 0.786901 2.75747 2.50756 0.754782 0 0 0 0.726068 0.142241 -0.116928 
208 1.03099 2.39116 1.63948 0.518113 0 0 0 -1.29628 -4.15667 -2.32188 
209 0.529462 2.20089 1.58261 0.507845 0 0 0 -0.583233 0.778383 0.0883206 
447 0.197363 2.26424 2.14672 0.639118 0 0 0 0.0857711 1.11292 0.777259 
211 0.71117 3.69218 1.79547 0.943617 0 0 0 0.228615 0.561467 0.152184 
212 0.655026 3.2858 1.83325 0.812308 0 0 0 0.46902 0.508435 0.273218 
213 0.0678191 3.47689 2.25792 0.980737 0 0 0 -0.0321069 0.748329 0.229368 
490 1.46127 1.49806 1.53103 0.253856 0 0 0 1.29282 -0.711647 0.128752 
215 0.794992 3.88391 2.27497 1.06152 0 0 0 0.148997 0.502774 0.0716763 
184 1.50041 1.49456 1.50257 0.251402 0 0 0 -0.121618 0.057377 0.171762 
55 0.266694 2.26504 1.5319 0.574506 0 0 0 -0.404453 0.671162 0.0856293 
505 0.361126 1.60465 2.26191 0.548759 0 0 0 -0.98378 0.180614 0.294878 
255 1.2108 2.6105 2.17653 0.668969 0 0 0 0.0490423 -2.31913 -1.5754 
479 0.0168465 2.36861 2.04037 0.686484 0 0 0 -0.170026 0.920334 0.583062 
173 -0.124522 1.91621 1.83533 0.659826 0 0 0 -0.837785 -0.402878 -0.215147 
318 0.349883 1.78872 2.07953 0.534859 0 0 0 -0.89911 0.413728 0.360457 
54 0.430628 1.94053 1.80009 0.502877 0 0 0 -0.87603 0.602269 0.28462 
34 0.259996 2.18275 1.85537 0.577328 0 0 0 -0.275872 0.84514 0.514587 
172 0.165972 2.12749 1.58858 0.582571 0 0 0 -0.604341 0.131468 -0.0734955 
229 1.0813 2.3335 2.53381 0.661713 0 0 0 0.497561 -1.05236 -1.40596 
234 1.04408 1.64646 1.67795 0.345828 0 0 0 0.744645 0.277133 0.135655 
252 1.15749 1.61768 1.62227 0.318149 0 0 0 1.06405 -0.250255 0.524509 
235 1.04832 1.62 1.71022 0.345716 0 0 0 0.625793 0.289074 0.16219 
29 0.843076 1.72177 1.74556 0.396692 0 0 0 -0.258977 0.877956 0.216101 
513 0.660707 1.56777 2.09004 0.460309 0 0 0 -1.20302 0.51373 0.742863 
241 1.06009 1.60521 1.72045 0.343451 0 0 0 0.600427 0.255457 0.206945 
38 0.320525 1.7588 2.27449 0.566246 0 0 0 -0.693134 0.511556 0.471365 
35 0.252091 1.76159 2.40264 0.603923 0 0 0 -0.543964 0.556798 0.510691 
30 0.500222 1.66022 2.12087 0.499527 0 0 0 -1.10776 0.440832 0.496624 
239 -0.586845 2.64441 2.57886 0.974136 0 0 0 -0.577188 0.458324 0.29806 
233 0.904613 1.60662 1.8497 0.386759 0 0 0 -0.399498 0.669491 0.25664 
75 0.829572 1.66227 1.83747 0.403136 0 0 0 -0.564294 0.867671 0.365822 
219 1.50021 1.49439 1.50297 0.251406 0 0 0 -0.118439 0.0579348 0.16836 
167 1.5004 1.49455 1.50258 0.251402 0 0 0 -0.12148 0.0574011 0.171615 
466 1.5002 1.49437 1.503 0.251406 0 0 0 -0.118211 0.0579751 0.168115 
471 1.50021 1.49439 1.50297 0.251406 0 0 0 -0.118483 0.057927 0.168407 
36 1.50029 1.49445 1.50282 0.251404 0 0 0 -0.119658 0.0577205 0.169665 
278 1.50195 1.4959 1.49935 0.251391 0 0 0 -0.146769 0.0532057 0.198332 
37 1.50089 1.49497 1.50157 0.251396 0 0 0 -0.129533 0.0560831 0.1801 
58 1.50159 1.49559 1.5001 0.251391 0 0 0 -0.141023 0.0542117 0.19219 
47 1.07811 1.75571 1.49969 0.343429 0 0 0 1.0203 -0.136307 0.347799 
477 1.50167 1.49566 1.49993 0.251391 0 0 0 -0.142243 0.0539225 0.193599 
355 1.50134 1.49537 1.50062 0.251392 0 0 0 -0.136853 0.0547968 0.187933 
334 1.50104 1.49511 1.50125 0.251394 0 0 0 -0.131949 0.0556103 0.182752 
476 1.50097 1.49505 1.50139 0.251395 0 0 0 -0.130877 0.0557904 0.181616 
179 1.50089 1.49498 1.50157 0.251396 0 0 0 -0.12947 0.056028 0.180123 
222 1.50059 1.49472 1.50218 0.251399 0 0 0 -0.12463 0.0568548 0.174976 
302 1.50066 1.49478 1.50204 0.251398 0 0 0 -0.125717 0.0566677 0.176134 
176 1.50066 1.49478 1.50204 0.251398 0 0 0 -0.125778 0.0566574 0.176199 
225 0.922806 2.39725 3.41234 0.888286 0 0 0 0.373676 0.376994 0.311788 
106 0.302737 2.02714 3.35322 0.857238 0 0 0 0.120774 0.569717 0.780076 
249 -0.498556 2.47087 2.81671 0.95917 0 0 0 -0.536705 0.431532 0.394125 
228 -0.108655 3.23445 3.60257 1.22453 0 0 0 -0.281629 0.49453 0.579476 
254 -0.486115 2.76307 3.51219 1.1744 0 0 0 -0.471149 0.385427 0.584943 
230 0.506969 3.7114 2.9996 1.13779 0 0 0 0.0269014 0.555 0.26472 
231 0.5699 2.27619 3.57917 0.935085 0 0 0 0.214644 0.457906 0.686142 
242 0.544173 2.40527 3.25163 0.8569 0 0 0 0.388549 0.605924 0.516839 
246 -0.356549 2.01123 3.52011 1.04152 0 0 0 -0.460433 0.227392 0.669543 
464 0.277936 1.66566 2.73314 0.660814 0 0 0 -0.253242 0.600724 0.673398 
205 0.7895 1.62297 3.04756 0.674935 0 0 0 0.588775 0.903091 0.63975 
251 0.368725 3.45847 3.03809 1.07461 0 0 0 0.0473224 0.574818 0.331752 
105 -0.17273 1.52945 3.72935 1.0418 0 0 0 -0.383889 0.0755036 0.777717 
250 0.796413 3.13053 3.3993 1.05192 0 0 0 0.168003 0.346681 0.318547 
244 1.25516 2.37352 3.45388 0.901674 0 0 0 0.225143 0.194167 0.0630256 
240 -0.316574 3.69298 3.4091 1.33893 0 0 0 -0.398573 0.574284 0.443182 
257 3.62636 1.21803 -0.278446 1.02737 0 0 0 0.662293 -0.0959307 -0.447612 
441 1.86626 1.15929 0.0293849 0.661003 0 0 0 -0.675399 -0.369682 0.601522 
288 3.6737 0.857923 0.0530749 0.99189 0 0 0 0.717092 -0.235549 -0.334329 
260 3.1323 0.827986 -0.609108 1.0191 0 0 0 0.333842 -0.274309 -0.675074 
261 3.52398 -0.10012 0.154683 1.093 0 0 0 0.50273 -0.634769 -0.330553 
276 2.55308 0.780203 -0.320844 0.838312 0 0 0 -0.251421 -0.566756 -0.547737 
427 2.22869 1.08024 0.20878 0.63271 0 0 0 -0.822428 -0.713989 -0.101822 
285 1.77615 0.218843 -0.0315149 0.864556 0 0 0 -0.185622 0.145303 0.517833 
436 2.35116 1.4222 -0.0512624 0.678325 0 0 0 -0.406528 -0.673942 -0.734156 
266 2.66024 0.936353 -0.843417 1.00718 0 0 0 0.0635742 -0.223766 -0.783959 
267 3.03037 0.608858 -0.0398045 0.865179 0 0 0 0.15906 -0.64375 -0.50613 
293 2.10191 1.07615 -0.870519 0.957151 0 0 0 -0.174109 -0.22362 -0.718737 
269 2.55512 0.949702 -0.706877 0.943086 0 0 0 -0.0495115 -0.288847 -0.743548 
270 2.46766 0.612228 -0.432206 0.891625 0 0 0 -0.223507 -0.523982 -0.496715 
271 3.23129 -0.579424 -0.176075 1.23192 0 0 0 0.360717 -0.692753 -0.376331 
272 1.6467 0.823009 0.128489 0.702441 0 0 0 -0.205729 0.701015 1.55318 
284 2.04211 0.324123 -0.432476 0.936209 0 0 0 -0.243787 -0.335181 -0.14903 
290 2.38962 -0.690832 -0.21417 1.17656 0 0 0 0.0652778 -0.547435 -0.230046 
291 3.16121 0.334528 -0.492718 1.06554 0 0 0 0.325713 -0.499011 -0.575623 
294 3.06872 0.327592 0.682215 0.794006 0 0 0 0.101737 -0.942255 -0.43314 
23 1.96012 1.40534 1.23483 0.34908 0 0 0 -0.599529 -0.21727 0.0857707 
453 2.93383 0.913309 1.3622 0.602811 0 0 0 0.732851 -0.100551 0.132457 
18 1.90808 1.36094 1.34066 0.333037 0 0 0 -1.25071 0.0129165 0.29535 
298 2.04667 1.34271 1.25147 0.36717 0 0 0 -0.540387 -0.421709 0.0781924 
299 2.9192 0.965588 1.15319 0.600931 0 0 0 0.695807 -0.293981 -0.119132 
451 2.1258 1.28905 1.26587 0.385298 0 0 0 -0.254698 -0.63741 -0.0746544 
301 3.70181 0.535438 1.4268 0.900408 0 0 0 0.879142 -0.217158 0.044607 
264 2.45149 0.855538 0.62013 0.59732 0 0 0 -0.523692 -0.843215 -0.41692 
445 2.28053 1.21986 1.24788 0.423469 0 0 0 0.555519 -0.751844 -0.307237 
304 2.19731 1.11981 1.14347 0.431073 0 0 0 2.27668 2.78755 2.37288 
41 2.8642 0.991068 0.872288 0.609242 0 0 0 0.493121 -0.669868 -0.497213 
306 1.99421 1.20525 1.4957 0.35872 0 0 0 -1.55159 -0.175375 0.0555084 
307 2.07211 1.04493 1.19273 0.425503 0 0 0 3.78014 7.1149 5.71632 
277 2.64746 1.39934 0.72181 0.548756 0 0 0 0.848671 -0.164876 -0.410673 
309 3.42367 0.409371 1.28612 0.825451 0 0 0 0.705411 -0.507584 -0.108064 
310 2.04762 -0.00926305 1.06794 0.725923 0 0 0 -0.566297 0.412267 0.0785143 
311 2.88347 1.04323 0.925482 0.602773 0 0 0 0.627637 -0.456685 -0.367856 
341 2.75568 1.06759 0.733263 0.594092 0 0 0 0.363327 -0.793541 -0.668176 
432 2.74184 1.44695 0.883124 0.554668 0 0 0 0.863053 0.249317 0.0388638 
161 2.00056 1.43223 1.16426 0.363504 0 0 0 -0.0699422 -0.338694 -0.117082 
182 2.69528 1.32605 0.523286 0.596683 0 0 0 0.459739 -0.519063 -0.62289 
316 2.92723 -0.308178 0.75685 0.924407 0 0 0 0.0547563 -0.866017 -0.307157 
317 3.34937 0.014801 0.76808 0.924394 0 0 0 0.39466 -0.767693 -0.282416 
275 3.40929 -0.820399 0.709984 1.19499 0 0 0 0.430008 -0.788069 -0.184204 
33 2.6597 0.845101 1.48871 0.537869 0 0 0 0.731291 -0.58471 0.0577244 
320 1.86542 0.0375177 0.931893 0.734207 0 0 0 -0.348835 1.04574 0.599287 
72 2.19326 1.16819 1.39319 0.403131 0 0 0 -0.13603 -0.769849 -0.0247195 
265 1.93826 -0.369083 0.732908 0.882172 0 0 0 -0.204936 0.053306 0.157732 
501 2.42645 1.15685 1.21413 0.460773 0 0 0 0.92516 -0.61282 -0.326022 
56 2.57031 0.703 0.532531 0.656285 0 0 0 -0.587875 -1.04466 -0.472257 
325 2.33715 1.10414 1.34222 0.440659 0 0 0 0.761459 -0.601107 0.0306109 
287 2.41139 -0.36653 0.555641 0.915701 0 0 0 -0.190795 -0.55472 -0.138691 
327 3.36119 1.24899 1.48976 0.729279 0 0 0 0.60289 0.610945 0.465253 
329 1.95982 0.208853 1.14448 0.65529 0 0 0 -0.514491 1.36127 0.567934 
428 2.78132 0.813921 1.48194 0.571733 0 0 0 0.696748 -0.434549 0.0856862 
31 2.45658 0.720518 0.487637 0.649592 0 0 0 -0.72916 -0.862226 -0.283707 
283 1.78566 0.844213 0.902887 0.529964 0 0 0 2.21342 7.11528 5.72792 
326 2.4987 1.10644 1.22629 0.479723 0 0 0 0.917785 -0.587017 -0.275389 
470 3.20794 1.21786 1.38465 0.675377 0 0 0 0.604966 0.650664 0.47989 
313 2.78303 0.837266 1.4233 0.569369 0 0 0 0.688859 -0.469731 0.0305235 
457 1.88296 1.3176 1.42381 0.328058 0 0 0 -1.57503 0.173022 0.325259 
455 2.09928 1.46729 1.04027 0.396735 0 0 0 0.73734 -0.567029 -0.644776 
422 2.35312 1.29627 1.08161 0.44657 0 0 0 1.03426 -0.563827 -0.623551 
456 2.55984 0.341744 1.38464 0.62805 0 0 0 -0.349847 -1.08265 -0.530406 
474 1.85407 1.41999 1.30336 0.322767 0 0 0 -0.756359 0.168466 0.00893095 
300 3.62896 -0.222311 1.47508 1.02441 0 0 0 0.628928 -0.628298 -0.0936719 
478 2.35706 1.45327 0.867214 0.46621 0 0 0 1.20536 -0.344415 -0.812673 
340 1.70264 1.43603 1.41148 0.286353 0 0 0 -0.968819 0.606839 -0.388382 
281 1.70783 0.00683697 0.314206 0.851727 0 0 0 -0.0686958 0.525065 0.736435 
333 2.95212 0.6258 2.57619 0.753145 0 0 0 0.713187 0.39876 0.502314 
323 1.96024 1.06257 1.74773 0.38267 0 0 0 -0.574097 -0.518619 -0.531177 
335 2.66602 0.847267 2.44811 0.646091 0 0 0 0.592469 0.83269 0.530783 
491 1.78688 1.17972 1.7055 0.33807 0 0 0 -0.880301 0.101818 -0.516069 
337 2.05362 -0.945714 1.91696 0.993525 0 0 0 -0.0302148 -0.872238 -0.198419 
338 3.03181 0.240151 2.16305 0.772452 0 0 0 0.621385 -0.400475 0.185035 
339 1.79311 0.243009 1.69179 0.598002 0 0 0 -0.162365 1.31184 -0.0847514 
370 1.65925 -0.97664 2.59511 1.03459 0 0 0 -0.00371521 -0.913973 -0.00498098 
452 2.42607 0.244141 1.74989 0.624611 0 0 0 -0.262873 -1.04638 -0.489011 
295 2.09994 0.574219 2.39618 0.559709 0 0 0 0.422674 -0.554884 0.44983 
296 2.19624 1.05237 1.56909 0.416345 0 0 0 0.0525473 -0.767465 0.00178278 
344 2.37282 0.96081 1.94511 0.49317 0 0 0 0.0946938 -0.747977 -0.194929 
345 3.40707 1.06475 2.12277 0.795706 0 0 0 0.617735 0.513879 0.408957 
346 2.01393 0.960281 1.86444 0.415938 0 0 0 0.212621 -0.860646 0.00207017 
364 1.68475 1.12266 1.87406 0.355485 0 0 0 0.0337607 -0.643267 -0.441327 
348 3.88722 1.46542 2.1892 0.984171 0 0 0 0.623123 0.145076 0.180694 
331 2.11756 0.995955 1.72374 0.41584 0 0 0 0.0795947 -0.764245 -0.0600614 
350 2.3602 -0.0945949 1.61191 0.719201 0 0 0 -0.476425 -0.847098 -0.61106 
351 1.77259 1.23309 1.64011 0.323703 0 0 0 -1.06185 0.264577 -0.192843 
352 2.46184 0.66852 2.26259 0.58233 0 0 0 0.676372 0.0572857 0.58258 
363 2.55574 -0.637611 2.03573 0.923295 0 0 0 0.0626229 -0.993184 -0.189393 
45 1.68419 1.14929 1.83489 0.346041 0 0 0 -0.0692399 -0.452014 -0.387733 
365 1.6938 0.222913 2.3901 0.619912 0 0 0 -0.246716 -1.20417 -0.522418 
356 3.26093 1.43479 2.49167 0.819985 0 0 0 0.0772365 0.442801 0.108643 
357 2.16288 1.08651 2.24833 0.502371 0 0 0 -1.19515 -1.26626 -1.34782 
358 2.14802 0.666398 2.60497 0.595296 0 0 0 0.560605 0.181424 0.638798 
359 3.56756 -0.600342 2.21029 1.1353 0 0 0 0.571199 -0.671613 0.0263356 
360 1.95003 0.186205 2.18313 0.617075 0 0 0 -0.299104 -1.06726 -0.548368 
361 2.06205 -0.717422 1.53365 0.916865 0 0 0 -0.165977 -0.667966 -0.288176 
362 2.41713 0.274361 1.96776 0.621368 0 0 0 -0.0196181 -1.0512 -0.266828 
460 1.97019 1.14592 1.60674 0.364137 0 0 0 -1.33181 -0.186514 -0.368122 
303 2.32215 1.05425 1.64056 0.44636 0 0 0 -0.243879 -1.64996 -0.78216 
393 1.97008 -0.32891 2.07153 0.770045 0 0 0 -0.341786 -0.895119 -0.523345 
324 2.45376 0.691634 1.9828 0.539926 0 0 0 0.658966 -0.447206 0.399892 
312 3.14154 1.31986 1.96637 0.699456 0 0 0 -0.035595 0.79951 0.326177 
375 1.7987 0.918474 2.09439 0.426672 0 0 0 0.572651 -1.16244 0.509507 
459 2.65914 0.457168 1.80806 0.612561 0 0 0 0.369614 -0.819308 -0.0486237 
62 1.74291 1.05769 1.9291 0.377705 0 0 0 0.103682 -0.931273 -0.415021 
380 2.33974 0.664182 2.34272 0.57309 0 0 0 0.614358 -0.00929396 0.600987 
485 1.68786 1.16813 1.80446 0.339539 0 0 0 -0.171957 -0.322739 -0.330875 
510 2.07899 0.979145 1.78211 0.41585 0 0 0 0.124305 -0.791822 -0.0554075 
497 1.81804 0.609492 2.4823 0.542848 0 0 0 0.30171 -0.771569 0.409472 
347 1.77136 -0.881252 1.97401 0.96273 0 0 0 -0.089569 -0.786547 -0.247518 
377 3.60722 1.30346 2.56839 0.933677 0 0 0 0.514265 0.272031 0.238899 
314 2.7149 0.746784 1.7233 0.570732 0 0 0 0.739723 -0.292754 0.267048 
388 1.75471 1.18522 1.72428 0.334978 0 0 0 -0.686857 0.0358346 -0.442394 
315 2.63579 0.31402 1.72366 0.638915 0 0 0 0.0537943 -1.04203 -0.326248 
472 2.09292 0.8705 1.94172 0.44809 0 0 0 0.491782 -0.963389 0.346353 
483 1.82858 0.756606 2.34806 0.493681 0 0 0 0.439489 -0.870004 0.607207 
481 2.18418 0.922724 1.7832 0.441241 0 0 0 0.4505 -0.865554 0.161415 
53 1.96945 0.837137 2.09145 0.454925 0 0 0 0.523687 -1.05332 0.54641 
484 1.59689 0.907453 2.25909 0.443743 0 0 0 0.520875 -1.21091 0.880341 
384 3.31989 -0.642172 2.68997 1.13434 0 0 0 0.468077 -0.689846 0.149537 
79 1.6855 1.09274 1.92023 0.366689 0 0 0 0.137825 -0.88335 -0.419611 
492 1.57912 1.14676 1.92413 0.353493 0 0 0 0.285154 -0.82432 -0.0689636 
102 1.57313 0.883424 2.31386 0.456286 0 0 0 0.432901 -1.15594 0.88619 
353 2.07857 1.26353 2.6402 0.588627 0 0 0 -0.784822 0.435475 -1.26499 
462 2.05823 1.16867 1.5 0.374844 0 0 0 -1.12475 -0.441555 -0.0075358 
366 3.1868 0.39456 3.69955 1.1194 0 0 0 0.427861 -0.0589653 0.661265 
89 1.72107 0.843354 2.90213 0.612807 0 0 0 0.333714 0.563346 0.677296 
368 3.28496 -0.261772 3.55746 1.21014 0 0 0 0.427476 -0.424274 0.520486 
369 3.64677 0.24624 3.45703 1.1909 0 0 0 0.608278 -0.163267 0.482325 
378 2.68147 0.577424 2.86986 0.757389 0 0 0 0.589624 0.356547 0.599855 
389 2.14752 0.922796 3.36327 0.790329 0 0 0 0.301178 0.639918 0.69776 
95 1.59937 0.244864 3.84568 0.991722 0 0 0 0.0260031 -0.174657 0.844433 
373 1.65834 -0.0884483 2.8068 0.76713 0 0 0 -0.127084 -0.983978 -0.0238819 
390 2.59698 1.19522 3.71532 0.975793 0 0 0 0.204654 0.334105 0.633332 
86 1.82023 1.15321 3.19896 0.705228 0 0 0 0.238587 0.999355 0.37436 
376 2.3167 1.0375 3.19032 0.758191 0 0 0 0.302553 0.831209 0.474068 
391 3.65085 0.0254064 3.455 1.22491 0 0 0 0.59153 -0.276207 0.462942 
236 1.54662 0.573477 2.76919 0.603726 0 0 0 0.0080221 -0.614122 0.469229 
379 2.28479 0.0643974 2.74732 0.75738 0 0 0 0.197693 -0.711344 0.263059 
392 3.16306 0.164083 2.91473 0.933105 0 0 0 0.561891 -0.181141 0.368112 
381 3.3365 -0.184161 3.45155 1.17626 0 0 0 0.468471 -0.388438 0.48681 
115 1.62184 0.856721 2.99927 0.635535 0 0 0 0.269758 0.566718 0.738459 
386 3.19115 1.2429 3.66152 1.08251 0 0 0 0.343953 0.202023 0.54229 
97 1.83971 0.614678 2.73121 0.599046 0 0 0 0.341787 -0.192324 0.590669 
385 2.36353 -0.0875372 3.34841 0.945009 0 0 0 0.184321 -0.438183 0.551918 
413 2.04561 3.55203 0.25629 0.937591 0 0 0 0.0167886 0.826887 0.106738 
396 3.29247 3.22368 0.0353809 1.07479 0 0 0 0.396767 0.490327 -0.151138 
417 1.86394 3.11944 -0.421514 0.938944 0 0 0 0.0259767 0.635541 -0.497445 
398 3.25695 2.67494 0.143853 0.921569 0 0 0 0.465741 0.363361 -0.0248133 
418 3.60252 2.06812 -0.0315361 0.979931 0 0 0 0.668197 0.103293 -0.267781 
400 3.51105 2.53616 -0.0693556 1.01263 0 0 0 0.566682 0.207838 -0.261323 
420 1.73365 2.37768 -0.458356 0.802555 0 0 0 0.017389 0.14998 -0.822005 
414 2.021 2.40555 -0.00567001 0.688313 0 0 0 0.194055 0.747619 -0.386255 
416 2.84933 3.42506 -0.151607 1.0695 0 0 0 0.207377 0.613232 -0.261577 
404 3.3127 3.00275 -0.201165 1.07257 0 0 0 0.424788 0.36672 -0.332246 
415 3.39604 3.43407 0.0890926 1.15433 0 0 0 0.404626 0.538804 -0.151419 
322 1.89507 1.81396 -0.137574 0.66346 0 0 0 -0.322278 -0.680424 -0.736603 
407 3.49973 1.68272 -0.386586 1.01346 0 0 0 0.577619 0.0301503 -0.502844 
408 2.0203 1.93863 -0.607173 0.832001 0 0 0 -0.0249563 -0.176071 -0.869691 
202 2.56612 1.60662 0.174911 0.64414 0 0 0 0.242825 -0.252879 -0.704199 
410 3.59068 2.9862 -0.00984902 1.11004 0 0 0 0.546411 0.338202 -0.221809 
411 1.93646 3.67858 -0.355087 1.08848 0 0 0 -0.0202915 0.765233 -0.418147 
289 2.40056 1.93837 0.244716 0.614261 0 0 0 0.514143 0.45016 -0.39015 
262 1.74618 2.1512 0.279804 0.555164 0 0 0 0.012774 0.577694 -0.81058 
12 2.05402 1.71887 0.758055 0.438051 0 0 0 1.01322 -0.0353233 -1.31539 
419 2.13205 2.72408 0.899574 0.661816 0 0 0 -0.342845 -0.253262 0.907385 
406 2.42478 3.61752 0.659937 0.970484 0 0 0 -0.0178881 0.633407 0.325801 
5 1.83386 1.60258 1.06899 0.350517 0 0 0 0.51836 -0.00483889 -0.439325 
282 2.10937 1.7138 0.725216 0.451012 0 0 0 1.02973 -0.00762431 -1.22514 
332 2.94218 1.87249 1.48281 0.65802 0 0 0 -1.3465 0.0500994 0.272368 
273 1.97811 2.02245 0.498355 0.505723 0 0 0 0.418259 0.71575 -0.889812 
465 1.55316 1.80293 1.02061 0.352749 0 0 0 0.423737 0.413211 0.116692 
473 2.46734 1.59649 0.666438 0.518458 0 0 0 0.967336 0.00929867 -0.462036 
431 2.32607 2.05446 0.519979 0.560176 0 0 0 0.724118 0.993834 0.163027 
14 1.55419 1.93328 0.828397 0.405062 0 0 0 0.0452443 0.830531 -0.972475 
292 1.85024 1.93215 0.623216 0.458606 0 0 0 0.520339 0.633285 -1.45585 
434 2.75644 2.12253 0.776649 0.640349 0 0 0 0.276003 0.828507 0.976956 
435 2.2755 2.78877 1.36395 0.724161 0 0 0 -1.28363 -1.5975 0.0353441 
449 1.78491 1.65285 1.04033 0.351591 0 0 0 0.620237 0.0967027 -0.444077 
397 2.83484 3.18347 0.751304 0.894629 0 0 0 -0.0118742 0.462724 0.500414 
503 1.69432 1.53291 1.28279 0.296974 0 0 0 0.0871857 0.668219 -1.17526 
439 2.23606 1.68881 0.721627 0.470068 0 0 0 0.99754 -0.149413 -1.01182 
440 3.40613 2.58475 1.18372 0.890001 0 0 0 0.0148314 0.225987 0.341529 
321 3.75634 1.95026 1.30416 0.908664 0 0 0 0.522759 0.204479 0.235079 
442 2.01407 1.55506 0.987747 0.389565 0 0 0 0.846803 -0.376412 -0.680736 
280 3.36551 1.9208 0.844513 0.776133 0 0 0 0.563188 0.495333 0.460952 
409 2.0694 2.09253 1.00965 0.487105 0 0 0 -3.00208 -4.83802 -2.50862 
132 1.60203 2.67404 1.23181 0.597767 0 0 0 -0.896626 -2.8779 -0.340685 
412 3.37692 2.95078 0.91598 0.958065 0 0 0 0.185463 0.354266 0.329063 
467 2.39565 1.7078 0.607568 0.518873 0 0 0 0.911738 0.184927 -0.45414 
475 1.63585 1.75674 1.01821 0.351079 0 0 0 0.572114 0.320054 -0.169978 
297 1.88583 2.11884 0.468276 0.516632 0 0 0 0.269648 0.90049 -0.811018 
258 1.88163 2.07848 0.490095 0.505799 0 0 0 0.292754 0.819154 -0.959389 
21 1.95023 1.79309 0.737006 0.433781 0 0 0 0.835046 0.192443 -1.45181 
155 1.57049 2.57306 1.03081 0.556285 0 0 0 -0.930628 -1.97374 -0.346134 
152 1.64318 3.26844 0.89639 0.775454 0 0 0 0.145058 0.320252 0.577037 
330 3.25835 2.11222 1.26291 0.765142 0 0 0 -0.22736 0.346558 0.517385 
50 2.10971 2.01879 0.461301 0.528909 0 0 0 0.523366 0.760789 -0.524185 
11 1.82699 1.65768 0.998595 0.364155 0 0 0 0.726188 0.0561093 -0.479181 
221 3.06292 2.07823 0.893 0.704356 0 0 0 0.191762 0.675903 0.805536 
74 3.04859 1.89687 0.613135 0.697117 0 0 0 0.733966 0.698628 0.481362 
446 2.36993 1.57697 0.416046 0.551069 0 0 0 0.338428 -0.381186 -0.777629 
395 2.2081 3.17315 0.332803 0.823201 0 0 0 0.0906852 0.78929 0.3801 
259 2.6154 1.55377 0.447528 0.589884 0 0 0 0.615127 -0.134944 -0.484157 
421 3.45212 3.42162 0.546129 1.11866 0 0 0 0.356776 0.514225 0.0955122 
454 1.56662 1.58654 1.3165 0.280868 0 0 0 0.559541 0.530509 -1.02796 
46 1.85723 1.59487 1.06019 0.354938 0 0 0 0.539234 -0.0521687 -0.419144 
342 1.94864 1.51663 1.09144 0.362942 0 0 0 0.365668 -0.248104 -0.311604 
468 1.84502 1.61503 1.04262 0.356898 0 0 0 0.605201 -0.0199513 -0.435462 
3 1.71463 1.71188 1.01634 0.352864 0 0 0 0.642048 0.223092 -0.361546 
305 1.96778 2.68474 0.38891 0.661755 0 0 0 0.243363 1.21753 0.507512 
197 2.25482 2.31208 0.348898 0.621998 0 0 0 0.537162 1.21493 0.278898 
405 2.37908 2.7423 0.381567 0.727043 0 0 0 0.265673 0.922399 0.602291 
401 2.75364 3.61332 0.332401 1.03902 0 0 0 0.115533 0.715405 0.107309 
13 1.5531 1.67704 1.20138 0.307972 0 0 0 0.785876 0.49196 -0.79412 
387 2.43193 1.68889 2.17913 0.610135 0 0 0 -3.33223 -1.77695 -2.95717 
482 2.51489 2.75823 2.04881 0.826891 0 0 0 -1.56767 -1.33386 -0.988754 
463 2.97197 2.60117 1.62743 0.818335 0 0 0 -1.07672 -0.446853 -0.0860585 
394 2.64219 1.6578 2.44455 0.691175 0 0 0 -1.51697 -0.0733933 -1.2724 
319 3.26548 1.82336 1.59356 0.744788 0 0 0 -0.412064 0.388328 0.342385 
500 3.11264 2.32838 2.11934 0.848986 0 0 0 -0.956501 -0.38304 -0.424585 
487 2.72997 2.14153 2.33657 0.76857 0 0 0 -1.73815 -0.883106 -1.23832 
502 2.94168 3.1234 2.45848 1.05467 0 0 0 -0.570303 -0.288457 -0.388164 
499 3.04774 2.90836 2.592 1.0427 0 0 0 -0.532265 -0.292091 -0.370332 
429 3.27855 2.24372 1.51449 0.807219 0 0 0 -0.495882 0.0821248 0.239965 
504 1.83961 1.98456 2.30367 0.59759 0 0 0 -3.80651 -5.33916 -5.67527 
383 3.18367 1.5004 2.61693 0.827666 0 0 0 -0.0343618 0.389494 0.0164126 
99 1.58531 1.59036 3.49473 0.813436 0 0 0 0.14999 0.619324 0.283841 
382 2.94579 1.66321 3.32611 0.956234 0 0 0 0.0216942 0.231188 0.173937 
374 2.17945 1.70018 3.15937 0.782233 0 0 0 -0.408959 0.359891 -0.575173 
367 2.15103 1.73257 3.16272 0.783981 0 0 0 -0.427383 0.315459 -0.617703 
512 1.68195 3.18105 2.91329 0.986989 0 0 0 -0.181801 -0.379631 -0.491421 
498 3.03601 3.15207 3.07829 1.20085 0 0 0 -0.264327 -0.140565 -0.154736 
508 2.36177 2.26392 2.93278 0.848659 0 0 0 -1.00137 -0.572096 -1.04111 
488 2.76679 3.03525 3.02365 1.10813 0 0 0 -0.447041 -0.241954 -0.294056 
100 1.61345 1.74365 3.65537 0.88614 0 0 0 0.0867498 0.432643 0.364273 
245 1.53524 1.87342 3.55191 0.862725 0 0 0 0.113813 0.405932 0.174802 
ITEM: TIMESTEP
740906
ITEM: NUMBER OF ATOMS
512
ITEM: BOX BOUNDS ss ss ss
-8.1988304040437454e-01 3.8875120101141034e+00
-9.7693552394909078e-01 3.9476017366228966e+00
-9.1281994132074906e-01 3.9096273972560476e+00
ITEM: ATOMS id x y z width_SPH x_COM y_COM z_COM vx vy vz 
263 1.46291 0.88658 -0.255344 0.797053 0 0 0 -0.184406 0.0652888 0.617629 
403 1.47177 1.28214 -0.572762 0.836226 0 0 0 -0.296159 -0.417884 -0.28163 
25 0.48232 0.121025 0.00276802 1.02263 0 0 0 0.431018 0.529147 0.569926 
279 1.31897 1.03444 -0.485001 0.850873 0 0 0 -0.189068 -0.165788 0.106864 
402 1.48864 1.3275 -0.648022 0.856458 0 0 0 -0.281506 -0.409921 -0.421842 
16 0.283962 0.665576 0.14801 0.902206 0 0 0 0.586528 0.592036 0.780346 
8 0.54884 0.851557 0.116507 0.825733 0 0 0 0.734414 0.682647 1.15146 
131 1.20617 1.40823 0.665976 0.517636 0 0 0 4.80007 6.68331 7.38318 
217 -0.458205 1.32447 1.07566 0.827556 0 0 0 -0.140265 -0.412284 -0.13991 
2 -0.191097 0.578913 0.378221 0.976756 0 0 0 0.26942 0.355319 0.381136 
24 0.947294 0.538041 0.655878 0.732045 0 0 0 1.68985 2.78507 2.58751 
129 -0.0272449 1.21936 0.471861 0.809152 0 0 0 0.464893 -0.11133 0.504343 
224 -0.038186 1.2323 1.09789 0.718728 0 0 0 1.00082 -0.0777663 0.267196 
78 0.717461 0.416249 1.44599 0.684318 0 0 0 2.08588 2.94724 0.72575 
67 0.0566717 0.170698 1.35969 0.867435 0 0 0 0.646813 0.692226 0.00583364 
22 1.10959 0.782225 0.4765 0.689902 0 0 0 1.54597 2.71424 3.19743 
125 0.0919152 1.14992 0.33414 0.817639 0 0 0 0.528963 0.0431959 0.639714 
10 0.362722 0.340196 0.337044 0.920795 0 0 0 0.743188 0.865772 0.897097 
68 -0.629252 1.10997 1.49534 0.872298 0 0 0 -0.401524 -0.268312 -0.3032 
116 -0.467656 -0.224832 2.43602 1.06883 0 0 0 -0.510464 -0.41394 -0.0581866 
39 1.33122 1.26246 1.96203 0.349425 0 0 0 -0.24841 -0.39329 0.561731 
57 -0.136592 -0.184235 1.60661 0.978297 0 0 0 0.0862792 0.0850701 -0.196885 
111 1.47855 0.661559 1.94945 0.479326 0 0 0 3.06041 4.58018 2.61049 
59 0.836245 1.31492 2.27396 0.459125 0 0 0 -1.05543 -0.0553372 0.985144 
183 0.484323 1.33661 2.61271 0.586942 0 0 0 -0.675472 -0.0649864 0.479693 
80 1.06798 1.32418 2.08947 0.394886 0 0 0 -0.907506 0.0277259 0.821357 
103 -0.666442 -0.192845 2.21681 1.11079 0 0 0 -0.54174 -0.319405 -0.0821407 
63 -0.481043 0.335769 1.67077 0.939104 0 0 0 -0.201797 0.0269422 -0.274252 
64 0.692252 1.25096 1.95538 0.468151 0 0 0 1.8129 3.52187 2.44696 
65 1.41229 1.12563 2.09166 0.38475 0 0 0 0.113596 -1.07876 0.468895 
66 0.536316 -0.153305 1.5622 0.845281 0 0 0 0.649413 0.683612 -0.164184 
27 1.41507 1.3286 1.80371 0.309624 0 0 0 -0.411794 -0.394258 1.39326 
343 1.489 1.48456 1.52633 0.252367 0 0 0 0.0620413 0.0890076 -0.0237217 
69 0.57852 1.29327 2.42892 0.53307 0 0 0 -0.970083 -0.283461 0.404228 
82 0.155986 0.76011 1.61801 0.699978 0 0 0 1.16219 0.799955 -0.325311 
71 0.319317 -0.0268678 1.59759 0.843496 0 0 0 0.618193 0.613288 -0.22304 
509 1.47935 1.47659 1.54574 0.254225 0 0 0 0.182474 0.0866189 -0.118282 
226 0.73973 1.28996 2.43123 0.504116 0 0 0 -0.86039 -0.174968 0.698015 
511 1.41956 1.17053 2.0196 0.366041 0 0 0 0.0941181 -0.909216 0.297046 
118 0.968942 0.167103 2.50852 0.690234 0 0 0 -0.380086 -0.897089 -0.669384 
26 1.04233 1.47276 1.9123 0.366373 0 0 0 -0.426006 0.305068 0.347911 
77 0.568466 0.474342 2.28659 0.658593 0 0 0 -0.193293 -0.487513 -0.88349 
92 0.62797 -0.707368 2.33072 0.983498 0 0 0 -0.056268 -0.633955 -0.231831 
107 0.249775 0.442639 2.19695 0.724249 0 0 0 -0.0884998 -0.275276 -0.803404 
122 1.04948 0.384906 2.37968 0.613125 0 0 0 -0.286972 -0.858493 -0.736309 
94 1.18309 0.612674 2.42577 0.545581 0 0 0 -0.172935 -1.01248 -0.0157091 
247 0.952672 1.10214 2.48173 0.497484 0 0 0 -0.612 -0.522938 0.847415 
73 1.44161 0.794438 2.54928 0.516403 0 0 0 0.0604655 -0.778618 0.685189 
87 0.756021 0.283343 2.07374 0.669736 0 0 0 0.352314 0.328709 -0.88605 
84 -0.667097 1.05545 2.40897 0.902825 0 0 0 -0.847679 -0.267149 -0.18099 
507 1.18215 1.1312 2.24889 0.425767 0 0 0 -0.485926 -0.575633 1.24135 
169 1.39493 0.991806 2.28372 0.436524 0 0 0 0.175099 -1.07744 1.11098 
85 0.770572 -0.606562 1.99598 0.927262 0 0 0 0.0904856 -0.341417 -0.356414 
371 1.36018 0.868795 2.51444 0.500145 0 0 0 -0.025302 -0.821029 0.806224 
448 0.60902 1.28906 1.89854 0.483831 0 0 0 1.7175 3.16735 1.99167 
328 0.993104 0.774303 2.21876 0.511075 0 0 0 0.604146 0.591893 0.631534 
112 0.973462 1.266 2.22438 0.433457 0 0 0 -0.947551 -0.0536049 1.19696 
40 0.542478 1.29074 2.42961 0.540917 0 0 0 -0.994557 -0.331583 0.322559 
496 1.48485 1.48105 1.5348 0.253068 0 0 0 0.119675 0.0926778 -0.0759631 
42 1.22246 1.29781 2.00115 0.362849 0 0 0 -0.557403 -0.189123 0.500999 
237 1.11561 1.25582 2.14124 0.402219 0 0 0 -0.810604 -0.184021 0.983608 
494 1.38749 1.19011 2.01749 0.364346 0 0 0 -0.0151246 -0.801712 0.357138 
181 0.316509 1.14153 2.56082 0.627434 0 0 0 -0.957865 -0.732042 -0.0854686 
81 -0.121093 -0.621639 2.09638 1.08733 0 0 0 -0.197006 -0.422683 -0.131279 
83 1.18469 -0.506678 2.52988 0.870693 0 0 0 -0.14237 -0.821276 -0.309907 
232 0.998011 1.0124 2.54916 0.515983 0 0 0 -0.467554 -0.616721 0.771149 
93 -0.508147 0.844911 2.0297 0.851661 0 0 0 -0.540547 -0.298774 -0.444181 
61 1.51202 0.359916 1.94817 0.566536 0 0 0 0.58949 1.39729 -0.113238 
349 1.50386 -0.381652 1.57127 0.808644 0 0 0 -0.129208 0.234032 -0.291411 
253 1.16406 1.08586 2.3957 0.460847 0 0 0 -0.611611 -0.90714 0.937631 
193 -0.727523 1.42164 1.5528 0.877433 0 0 0 -0.696367 -0.37289 -0.303499 
506 1.46209 1.27675 1.83871 0.320015 0 0 0 -0.221556 -0.637816 0.942395 
44 -0.248201 1.37176 1.89732 0.712931 0 0 0 -0.599163 -0.717583 -0.652015 
32 1.23784 1.37168 1.88978 0.336997 0 0 0 -0.41823 -0.0105535 0.780166 
493 1.20602 1.42553 1.84333 0.331296 0 0 0 -0.251762 0.0106472 0.833481 
9 1.40198 1.32545 1.82112 0.313664 0 0 0 -0.524581 -0.595564 1.18529 
218 1.31593 1.40023 1.78917 0.309639 0 0 0 -0.538558 -0.47102 1.28594 
200 -0.243764 1.45155 1.90838 0.706228 0 0 0 -0.690008 -0.735854 -0.614235 
486 1.31685 1.26322 1.98199 0.354054 0 0 0 0.426074 0.780268 1.3514 
98 0.192046 0.505973 2.67418 0.762681 0 0 0 -0.547804 -0.679275 -0.31939 
113 1.36474 -0.767748 2.84603 0.993316 0 0 0 -0.0519094 -0.877638 0.0551785 
114 -0.662812 0.667394 3.0988 1.04669 0 0 0 -0.730344 -0.208071 0.292163 
108 0.827866 -0.375041 3.19939 0.967027 0 0 0 -0.179653 -0.68332 0.269368 
163 0.568724 0.925256 2.79803 0.645966 0 0 0 -0.629005 -0.71471 0.303405 
60 0.824457 1.36372 3.15257 0.691632 0 0 0 0.333298 0.629405 0.835942 
117 0.983525 0.117899 3.7019 0.978817 0 0 0 -0.129094 -0.308783 0.718559 
51 0.407868 1.42257 2.78812 0.64207 0 0 0 -0.346625 0.249814 0.656775 
88 1.42973 0.53892 3.6292 0.869875 0 0 0 0.00638882 0.0152724 0.894952 
109 -0.521003 -0.195161 3.25587 1.19581 0 0 0 -0.575244 -0.43826 0.393266 
90 -0.819588 0.596007 2.78624 1.05283 0 0 0 -0.798725 -0.21651 0.11203 
91 0.794654 1.1685 3.90933 0.96224 0 0 0 -0.00640092 0.133373 0.951553 
227 1.33614 1.35544 2.76354 0.562286 0 0 0 -0.0936513 0.239741 -0.637903 
438 0.692842 1.45414 3.02107 0.665647 0 0 0 0.310277 0.681392 0.831894 
119 0.719814 0.0526619 3.43823 0.932508 0 0 0 -0.230061 -0.438123 0.511978 
430 1.20337 0.667936 2.80486 0.606692 0 0 0 -0.284856 -0.688799 0.48499 
96 1.21336 -0.443181 3.49593 1.03711 0 0 0 -0.0580887 -0.627555 0.498013 
121 -0.478875 0.852547 3.15732 0.98183 0 0 0 -0.686132 -0.196808 0.337564 
110 0.000531133 -0.178564 2.91004 0.98903 0 0 0 -0.415653 -0.545737 0.0950897 
120 -0.75714 1.33216 2.86286 0.982955 0 0 0 -0.855555 -0.0638498 0.192642 
104 0.101181 -0.5983 3.21263 1.14763 0 0 0 -0.345984 -0.642431 0.341688 
101 0.537349 0.503482 3.11842 0.786336 0 0 0 -0.405485 -0.525512 0.336958 
238 1.23272 1.23412 2.83499 0.574662 0 0 0 0.182202 0.586708 0.304324 
123 -0.316979 2.86792 -0.691697 1.18976 0 0 0 -0.54036 0.329794 -0.659833 
159 0.397833 3.05213 -0.625378 1.0548 0 0 0 -0.285736 0.503086 -0.690795 
142 1.18785 3.80508 -0.0596142 1.0579 0 0 0 -0.106363 0.89202 -0.316708 
126 -0.541266 3.21741 0.184413 1.10843 0 0 0 -0.644994 0.551745 -0.319704 
127 0.805513 2.06304 -0.832075 0.94985 0 0 0 -0.270573 -0.262301 -0.886214 
158 0.896479 2.14782 -0.50245 0.825348 0 0 0 -0.343766 -0.410894 -0.874096 
143 -0.162418 2.51389 -0.78898 1.13561 0 0 0 -0.507495 0.116803 -0.735201 
149 1.11664 2.1868 -0.912526 0.958564 0 0 0 -0.152842 -0.115957 -0.939906 
151 1.36321 3.3662 0.288897 0.84452 0 0 0 0.0302147 0.959229 0.0450154 
274 1.33477 2.01646 -0.0267993 0.636668 0 0 0 -0.36698 -0.743699 -0.663917 
157 0.013445 1.643 0.128942 0.821068 0 0 0 -0.211171 -0.66685 -0.10342 
156 -0.60902 1.93331 -0.650119 1.19061 0 0 0 -0.599175 -0.0660177 -0.549873 
130 0.986178 2.15088 0.267699 0.593011 0 0 0 -0.524995 -0.340089 -0.635086 
148 0.698616 1.49459 -0.232561 0.791589 0 0 0 -0.0750716 -0.610823 0.0773862 
137 -0.708151 2.86987 0.246403 1.07807 0 0 0 -0.787244 0.323152 -0.310888 
138 0.42498 2.62752 -0.593771 0.963028 0 0 0 -0.356617 0.182127 -0.803863 
141 0.160035 1.99701 -0.41525 0.914394 0 0 0 -0.47659 -0.434298 -0.672675 
140 0.862152 2.60215 -0.809074 0.979753 0 0 0 -0.192283 0.196981 -0.875636 
443 1.31898 2.08521 0.116086 0.599073 0 0 0 -0.363284 -0.428145 -0.737881 
444 1.48155 2.23981 0.0627926 0.620898 0 0 0 -0.259578 0.134169 -0.787098 
136 1.03226 1.8917 0.221509 0.597169 0 0 0 -0.149055 -0.793349 0.0686434 
268 1.46276 2.00808 0.113341 0.589757 0 0 0 -0.280073 -0.513131 -0.711857 
146 0.824179 2.05114 0.253746 0.615591 0 0 0 -0.451254 -0.790384 -0.379451 
180 0.816327 2.50704 0.789626 0.565309 0 0 0 -0.422099 1.23143 -0.299284 
190 0.821827 3.2916 1.17401 0.773671 0 0 0 0.338224 0.751397 0.367129 
178 -0.546727 3.0854 1.13917 0.974056 0 0 0 -0.646042 0.581696 -0.0204892 
220 0.899095 2.2326 1.45458 0.460914 0 0 0 -1.92839 -2.57351 -1.96301 
189 1.01702 2.26103 0.814603 0.487547 0 0 0 -0.94777 1.11268 -0.60643 
165 1.0488 2.30436 0.745474 0.50253 0 0 0 -0.824742 1.15661 -0.661865 
128 1.38576 3.34334 1.2518 0.793523 0 0 0 0.238329 -0.010451 0.379248 
185 0.700684 3.36967 1.30718 0.807795 0 0 0 0.306438 0.749876 0.31737 
168 0.779369 2.05423 1.00595 0.471615 0 0 0 -0.205927 1.53658 0.706563 
186 -0.767689 1.72337 0.481584 0.983526 0 0 0 -0.740681 -0.285034 -0.211641 
170 0.556748 2.28227 0.547187 0.609203 0 0 0 -0.639504 -0.127148 -0.555101 
171 0.284592 3.56152 0.915819 0.929533 0 0 0 -0.124114 0.922017 0.0251755 
175 -0.673981 2.64647 1.34235 0.922311 0 0 0 -0.838182 0.285627 -0.0589426 
124 0.946525 2.13444 1.03011 0.448056 0 0 0 -1.03391 1.02044 -0.156165 
187 -0.341966 2.06188 0.381162 0.853128 0 0 0 -0.732687 -0.502041 -0.361236 
134 1.44029 2.99974 0.715255 0.686523 0 0 0 0.237598 0.772276 0.575616 
198 1.10455 2.48528 1.32489 0.519702 0 0 0 -1.07299 -2.52532 -1.23737 
426 1.5256 1.8097 1.03414 0.350827 0 0 0 0.374602 0.399566 0.236756 
147 1.22189 1.9207 1.15986 0.365564 0 0 0 -0.681661 -0.612419 0.427902 
133 1.0445 2.31189 0.32425 0.588099 0 0 0 -0.518689 0.36563 -0.734319 
188 0.398837 2.22613 0.467435 0.652189 0 0 0 -0.608972 -0.528017 -0.525456 
20 1.40119 1.64926 1.36986 0.284345 0 0 0 1.58827 -0.4912 -0.210062 
216 -0.0737728 2.3515 1.33667 0.682754 0 0 0 -0.676898 0.163009 -0.232995 
206 -0.717429 1.91108 1.19379 0.879568 0 0 0 -0.880957 -0.367046 -0.25033 
154 -0.280084 3.2078 0.526568 0.978396 0 0 0 -0.533217 0.672516 -0.188914 
144 1.30248 2.01086 0.912944 0.407614 0 0 0 -0.673004 1.05404 -0.238587 
423 1.18174 2.03442 0.977319 0.411237 0 0 0 -0.851596 1.061 0.0833529 
135 -0.226248 3.12139 0.410254 0.958207 0 0 0 -0.535687 0.632122 -0.247142 
192 0.5297 2.18855 0.465841 0.623392 0 0 0 -0.590061 -0.541585 -0.501845 
194 0.171585 2.21543 0.651674 0.670488 0 0 0 -0.636165 -0.568264 -0.480128 
196 0.990076 2.89059 1.10308 0.640599 0 0 0 0.38818 0.6333 0.41903 
203 0.532331 2.55461 0.541055 0.655191 0 0 0 -0.461143 0.623919 -0.448615 
150 1.41055 1.8855 0.98872 0.370978 0 0 0 2.87714 5.47069 3.79616 
214 -0.0711011 1.80497 0.791842 0.711166 0 0 0 -0.190343 -1.00773 -0.172955 
425 1.42104 1.95117 0.905408 0.394387 0 0 0 -0.268527 0.944171 -0.302459 
48 0.22843 2.29404 0.623427 0.667388 0 0 0 -0.652903 -0.340587 -0.509612 
162 1.52738 1.51565 1.44982 0.254791 0 0 0 -0.400389 0.113638 0.320336 
177 0.870219 1.99606 1.31464 0.416623 0 0 0 -0.428301 0.917038 0.359058 
139 0.901011 3.94731 0.7486 1.0206 0 0 0 -0.0239508 0.908771 -0.0296545 
461 1.38948 1.75363 1.23162 0.316837 0 0 0 0.788968 0.0388215 0.353907 
210 0.261617 2.176 0.847569 0.615997 0 0 0 -0.59469 -0.510648 -0.434905 
480 1.02344 2.02372 1.13292 0.409866 0 0 0 -0.664344 0.947442 0.473169 
28 1.05076 1.83854 1.404 0.360318 0 0 0 0.745224 0.122656 0.746535 
489 0.55886 2.27472 1.21428 0.519891 0 0 0 -0.640173 0.853618 -0.17799 
4 1.22244 1.72085 1.42292 0.315216 0 0 0 1.31364 -0.33361 0.539386 
19 1.14084 2.47425 0.428798 0.585355 0 0 0 -0.345473 1.10187 -0.529123 
336 0.47959 2.37428 1.18931 0.555283 0 0 0 -0.452031 0.94083 -0.147876 
469 1.0405 2.0173 1.12835 0.406966 0 0 0 -0.641894 0.936055 0.520273 
308 0.417198 2.38388 1.20765 0.568905 0 0 0 -0.422087 0.883021 -0.144399 
15 1.22459 1.8628 1.21611 0.350381 0 0 0 0.329905 0.109565 1.24255 
424 1.33272 2.62682 0.397189 0.618365 0 0 0 -0.072553 1.29744 -0.162144 
7 1.3725 2.12814 0.709277 0.457155 0 0 0 -0.584548 1.11292 -1.16718 
174 1.29679 1.80757 1.23497 0.33218 0 0 0 0.573537 -0.124894 0.946906 
6 1.09485 1.81937 1.39358 0.350538 0 0 0 0.885893 -0.0217422 0.820662 
458 0.509359 2.15863 1.40969 0.503688 0 0 0 -0.692804 0.73288 -0.0556203 
433 1.53014 1.83936 0.985042 0.363362 0 0 0 0.317944 0.587866 0.0928612 
437 1.46749 2.04175 0.748713 0.434917 0 0 0 -0.336999 1.017 -1.23253 
153 1.27972 1.81894 1.23332 0.335818 0 0 0 0.531907 -0.101101 1.03897 
286 1.48251 2.02988 0.753385 0.432207 0 0 0 -0.28958 0.996438 -1.23886 
195 0.960329 1.93964 1.32812 0.392722 0 0 0 -0.0043686 0.669683 0.654015 
399 1.51635 1.93623 0.866651 0.397929 0 0 0 -0.430045 0.218742 -1.13954 
354 0.50342 2.10105 1.49637 0.49589 0 0 0 -0.741095 0.714523 0.0203391 
372 1.50625 1.49957 1.49052 0.251512 0 0 0 -0.213107 0.0451085 0.264268 
164 0.232475 1.81997 1.47903 0.555411 0 0 0 -0.18719 -0.251016 -0.150812 
17 1.50459 1.49817 1.49392 0.25144 0 0 0 -0.188189 0.0475332 0.240382 
52 0.953884 1.86576 1.44846 0.38025 0 0 0 0.395364 0.462943 0.490582 
145 0.944092 3.68322 0.31978 0.962025 0 0 0 -0.0697415 0.942571 -0.136537 
256 0.558356 2.11604 1.73864 0.49638 0 0 0 -0.76023 0.519692 0.090532 
495 1.04309 1.64387 1.68229 0.346148 0 0 0 0.726208 0.28424 0.134124 
248 0.868788 1.56289 1.93385 0.40168 0 0 0 -0.734263 0.724771 0.574584 
43 0.148921 2.31439 1.81883 0.62384 0 0 0 -0.186938 0.906586 0.491339 
76 0.906804 1.57911 1.88405 0.389078 0 0 0 -0.518237 0.646496 0.347109 
450 0.854482 1.64816 1.83468 0.397154 0 0 0 -0.471652 0.832923 0.328214 
166 1.19151 3.39112 1.71318 0.833436 0 0 0 0.31156 -0.187271 0.0847919 
70 0.975126 2.32046 2.30292 0.608762 0 0 0 0.374784 -1.55694 -1.46655 
199 -0.163989 2.48212 2.51655 0.815892 0 0 0 -0.221984 0.751753 0.499412 
223 -0.313708 3.51998 2.20262 1.0656 0 0 0 -0.343009 0.730762 0.185286 
201 -0.0322994 3.01378 1.68138 0.815637 0 0 0 -0.0812946 0.978496 0.26741 
243 0.900444 2.03174 2.39424 0.562185 0 0 0 0.102963 -1.11849 -1.35641 
191 0.402 2.14627 2.61254 0.667708 0 0 0 0.537566 1.16208 0.686803 
204 0.494255 3.83159 2.13436 1.03917 0 0 0 0.0831309 0.663332 0.133738 
49 0.769422 1.87246 1.59107 0.417369 0 0 0 -0.388094 1.005 0.294924 
160 0.914952 1.82327 1.54462 0.382719 0 0 0 0.276135 0.470517 0.18782 
207 0.786902 2.75747 2.50756 0.754782 0 0 0 0.726067 0.142244 -0.116927 
208 1.03099 2.39115 1.63948 0.518112 0 0 0 -1.29632 -4.1567 -2.32191 
209 0.529461 2.20089 1.58261 0.507845 0 0 0 -0.583225 0.778385 0.0883254 
447 0.197364 2.26424 2.14672 0.639119 0 0 0 0.0857748 1.11293 0.777262 
211 0.71117 3.69218 1.79547 0.943617 0 0 0 0.228616 0.561468 0.152185 
212 0.655027 3.2858 1.83325 0.812309 0 0 0 0.469021 0.508436 0.27322 
213 0.0678191 3.47689 2.25792 0.980738 0 0 0 -0.0321057 0.74833 0.229369 
490 1.46127 1.49806 1.53103 0.253856 0 0 0 1.29277 -0.71161 0.128741 
215 0.794992 3.88391 2.27497 1.06152 0 0 0 0.148997 0.502776 0.0716776 
184 1.50041 1.49456 1.50257 0.251402 0 0 0 -0.121615 0.0573794 0.171757 
55 0.266693 2.26505 1.5319 0.574507 0 0 0 -0.404449 0.67116 0.0856306 
505 0.361125 1.60465 2.26191 0.548759 0 0 0 -0.983774 0.180612 0.294876 
255 1.2108 2.6105 2.17653 0.668968 0 0 0 0.0490324 -2.31914 -1.57541 
479 0.0168463 2.36861 2.04037 0.686484 0 0 0 -0.170023 0.920335 0.583064 
173 -0.124523 1.91621 1.83532 0.659826 0 0 0 -0.837782 -0.402881 -0.215149 
318 0.349882 1.78872 2.07953 0.534859 0 0 0 -0.899102 0.413727 0.360455 
54 0.430628 1.94053 1.8001 0.502877 0 0 0 -0.87602 0.602267 0.284621 
34 0.259995 2.18276 1.85537 0.577328 0 0 0 -0.275869 0.845142 0.51459 
172 0.165971 2.12749 1.58858 0.582571 0 0 0 -0.604338 0.131464 -0.073496 
229 1.0813 2.3335 2.5338 0.661712 0 0 0 0.497555 -1.05237 -1.40597 
234 1.04408 1.64646 1.67795 0.345828 0 0 0 0.744664 0.277136 0.135671 
252 1.15749 1.61768 1.62227 0.318149 0 0 0 1.06405 -0.250265 0.52452 
235 1.04832 1.62 1.71022 0.345716 0 0 0 0.625813 0.289078 0.162208 
29 0.843076 1.72177 1.74556 0.396692 0 0 0 -0.258963 0.877949 0.216103 
513 0.660706 1.56777 2.09004 0.46031 0 0 0 -1.203 0.51373 0.74286 
241 1.06009 1.60521 1.72045 0.343451 0 0 0 0.600446 0.255461 0.206963 
38 0.320524 1.7588 2.2745 0.566246 0 0 0 -0.693129 0.511557 0.471366 
35 0.25209 1.76159 2.40264 0.603923 0 0 0 -0.543961 0.556799 0.510693 
30 0.50022 1.66022 2.12088 0.499528 0 0 0 -1.10775 0.440832 0.496622 
239 -0.586846 2.64441 2.57886 0.974136 0 0 0 -0.577186 0.458324 0.29806 
233 0.904613 1.60662 1.8497 0.386759 0 0 0 -0.399478 0.669491 0.256644 
75 0.829572 1.66228 1.83747 0.403136 0 0 0 -0.564281 0.867661 0.365819 
219 1.50021 1.49439 1.50297 0.251406 0 0 0 -0.118436 0.0579372 0.168355 
167 1.5004 1.49455 1.50258 0.251402 0 0 0 -0.121477 0.0574035 0.171609 
466 1.5002 1.49437 1.503 0.251406 0 0 0 -0.118208 0.0579775 0.16811 
471 1.50021 1.49439 1.50297 0.251406 0 0 0 -0.11848 0.0579294 0.168402 
36 1.50029 1.49445 1.50282 0.251404 0 0 0 -0.119655 0.0577229 0.16966 
278 1.50195 1.4959 1.49935 0.251391 0 0 0 -0.146765 0.0532076 0.198327 
37 1.50089 1.49497 1.50157 0.251396 0 0 0 -0.12953 0.0560853 0.180094 
58 1.50159 1.49559 1.5001 0.251391 0 0 0 -0.14102 0.0542137 0.192185 
47 1.07811 1.75571 1.49969 0.343428 0 0 0 1.02031 -0.136305 0.347797 
477 1.50167 1.49566 1.49993 0.251391 0 0 0 -0.14224 0.0539245 0.193594 
355 1.50134 1.49537 1.50062 0.251392 0 0 0 -0.13685 0.0547989 0.187927 
334 1.50104 1.49511 1.50125 0.251394 0 0 0 -0.131946 0.0556124 0.182747 
476 1.50097 1.49505 1.50139 0.251395 0 0 0 -0.130874 0.0557926 0.181611 
179 1.50089 1.49498 1.50157 0.251396 0 0 0 -0.129466 0.0560302 0.180118 
222 1.50059 1.49472 1.50218 0.251399 0 0 0 -0.124627 0.0568571 0.174971 
302 1.50066 1.49478 1.50205 0.251398 0 0 0 -0.125714 0.05667 0.176129 
176 1.50066 1.49478 1.50204 0.251398 0 0 0 -0.125774 0.0566597 0.176193 
225 0.922806 2.39725 3.41234 0.888287 0 0 0 0.373676 0.376997 0.311788 
106 0.302737 2.02714 3.35322 0.857238 0 0 0 0.120776 0.569718 0.780076 
249 -0.498556 2.47087 2.81671 0.95917 0 0 0 -0.536703 0.431532 0.394125 
228 -0.108655 3.23445 3.60257 1.22453 0 0 0 -0.281629 0.494531 0.579477 
254 -0.486116 2.76307 3.5122 1.1744 0 0 0 -0.471148 0.385428 0.584944 
230 0.506969 3.7114 2.9996 1.13779 0 0 0 0.0269018 0.555002 0.264721 
231 0.5699 2.27619 3.57917 0.935086 0 0 0 0.214645 0.457908 0.686142 
242 0.544173 2.40527 3.25163 0.856901 0 0 0 0.38855 0.605926 0.51684 
246 -0.356549 2.01123 3.52011 1.04152 0 0 0 -0.460432 0.227393 0.669543 
464 0.277936 1.66566 2.73314 0.660815 0 0 0 -0.253238 0.600725 0.6734 
205 0.789501 1.62297 3.04756 0.674936 0 0 0 0.588777 0.903093 0.639751 
251 0.368725 3.45847 3.03809 1.07461 0 0 0 0.0473231 0.57482 0.331754 
105 -0.172731 1.52945 3.72935 1.0418 0 0 0 -0.383888 0.0755035 0.777717 
250 0.796413 3.13053 3.3993 1.05192 0 0 0 0.168004 0.346683 0.318548 
244 1.25516 2.37352 3.45388 0.901674 0 0 0 0.225143 0.19417 0.0630263 
240 -0.316574 3.69298 3.4091 1.33894 0 0 0 -0.398573 0.574285 0.443183 
257 3.62637 1.21803 -0.278446 1.02737 0 0 0 0.662292 -0.0959316 -0.447612 
441 1.86626 1.15929 0.0293855 0.661003 0 0 0 -0.675397 -0.36968 0.601527 
288 3.6737 0.857923 0.0530746 0.99189 0 0 0 0.717092 -0.23555 -0.334329 
260 3.1323 0.827986 -0.609109 1.0191 0 0 0 0.333841 -0.27431 -0.675074 
261 3.52398 -0.100121 0.154683 1.093 0 0 0 0.50273 -0.63477 -0.330554 
276 2.55308 0.780202 -0.320844 0.838313 0 0 0 -0.251421 -0.566756 -0.547737 
427 2.22869 1.08024 0.20878 0.63271 0 0 0 -0.822427 -0.713989 -0.101818 
285 1.77615 0.218843 -0.0315144 0.864556 0 0 0 -0.185621 0.145302 0.517834 
436 2.35116 1.4222 -0.0512631 0.678325 0 0 0 -0.40653 -0.673944 -0.734154 
266 2.66024 0.936353 -0.843418 1.00718 0 0 0 0.0635742 -0.223767 -0.783959 
267 3.03037 0.608857 -0.039805 0.865179 0 0 0 0.15906 -0.64375 -0.50613 
293 2.10191 1.07615 -0.87052 0.957152 0 0 0 -0.174109 -0.223621 -0.718736 
269 2.55512 0.949701 -0.706878 0.943087 0 0 0 -0.0495116 -0.288848 -0.743548 
270 2.46766 0.612227 -0.432207 0.891626 0 0 0 -0.223506 -0.523983 -0.496715 
271 3.23129 -0.579425 -0.176075 1.23192 0 0 0 0.360718 -0.692753 -0.376332 
272 1.6467 0.82301 0.128491 0.70244 0 0 0 -0.205725 0.701019 1.55319 
284 2.04211 0.324122 -0.432476 0.936209 0 0 0 -0.243786 -0.335182 -0.149029 
290 2.38962 -0.690833 -0.214171 1.17656 0 0 0 0.0652786 -0.547436 -0.230047 
291 3.16121 0.334527 -0.492719 1.06554 0 0 0 0.325713 -0.499011 -0.575624 
294 3.06872 0.327592 0.682215 0.794006 0 0 0 0.101737 -0.942255 -0.433142 
23 1.96012 1.40534 1.23483 0.34908 0 0 0 -0.599536 -0.217253 0.0857713 
453 2.93383 0.913309 1.3622 0.602811 0 0 0 0.732849 -0.100553 0.132456 
18 1.90808 1.36094 1.34067 0.333037 0 0 0 -1.25071 0.0129465 0.295359 
298 2.04667 1.34271 1.25147 0.36717 0 0 0 -0.540391 -0.421695 0.0781925 
299 2.9192 0.965587 1.15319 0.600932 0 0 0 0.695807 -0.293984 -0.119134 
451 2.12579 1.28905 1.26587 0.385298 0 0 0 -0.254697 -0.637402 -0.0746561 
301 3.70181 0.535437 1.4268 0.900408 0 0 0 0.879141 -0.21716 0.0446059 
264 2.45149 0.855537 0.62013 0.59732 0 0 0 -0.523691 -0.843215 -0.416919 
445 2.28053 1.21986 1.24788 0.423469 0 0 0 0.555518 -0.75185 -0.307246 
304 2.19731 1.11982 1.14347 0.431073 0 0 0 2.27667 2.78746 2.37281 
41 2.8642 0.991067 0.872287 0.609242 0 0 0 0.49312 -0.669871 -0.497215 
306 1.99421 1.20525 1.4957 0.35872 0 0 0 -1.55159 -0.175352 0.0555192 
307 2.07211 1.04494 1.19273 0.425501 0 0 0 3.78016 7.11482 5.71627 
277 2.64746 1.39934 0.72181 0.548757 0 0 0 0.848668 -0.164879 -0.410674 
309 3.42367 0.409371 1.28612 0.825452 0 0 0 0.705411 -0.507586 -0.108065 
310 2.04762 -0.00926264 1.06794 0.725923 0 0 0 -0.566294 0.412269 0.0785125 
311 2.88347 1.04323 0.925482 0.602773 0 0 0 0.627636 -0.456688 -0.367859 
341 2.75568 1.06759 0.733262 0.594092 0 0 0 0.363325 -0.793545 -0.668179 
432 2.74185 1.44695 0.883124 0.554668 0 0 0 0.863048 0.249316 0.0388646 
161 2.00056 1.43223 1.16426 0.363504 0 0 0 -0.0699493 -0.338683 -0.117084 
182 2.69528 1.32605 0.523285 0.596683 0 0 0 0.459737 -0.519067 -0.622892 
316 2.92723 -0.308178 0.75685 0.924408 0 0 0 0.0547571 -0.866018 -0.307158 
317 3.34937 0.0148002 0.76808 0.924394 0 0 0 0.39466 -0.767694 -0.282417 
275 3.40929 -0.8204 0.709984 1.19499 0 0 0 0.430009 -0.78807 -0.184205 
33 2.6597 0.8451 1.48871 0.537869 0 0 0 0.731289 -0.584714 0.0577208 
320 1.86542 0.0375188 0.931894 0.734207 0 0 0 -0.348832 1.04574 0.599287 
72 2.19326 1.16819 1.39319 0.403132 0 0 0 -0.136031 -0.769854 -0.0247261 
265 1.93826 -0.369083 0.732909 0.882172 0 0 0 -0.204934 0.0533052 0.15773 
501 2.42645 1.15685 1.21413 0.460774 0 0 0 0.925156 -0.612827 -0.32603 
56 2.57031 0.702999 0.532531 0.656286 0 0 0 -0.587875 -1.04466 -0.472256 
325 2.33715 1.10414 1.34222 0.440659 0 0 0 0.761455 -0.601121 0.0305985 
287 2.41139 -0.36653 0.555641 0.915702 0 0 0 -0.190793 -0.554721 -0.138693 
327 3.36119 1.24899 1.48976 0.729279 0 0 0 0.602888 0.610943 0.465252 
329 1.95982 0.208854 1.14449 0.655289 0 0 0 -0.514484 1.36128 0.567935 
428 2.78132 0.81392 1.48194 0.571734 0 0 0 0.696747 -0.434552 0.0856836 
31 2.45658 0.720517 0.487637 0.649593 0 0 0 -0.729159 -0.862225 -0.283705 
283 1.78566 0.844221 0.902893 0.529961 0 0 0 2.21354 7.11546 5.72804 
326 2.4987 1.10644 1.22629 0.479724 0 0 0 0.917781 -0.587023 -0.275395 
470 3.20794 1.21786 1.38465 0.675377 0 0 0 0.604963 0.650662 0.47989 
313 2.78303 0.837265 1.4233 0.56937 0 0 0 0.688858 -0.469734 0.0305208 
457 1.88296 1.3176 1.42381 0.328058 0 0 0 -1.57503 0.173056 0.325272 
455 2.09928 1.46729 1.04026 0.396735 0 0 0 0.73734 -0.567018 -0.644777 
422 2.35312 1.29627 1.08161 0.44657 0 0 0 1.03426 -0.563831 -0.623559 
456 2.55984 0.341742 1.38464 0.628051 0 0 0 -0.349846 -1.08265 -0.53041 
474 1.85407 1.41999 1.30336 0.322767 0 0 0 -0.756366 0.168492 0.00893489 
300 3.62896 -0.222311 1.47508 1.02441 0 0 0 0.628928 -0.628299 -0.0936728 
478 2.35706 1.45327 0.867213 0.466211 0 0 0 1.20535 -0.344418 -0.812675 
340 1.70264 1.43603 1.41148 0.286353 0 0 0 -0.968834 0.606869 -0.388376 
281 1.70783 0.0068375 0.314207 0.851726 0 0 0 -0.0686934 0.525065 0.736435 
333 2.95212 0.625801 2.57619 0.753146 0 0 0 0.713186 0.39876 0.502312 
323 1.96024 1.06257 1.74773 0.38267 0 0 0 -0.574104 -0.518617 -0.531179 
335 2.66602 0.847268 2.44811 0.646091 0 0 0 0.592467 0.832693 0.53078 
491 1.78688 1.17972 1.7055 0.33807 0 0 0 -0.880293 0.101861 -0.516032 
337 2.05362 -0.945714 1.91696 0.993525 0 0 0 -0.0302146 -0.872239 -0.19842 
338 3.03181 0.24015 2.16305 0.772452 0 0 0 0.621385 -0.400477 0.185033 
339 1.79311 0.24301 1.69179 0.598001 0 0 0 -0.162357 1.31184 -0.0847486 
370 1.65925 -0.976641 2.59511 1.03459 0 0 0 -0.00371561 -0.913974 -0.00498145 
452 2.42607 0.24414 1.74989 0.624612 0 0 0 -0.262873 -1.04638 -0.489016 
295 2.09994 0.574219 2.39618 0.559709 0 0 0 0.422671 -0.554885 0.449826 
296 2.19624 1.05237 1.56909 0.416345 0 0 0 0.0525444 -0.767478 0.00177278 
344 2.37282 0.960809 1.94511 0.49317 0 0 0 0.0946894 -0.747974 -0.194935 
345 3.40707 1.06475 2.12277 0.795706 0 0 0 0.617733 0.513877 0.408956 
346 2.01393 0.960281 1.86444 0.415938 0 0 0 0.212611 -0.860657 0.00205798 
364 1.68475 1.12266 1.87406 0.355485 0 0 0 0.0337584 -0.643218 -0.441299 
348 3.88722 1.46542 2.1892 0.984171 0 0 0 0.623121 0.145075 0.180693 
331 2.11756 0.995954 1.72374 0.415841 0 0 0 0.079589 -0.764258 -0.0600728 
350 2.3602 -0.0945958 1.61191 0.719201 0 0 0 -0.476424 -0.847099 -0.611062 
351 1.77259 1.23309 1.64011 0.323703 0 0 0 -1.06185 0.264606 -0.192813 
352 2.46184 0.66852 2.26259 0.58233 0 0 0 0.676371 0.0572879 0.582576 
363 2.55574 -0.637612 2.03573 0.923295 0 0 0 0.062623 -0.993185 -0.189394 
45 1.68419 1.14929 1.83489 0.346042 0 0 0 -0.069241 -0.451965 -0.3877 
365 1.6938 0.222912 2.3901 0.619913 0 0 0 -0.246721 -1.20417 -0.522422 
356 3.26093 1.43479 2.49167 0.819985 0 0 0 0.0772341 0.442801 0.108643 
357 2.16288 1.08651 2.24833 0.50237 0 0 0 -1.19516 -1.26626 -1.34783 
358 2.14802 0.666398 2.60498 0.595296 0 0 0 0.560603 0.181427 0.638796 
359 3.56756 -0.600343 2.21029 1.1353 0 0 0 0.571198 -0.671614 0.0263349 
360 1.95003 0.186204 2.18313 0.617075 0 0 0 -0.299106 -1.06727 -0.548372 
361 2.06205 -0.717423 1.53364 0.916865 0 0 0 -0.165976 -0.667967 -0.288177 
362 2.41713 0.27436 1.96776 0.621369 0 0 0 -0.0196182 -1.05121 -0.266833 
460 1.97019 1.14592 1.60674 0.364137 0 0 0 -1.33181 -0.186494 -0.368111 
303 2.32215 1.05425 1.64056 0.44636 0 0 0 -0.243872 -1.64996 -0.782153 
393 1.97008 -0.32891 2.07153 0.770046 0 0 0 -0.341787 -0.895121 -0.523346 
324 2.45376 0.691634 1.9828 0.539926 0 0 0 0.658965 -0.447207 0.399886 
312 3.14154 1.31986 1.96637 0.699456 0 0 0 -0.0355995 0.799509 0.326176 
375 1.7987 0.918472 2.09439 0.426672 0 0 0 0.572632 -1.16244 0.509496 
459 2.65914 0.457167 1.80806 0.612561 0 0 0 0.369615 -0.819312 -0.048628 
62 1.74291 1.05769 1.9291 0.377705 0 0 0 0.103669 -0.931251 -0.415014 
380 2.33974 0.664182 2.34272 0.573091 0 0 0 0.614357 -0.00929143 0.600983 
485 1.68786 1.16813 1.80446 0.339539 0 0 0 -0.171958 -0.322692 -0.330841 
510 2.07899 0.979144 1.78211 0.415851 0 0 0 0.124298 -0.791835 -0.0554194 
497 1.81804 0.609491 2.4823 0.542848 0 0 0 0.301704 -0.77157 0.409468 
347 1.77136 -0.881253 1.97401 0.96273 0 0 0 -0.089569 -0.786548 -0.247519 
377 3.60722 1.30346 2.56839 0.933677 0 0 0 0.514263 0.272031 0.238899 
314 2.7149 0.746784 1.7233 0.570732 0 0 0 0.739722 -0.292756 0.267045 
388 1.7547 1.18522 1.72428 0.334978 0 0 0 -0.686853 0.035877 -0.442357 
315 2.63579 0.314019 1.72366 0.638916 0 0 0 0.0537946 -1.04203 -0.326252 
472 2.09292 0.870499 1.94172 0.44809 0 0 0 0.491774 -0.963397 0.346341 
483 1.82858 0.756605 2.34806 0.493681 0 0 0 0.43948 -0.870001 0.607199 
481 2.18418 0.922723 1.7832 0.441241 0 0 0 0.450495 -0.865565 0.161403 
53 1.96945 0.837136 2.09145 0.454925 0 0 0 0.523676 -1.05332 0.546398 
484 1.59689 0.907452 2.2591 0.443744 0 0 0 0.520858 -1.2109 0.880329 
384 3.31989 -0.642172 2.68997 1.13434 0 0 0 0.468077 -0.689846 0.149536 
79 1.6855 1.09274 1.92023 0.366689 0 0 0 0.137816 -0.883314 -0.419595 
492 1.57913 1.14676 1.92413 0.353493 0 0 0 0.285152 -0.82427 -0.0689375 
102 1.57313 0.883423 2.31386 0.456286 0 0 0 0.432885 -1.15593 0.88618 
353 2.07856 1.26353 2.6402 0.588627 0 0 0 -0.784832 0.435474 -1.265 
462 2.05823 1.16867 1.5 0.374843 0 0 0 -1.12475 -0.441547 -0.00753361 
366 3.1868 0.39456 3.69955 1.1194 0 0 0 0.427861 -0.0589651 0.661264 
89 1.72107 0.843355 2.90213 0.612807 0 0 0 0.333711 0.563351 0.677295 
368 3.28496 -0.261772 3.55746 1.21014 0 0 0 0.427475 -0.424274 0.520485 
369 3.64677 0.24624 3.45703 1.1909 0 0 0 0.608277 -0.163267 0.482325 
378 2.68147 0.577424 2.86987 0.757389 0 0 0 0.589623 0.356548 0.599853 
389 2.14752 0.922797 3.36327 0.79033 0 0 0 0.301177 0.639919 0.697759 
95 1.59937 0.244864 3.84568 0.991722 0 0 0 0.0260024 -0.174657 0.844432 
373 1.65834 -0.0884493 2.8068 0.767131 0 0 0 -0.127086 -0.983979 -0.0238834 
390 2.59699 1.19522 3.71532 0.975794 0 0 0 0.204654 0.334106 0.633331 
86 1.82023 1.15322 3.19896 0.705229 0 0 0 0.238586 0.999357 0.374359 
376 2.3167 1.0375 3.19032 0.758191 0 0 0 0.302552 0.83121 0.474066 
391 3.65085 0.0254061 3.455 1.22491 0 0 0 0.591529 -0.276207 0.462942 
236 1.54662 0.573477 2.76919 0.603726 0 0 0 0.0080175 -0.614122 0.469228 
379 2.28479 0.0643967 2.74732 0.75738 0 0 0 0.197692 -0.711345 0.263058 
392 3.16306 0.164083 2.91473 0.933106 0 0 0 0.56189 -0.181141 0.368111 
381 3.3365 -0.184161 3.45155 1.17626 0 0 0 0.46847 -0.388439 0.48681 
115 1.62184 0.856722 2.99927 0.635535 0 0 0 0.269756 0.566723 0.738458 
386 3.19115 1.2429 3.66152 1.08251 0 0 0 0.343952 0.202024 0.54229 
97 1.83971 0.614677 2.73121 0.599046 0 0 0 0.341784 -0.192322 0.590668 
385 2.36353 -0.0875376 3.34841 0.94501 0 0 0 0.18432 -0.438183 0.551917 
413 2.04561 3.55203 0.25629 0.937591 0 0 0 0.0167882 0.826887 0.106739 
396 3.29247 3.22368 0.0353807 1.07479 0 0 0 0.396766 0.490326 -0.151137 
417 1.86394 3.11944 -0.421514 0.938944 0 0 0 0.0259764 0.63554 -0.497444 
398 3.25695 2.67494 0.143853 0.921569 0 0 0 0.46574 0.363361 -0.0248129 
418 3.60252 2.06812 -0.0315363 0.979932 0 0 0 0.668196 0.103292 -0.267781 
400 3.51105 2.53616 -0.0693559 1.01263 0 0 0 0.566681 0.207837 -0.261323 
420 1.73365 2.37768 -0.458357 0.802555 0 0 0 0.0173881 0.149978 -0.822003 
414 2.021 2.40555 -0.0056704 0.688313 0 0 0 0.194053 0.747617 -0.386253 
416 2.84933 3.42506 -0.151607 1.0695 0 0 0 0.207377 0.613232 -0.261576 
404 3.3127 3.00275 -0.201165 1.07257 0 0 0 0.424788 0.366719 -0.332245 
415 3.39604 3.43407 0.0890925 1.15433 0 0 0 0.404625 0.538804 -0.151419 
322 1.89507 1.81396 -0.137575 0.66346 0 0 0 -0.322281 -0.680426 -0.736601 
407 3.49973 1.68272 -0.386586 1.01346 0 0 0 0.577618 0.0301494 -0.502844 
408 2.0203 1.93863 -0.607174 0.832002 0 0 0 -0.0249573 -0.176072 -0.869689 
202 2.56613 1.60662 0.17491 0.64414 0 0 0 0.242822 -0.252882 -0.704199 
410 3.59068 2.9862 -0.00984925 1.11004 0 0 0 0.54641 0.338202 -0.221809 
411 1.93646 3.67858 -0.355088 1.08848 0 0 0 -0.0202915 0.765232 -0.418146 
289 2.40056 1.93837 0.244715 0.614261 0 0 0 0.51414 0.450158 -0.390148 
262 1.74618 2.1512 0.279803 0.555164 0 0 0 0.0127696 0.57769 -0.810574 
12 2.05402 1.71887 0.758053 0.438051 0 0 0 1.01321 -0.0353197 -1.31538 
419 2.13205 2.72408 0.899575 0.661816 0 0 0 -0.34285 -0.253266 0.907383 
406 2.42478 3.61752 0.659938 0.970484 0 0 0 -0.0178889 0.633408 0.325802 
5 1.83386 1.60258 1.06899 0.350517 0 0 0 0.518341 -0.00483769 -0.43933 
282 2.10937 1.7138 0.725215 0.451012 0 0 0 1.02971 -0.007624 -1.22514 
332 2.94218 1.87249 1.48281 0.65802 0 0 0 -1.34651 0.0500956 0.272365 
273 1.97811 2.02245 0.498354 0.505723 0 0 0 0.418251 0.715748 -0.889803 
465 1.55316 1.80293 1.02061 0.352749 0 0 0 0.423713 0.413205 0.116677 
473 2.46734 1.59649 0.666437 0.518458 0 0 0 0.967331 0.00929622 -0.462035 
431 2.32608 2.05446 0.519979 0.560176 0 0 0 0.724112 0.993833 0.163033 
14 1.55419 1.93328 0.828397 0.405062 0 0 0 0.0452447 0.83055 -0.972459 
292 1.85024 1.93215 0.623215 0.458607 0 0 0 0.520328 0.633284 -1.45583 
434 2.75644 2.12253 0.77665 0.640349 0 0 0 0.275996 0.828504 0.976958 
435 2.2755 2.78877 1.36395 0.724161 0 0 0 -1.28364 -1.5975 0.0353412 
449 1.78491 1.65285 1.04033 0.351591 0 0 0 0.620215 0.0967014 -0.444083 
397 2.83484 3.18348 0.751304 0.89463 0 0 0 -0.0118758 0.462725 0.500414 
503 1.69432 1.53291 1.28279 0.296974 0 0 0 0.087165 0.668218 -1.17527 
439 2.23606 1.68881 0.721626 0.470068 0 0 0 0.997531 -0.149413 -1.01181 
440 3.40613 2.58475 1.18372 0.890001 0 0 0 0.0148292 0.225987 0.341529 
321 3.75634 1.95026 1.30416 0.908664 0 0 0 0.522758 0.204478 0.235078 
442 2.01407 1.55506 0.987747 0.389565 0 0 0 0.846799 -0.3764 -0.680735 
280 3.36551 1.9208 0.844514 0.776133 0 0 0 0.563186 0.495331 0.460952 
409 2.0694 2.09253 1.00965 0.487103 0 0 0 -3.0021 -4.83805 -2.50867 
132 1.60203 2.67404 1.23181 0.597766 0 0 0 -0.896645 -2.87792 -0.340702 
412 3.37692 2.95078 0.91598 0.958066 0 0 0 0.185462 0.354266 0.329063 
467 2.39565 1.7078 0.607567 0.518874 0 0 0 0.911732 0.184925 -0.454137 
475 1.63585 1.75674 1.01821 0.35108 0 0 0 0.572089 0.32005 -0.16999 
297 1.88583 2.11884 0.468275 0.516633 0 0 0 0.269642 0.900488 -0.811009 
258 1.88163 2.07849 0.490094 0.505799 0 0 0 0.292747 0.819151 -0.959379 
21 1.95023 1.79309 0.737004 0.433781 0 0 0 0.835037 0.192449 -1.4518 
155 1.57049 2.57306 1.03081 0.556285 0 0 0 -0.930643 -1.97374 -0.346149 
152 1.64318 3.26844 0.896391 0.775454 0 0 0 0.145057 0.320251 0.577038 
330 3.25835 2.11222 1.26291 0.765142 0 0 0 -0.227364 0.346557 0.517384 
50 2.10971 2.01879 0.461301 0.528909 0 0 0 0.523359 0.760787 -0.524178 
11 1.82699 1.65768 0.998594 0.364155 0 0 0 0.72617 0.0561115 -0.479185 
221 3.06292 2.07823 0.893 0.704356 0 0 0 0.191758 0.675902 0.805536 
74 3.04859 1.89687 0.613135 0.697117 0 0 0 0.733963 0.698626 0.481363 
446 2.36993 1.57697 0.416045 0.55107 0 0 0 0.338422 -0.381191 -0.777629 
395 2.2081 3.17315 0.332804 0.823201 0 0 0 0.0906842 0.789289 0.380102 
259 2.6154 1.55377 0.447528 0.589884 0 0 0 0.615124 -0.134947 -0.484157 
421 3.45212 3.42162 0.546129 1.11866 0 0 0 0.356775 0.514225 0.0955123 
454 1.56662 1.58654 1.3165 0.280868 0 0 0 0.559522 0.530512 -1.02799 
46 1.85723 1.59487 1.06019 0.354939 0 0 0 0.539215 -0.0521669 -0.419149 
342 1.94864 1.51663 1.09144 0.362942 0 0 0 0.365656 -0.248098 -0.311608 
468 1.84502 1.61503 1.04262 0.356898 0 0 0 0.605182 -0.0199501 -0.435467 
3 1.71464 1.71188 1.01634 0.352864 0 0 0 0.642024 0.223089 -0.361556 
305 1.96778 2.68475 0.388911 0.661755 0 0 0 0.243361 1.21753 0.507514 
197 2.25482 2.31208 0.348898 0.621998 0 0 0 0.537159 1.21492 0.278902 
405 2.37908 2.7423 0.381568 0.727043 0 0 0 0.265671 0.922397 0.602293 
401 2.75364 3.61332 0.332401 1.03902 0 0 0 0.115532 0.715405 0.10731 
13 1.5531 1.67704 1.20138 0.307973 0 0 0 0.785828 0.491926 -0.794164 
387 2.43193 1.68889 2.17913 0.610134 0 0 0 -3.33226 -1.77698 -2.9572 
482 2.51489 2.75823 2.04881 0.826891 0 0 0 -1.56768 -1.33386 -0.988757 
463 2.97197 2.60117 1.62743 0.818335 0 0 0 -1.07673 -0.446853 -0.086059 
394 2.64219 1.6578 2.44454 0.691174 0 0 0 -1.51698 -0.0733954 -1.2724 
319 3.26548 1.82336 1.59356 0.744788 0 0 0 -0.412068 0.388326 0.342385 
500 3.11264 2.32838 2.11934 0.848986 0 0 0 -0.956506 -0.38304 -0.424585 
487 2.72997 2.14153 2.33657 0.768569 0 0 0 -1.73816 -0.883109 -1.23833 
502 2.94168 3.1234 2.45848 1.05467 0 0 0 -0.570306 -0.288455 -0.388163 
499 3.04774 2.90836 2.592 1.0427 0 0 0 -0.532268 -0.292089 -0.370331 
429 3.27855 2.24372 1.51449 0.807219 0 0 0 -0.495885 0.0821248 0.239965 
504 1.83961 1.98456 2.30367 0.597587 0 0 0 -3.80659 -5.33929 -5.67538 
383 3.18367 1.5004 2.61693 0.827666 0 0 0 -0.0343643 0.389494 0.0164124 
99 1.58531 1.59036 3.49473 0.813436 0 0 0 0.14999 0.619326 0.283841 
382 2.94579 1.66321 3.32611 0.956234 0 0 0 0.021693 0.23119 0.173937 
374 2.17945 1.70018 3.15937 0.782233 0 0 0 -0.408961 0.359893 -0.575175 
367 2.15103 1.73257 3.16272 0.783981 0 0 0 -0.427384 0.315461 -0.617705 
512 1.68195 3.18105 2.91329 0.986988 0 0 0 -0.181802 -0.379628 -0.491421 
498 3.03601 3.15207 3.07829 1.20085 0 0 0 -0.264329 -0.140563 -0.154735 
508 2.36177 2.26392 2.93278 0.848658 0 0 0 -1.00137 -0.572095 -1.04111 
488 2.76679 3.03525 3.02365 1.10813 0 0 0 -0.447043 -0.241952 -0.294056 
100 1.61345 1.74365 3.65537 0.88614 0 0 0 0.0867499 0.432645 0.364273 
245 1.53524 1.87342 3.55191 0.862725 0 0 0 0.113813 0.405935 0.174802 
ITEM: TIMESTEP
740907
ITEM: NUMBER OF ATOMS
512
ITEM: BOX BOUNDS ss ss ss
-8.1988304040437454e-01 3.8875120101141034e+00
-9.7693552394909078e-01 3.9476017366228966e+00
-9.1281994132074906e-01 3.9096273972560476e+00
ITEM: ATOMS id x y z width_SPH x_COM y_COM z_COM vx vy vz 
263 1.46291 0.88658 -0.255344 0.797053 0 0 0 -0.184404 0.0652885 0.617632 
403 1.47177 1.28214 -0.572763 0.836226 0 0 0 -0.296158 -0.417885 -0.281628 
25 0.48232 0.121026 0.00276859 1.02263 0 0 0 0.431022 0.529146 0.569928 
279 1.31897 1.03444 -0.485001 0.850873 0 0 0 -0.189067 -0.165789 0.106866 
402 1.48864 1.3275 -0.648022 0.856458 0 0 0 -0.281506 -0.409921 -0.42184 
16 0.283963 0.665576 0.14801 0.902206 0 0 0 0.586534 0.592036 0.780348 
8 0.548841 0.851558 0.116508 0.825733 0 0 0 0.734421 0.682648 1.15146 
131 1.20617 1.40823 0.665983 0.517632 0 0 0 4.80022 6.68355 7.38335 
217 -0.458205 1.32447 1.07566 0.827557 0 0 0 -0.14026 -0.412283 -0.139909 
2 -0.191097 0.578913 0.378221 0.976756 0 0 0 0.269425 0.355319 0.381137 
24 0.947295 0.538044 0.655881 0.732044 0 0 0 1.68986 2.78509 2.58752 
129 -0.0272445 1.21936 0.471862 0.809152 0 0 0 0.4649 -0.111329 0.504345 
224 -0.038185 1.2323 1.09789 0.718728 0 0 0 1.00083 -0.0777644 0.267199 
78 0.717464 0.416252 1.44599 0.684317 0 0 0 2.0859 2.94726 0.725761 
67 0.0566723 0.170699 1.35969 0.867435 0 0 0 0.646818 0.692227 0.00583537 
22 1.1096 0.782227 0.476503 0.6899 0 0 0 1.54599 2.71427 3.19745 
125 0.0919158 1.14992 0.334141 0.817639 0 0 0 0.528969 0.0431966 0.639716 
10 0.362723 0.340197 0.337045 0.920795 0 0 0 0.743195 0.865773 0.897099 
68 -0.629253 1.10997 1.49534 0.872298 0 0 0 -0.40152 -0.268311 -0.303199 
116 -0.467656 -0.224832 2.43602 1.06883 0 0 0 -0.510463 -0.41394 -0.0581864 
39 1.33122 1.26246 1.96203 0.349425 0 0 0 -0.248396 -0.393249 0.561754 
57 -0.136592 -0.184234 1.60661 0.978297 0 0 0 0.0862816 0.0850699 -0.196884 
111 1.47855 0.661563 1.94946 0.479324 0 0 0 3.06042 4.58017 2.61052 
59 0.836244 1.31492 2.27396 0.459125 0 0 0 -1.05541 -0.0553361 0.985139 
183 0.484323 1.33661 2.61271 0.586942 0 0 0 -0.675468 -0.0649882 0.479693 
80 1.06798 1.32418 2.08947 0.394887 0 0 0 -0.907493 0.0277298 0.821353 
103 -0.666443 -0.192845 2.21681 1.11079 0 0 0 -0.541738 -0.319405 -0.0821403 
63 -0.481043 0.335769 1.67077 0.939104 0 0 0 -0.201794 0.026942 -0.27425 
64 0.692254 1.25097 1.95538 0.46815 0 0 0 1.81288 3.52185 2.44696 
65 1.41229 1.12563 2.09166 0.38475 0 0 0 0.113589 -1.07873 0.468895 
66 0.536317 -0.153304 1.5622 0.84528 0 0 0 0.649416 0.683613 -0.164183 
27 1.41507 1.3286 1.80371 0.309624 0 0 0 -0.411775 -0.394211 1.39332 
343 1.489 1.48456 1.52633 0.252367 0 0 0 0.0620408 0.0890126 -0.0237238 
69 0.578519 1.29327 2.42892 0.53307 0 0 0 -0.970076 -0.283465 0.404225 
82 0.155987 0.760111 1.61801 0.699977 0 0 0 1.1622 0.799958 -0.325308 
71 0.319318 -0.0268672 1.59759 0.843496 0 0 0 0.618197 0.613289 -0.223039 
509 1.47935 1.4766 1.54574 0.254225 0 0 0 0.182471 0.0866256 -0.118282 
226 0.739729 1.28996 2.43123 0.504116 0 0 0 -0.86038 -0.174968 0.698012 
511 1.41956 1.17053 2.0196 0.366042 0 0 0 0.0941235 -0.909173 0.297063 
118 0.968941 0.167102 2.50852 0.690234 0 0 0 -0.380087 -0.897089 -0.669386 
26 1.04233 1.47276 1.9123 0.366373 0 0 0 -0.425974 0.305088 0.347929 
77 0.568465 0.474341 2.28659 0.658593 0 0 0 -0.193291 -0.487512 -0.883492 
92 0.62797 -0.707369 2.33072 0.983498 0 0 0 -0.0562681 -0.633956 -0.231831 
107 0.249775 0.442638 2.19695 0.724249 0 0 0 -0.088497 -0.275275 -0.803404 
122 1.04948 0.384905 2.37968 0.613126 0 0 0 -0.286975 -0.858494 -0.736312 
94 1.18309 0.612673 2.42577 0.545581 0 0 0 -0.172942 -1.01249 -0.0157159 
247 0.952672 1.10214 2.48173 0.497485 0 0 0 -0.611995 -0.522936 0.847409 
73 1.44161 0.794437 2.54928 0.516404 0 0 0 0.0604572 -0.778615 0.685184 
87 0.756022 0.283343 2.07374 0.669736 0 0 0 0.352316 0.328712 -0.88605 
84 -0.667098 1.05545 2.40897 0.902825 0 0 0 -0.847677 -0.26715 -0.18099 
507 1.18215 1.1312 2.24889 0.425767 0 0 0 -0.485928 -0.575631 1.24134 
169 1.39493 0.991805 2.28372 0.436524 0 0 0 0.175085 -1.07743 1.11097 
85 0.770572 -0.606562 1.99598 0.927262 0 0 0 0.0904859 -0.341418 -0.356414 
371 1.36018 0.868794 2.51444 0.500145 0 0 0 -0.0253096 -0.821024 0.806218 
448 0.609021 1.28906 1.89855 0.483831 0 0 0 1.7175 3.16734 1.99167 
328 0.993104 0.774304 2.21876 0.511075 0 0 0 0.604142 0.591885 0.631533 
112 0.973461 1.266 2.22438 0.433457 0 0 0 -0.94754 -0.0536053 1.19696 
40 0.542477 1.29074 2.42961 0.540917 0 0 0 -0.994551 -0.331587 0.322555 
496 1.48485 1.48105 1.5348 0.253068 0 0 0 0.119674 0.0926836 -0.075964 
42 1.22246 1.29781 2.00115 0.362849 0 0 0 -0.557379 -0.189086 0.501019 
237 1.11561 1.25582 2.14124 0.40222 0 0 0 -0.810598 -0.184019 0.983599 
494 1.38749 1.19011 2.01749 0.364346 0 0 0 -0.0151159 -0.801669 0.357156 
181 0.316508 1.14153 2.56082 0.627434 0 0 0 -0.957862 -0.732045 -0.0854719 
81 -0.121093 -0.62164 2.09638 1.08733 0 0 0 -0.197005 -0.422683 -0.131279 
83 1.18469 -0.506679 2.52988 0.870693 0 0 0 -0.142371 -0.821277 -0.309907 
232 0.998011 1.0124 2.54916 0.515983 0 0 0 -0.467552 -0.61672 0.771144 
93 -0.508148 0.844911 2.0297 0.851662 0 0 0 -0.540544 -0.298774 -0.444181 
61 1.51202 0.359918 1.94817 0.566536 0 0 0 0.589495 1.39729 -0.113231 
349 1.50386 -0.381652 1.57127 0.808644 0 0 0 -0.129208 0.234031 -0.291412 
253 1.16406 1.08586 2.3957 0.460847 0 0 0 -0.611608 -0.907129 0.937627 
193 -0.727524 1.42164 1.5528 0.877433 0 0 0 -0.696363 -0.37289 -0.303498 
506 1.46209 1.27675 1.83871 0.320015 0 0 0 -0.221571 -0.637812 0.942407 
44 -0.248201 1.37176 1.89732 0.712931 0 0 0 -0.599158 -0.717584 -0.652015 
32 1.23784 1.37168 1.88978 0.336997 0 0 0 -0.418213 -0.010533 0.780187 
493 1.20602 1.42553 1.84333 0.331296 0 0 0 -0.251749 0.0106558 0.8335 
9 1.40198 1.32545 1.82112 0.313664 0 0 0 -0.524589 -0.595562 1.18531 
218 1.31593 1.40023 1.78917 0.309639 0 0 0 -0.53856 -0.471018 1.28597 
200 -0.243765 1.45155 1.90838 0.706228 0 0 0 -0.690003 -0.735855 -0.614236 
486 1.31685 1.26322 1.98199 0.354055 0 0 0 0.425895 0.779991 1.35119 
98 0.192045 0.505973 2.67418 0.762681 0 0 0 -0.547802 -0.679275 -0.319392 
113 1.36474 -0.767749 2.84603 0.993317 0 0 0 -0.05191 -0.877638 0.055178 
114 -0.662813 0.667394 3.0988 1.04669 0 0 0 -0.730343 -0.208071 0.292163 
108 0.827866 -0.375042 3.19939 0.967027 0 0 0 -0.179654 -0.68332 0.269368 
163 0.568724 0.925255 2.79803 0.645966 0 0 0 -0.629004 -0.714712 0.303402 
60 0.824457 1.36372 3.15257 0.691632 0 0 0 0.3333 0.629407 0.835942 
117 0.983524 0.117899 3.7019 0.978817 0 0 0 -0.129095 -0.308783 0.718558 
51 0.407867 1.42257 2.78812 0.64207 0 0 0 -0.346622 0.249814 0.656776 
88 1.42973 0.53892 3.6292 0.869876 0 0 0 0.00638812 0.0152727 0.894951 
109 -0.521004 -0.195162 3.25587 1.19581 0 0 0 -0.575243 -0.43826 0.393266 
90 -0.819589 0.596007 2.78624 1.05283 0 0 0 -0.798723 -0.21651 0.11203 
91 0.794654 1.1685 3.90933 0.962241 0 0 0 -0.00640092 0.133373 0.951552 
227 1.33614 1.35544 2.76354 0.562286 0 0 0 -0.0936544 0.239744 -0.637905 
438 0.692842 1.45414 3.02107 0.665647 0 0 0 0.31028 0.681395 0.831895 
119 0.719814 0.0526615 3.43823 0.932508 0 0 0 -0.230062 -0.438123 0.511977 
430 1.20337 0.667935 2.80486 0.606693 0 0 0 -0.28486 -0.6888 0.484988 
96 1.21336 -0.443181 3.49593 1.03711 0 0 0 -0.0580894 -0.627555 0.498012 
121 -0.478876 0.852547 3.15732 0.98183 0 0 0 -0.686131 -0.196808 0.337564 
110 0.000530718 -0.178564 2.91004 0.98903 0 0 0 -0.415652 -0.545737 0.0950895 
120 -0.757141 1.33216 2.86286 0.982955 0 0 0 -0.855553 -0.0638501 0.192642 
104 0.101181 -0.5983 3.21263 1.14763 0 0 0 -0.345983 -0.642431 0.341687 
101 0.537348 0.503481 3.11842 0.786336 0 0 0 -0.405485 -0.525513 0.336957 
238 1.23272 1.23412 2.83499 0.574662 0 0 0 0.182202 0.586714 0.304323 
123 -0.31698 2.86792 -0.691697 1.18976 0 0 0 -0.540358 0.329794 -0.659832 
159 0.397833 3.05213 -0.625378 1.0548 0 0 0 -0.285734 0.503085 -0.690793 
142 1.18785 3.80508 -0.0596145 1.0579 0 0 0 -0.106362 0.892019 -0.316707 
126 -0.541267 3.21741 0.184413 1.10843 0 0 0 -0.644992 0.551744 -0.319703 
127 0.805513 2.06304 -0.832076 0.949851 0 0 0 -0.270571 -0.262301 -0.886212 
158 0.896479 2.14782 -0.502451 0.825349 0 0 0 -0.343765 -0.410894 -0.874093 
143 -0.162419 2.51389 -0.788981 1.13561 0 0 0 -0.507493 0.116803 -0.7352 
149 1.11664 2.1868 -0.912527 0.958565 0 0 0 -0.152841 -0.115957 -0.939903 
151 1.36321 3.3662 0.288897 0.844521 0 0 0 0.0302149 0.959227 0.0450164 
274 1.33477 2.01645 -0.0267999 0.636668 0 0 0 -0.366981 -0.743702 -0.663912 
157 0.0134448 1.643 0.128942 0.821068 0 0 0 -0.211166 -0.666849 -0.103418 
156 -0.609021 1.93331 -0.65012 1.19061 0 0 0 -0.599173 -0.0660176 -0.549872 
130 0.986178 2.15088 0.267698 0.593012 0 0 0 -0.524991 -0.340095 -0.63508 
148 0.698616 1.49459 -0.232561 0.791589 0 0 0 -0.0750677 -0.610822 0.0773897 
137 -0.708152 2.86987 0.246403 1.07807 0 0 0 -0.787241 0.323152 -0.310887 
138 0.424979 2.62752 -0.593771 0.963028 0 0 0 -0.356615 0.182127 -0.803861 
141 0.160035 1.99701 -0.415251 0.914394 0 0 0 -0.476587 -0.434297 -0.672673 
140 0.862151 2.60215 -0.809075 0.979754 0 0 0 -0.192282 0.196981 -0.875634 
443 1.31898 2.08521 0.116085 0.599073 0 0 0 -0.363284 -0.42815 -0.737875 
444 1.48154 2.23981 0.0627918 0.620898 0 0 0 -0.259579 0.134165 -0.787095 
136 1.03226 1.8917 0.221509 0.597169 0 0 0 -0.149049 -0.79335 0.0686537 
268 1.46276 2.00808 0.113341 0.589758 0 0 0 -0.280075 -0.513136 -0.71185 
146 0.824179 2.05114 0.253746 0.615591 0 0 0 -0.451247 -0.790387 -0.379444 
180 0.816327 2.50704 0.789625 0.565309 0 0 0 -0.422091 1.23143 -0.299284 
190 0.821827 3.2916 1.17401 0.773671 0 0 0 0.338225 0.751396 0.36713 
178 -0.546728 3.08541 1.13917 0.974056 0 0 0 -0.64604 0.581695 -0.0204888 
220 0.899093 2.2326 1.45458 0.460914 0 0 0 -1.92839 -2.57346 -1.96299 
189 1.01702 2.26103 0.814602 0.487547 0 0 0 -0.947754 1.11267 -0.606425 
165 1.0488 2.30437 0.745473 0.50253 0 0 0 -0.824729 1.15661 -0.661859 
128 1.38576 3.34334 1.2518 0.793523 0 0 0 0.238328 -0.0104509 0.379249 
185 0.700684 3.36967 1.30718 0.807795 0 0 0 0.306439 0.749875 0.317371 
168 0.779369 2.05423 1.00595 0.471615 0 0 0 -0.205912 1.53657 0.706552 
186 -0.767689 1.72337 0.481584 0.983526 0 0 0 -0.740677 -0.285033 -0.21164 
170 0.556748 2.28227 0.547186 0.609203 0 0 0 -0.639497 -0.127154 -0.5551 
171 0.284592 3.56152 0.915819 0.929533 0 0 0 -0.124113 0.922016 0.025176 
175 -0.673982 2.64647 1.34235 0.922311 0 0 0 -0.838179 0.285626 -0.0589422 
124 0.946524 2.13444 1.03011 0.448056 0 0 0 -1.03388 1.02044 -0.156165 
187 -0.341967 2.06188 0.381161 0.853128 0 0 0 -0.732683 -0.502041 -0.361234 
134 1.44029 2.99974 0.715255 0.686523 0 0 0 0.237597 0.772274 0.575616 
198 1.10455 2.48528 1.32489 0.519701 0 0 0 -1.073 -2.52531 -1.23739 
426 1.5256 1.8097 1.03414 0.350827 0 0 0 0.374579 0.399559 0.236739 
147 1.22189 1.9207 1.15986 0.365564 0 0 0 -0.681697 -0.612495 0.427834 
133 1.0445 2.31189 0.324249 0.588099 0 0 0 -0.518685 0.365625 -0.734315 
188 0.398836 2.22613 0.467435 0.65219 0 0 0 -0.608966 -0.528021 -0.525455 
20 1.4012 1.64926 1.36986 0.284345 0 0 0 1.58827 -0.491183 -0.210091 
216 -0.0737735 2.3515 1.33667 0.682755 0 0 0 -0.676895 0.163006 -0.232995 
206 -0.71743 1.91108 1.19379 0.879569 0 0 0 -0.880954 -0.367045 -0.250329 
154 -0.280084 3.2078 0.526568 0.978396 0 0 0 -0.533215 0.672515 -0.188914 
144 1.30248 2.01086 0.912944 0.407614 0 0 0 -0.672993 1.05405 -0.238574 
423 1.18174 2.03443 0.97732 0.411237 0 0 0 -0.851577 1.06101 0.0833595 
135 -0.226249 3.12139 0.410254 0.958207 0 0 0 -0.535685 0.632121 -0.247141 
192 0.529699 2.18855 0.46584 0.623392 0 0 0 -0.590053 -0.54159 -0.501843 
194 0.171584 2.21543 0.651673 0.670488 0 0 0 -0.636159 -0.568267 -0.480128 
196 0.990076 2.89059 1.10308 0.640599 0 0 0 0.388181 0.633299 0.41903 
203 0.53233 2.55461 0.541055 0.655192 0 0 0 -0.461139 0.623917 -0.448616 
150 1.41056 1.8855 0.988724 0.370978 0 0 0 2.87673 5.47005 3.79569 
214 -0.0711013 1.80497 0.791842 0.711166 0 0 0 -0.190336 -1.00773 -0.172953 
425 1.42104 1.95118 0.905407 0.394387 0 0 0 -0.268523 0.944188 -0.302445 
48 0.228429 2.29404 0.623426 0.667388 0 0 0 -0.652898 -0.34059 -0.509611 
162 1.52738 1.51565 1.44982 0.254791 0 0 0 -0.400389 0.113633 0.320334 
177 0.870219 1.99606 1.31465 0.416624 0 0 0 -0.428282 0.91704 0.359053 
139 0.901011 3.94731 0.7486 1.02061 0 0 0 -0.0239504 0.908771 -0.0296538 
461 1.38948 1.75363 1.23162 0.316837 0 0 0 0.788953 0.0388289 0.353865 
210 0.261617 2.176 0.847569 0.615997 0 0 0 -0.594683 -0.510653 -0.434905 
480 1.02344 2.02372 1.13292 0.409866 0 0 0 -0.66432 0.947449 0.473165 
28 1.05076 1.83854 1.404 0.360318 0 0 0 0.745236 0.122655 0.746522 
489 0.558859 2.27472 1.21428 0.519891 0 0 0 -0.640162 0.853615 -0.17799 
4 1.22244 1.72085 1.42292 0.315216 0 0 0 1.31364 -0.333609 0.539357 
19 1.14084 2.47425 0.428798 0.585356 0 0 0 -0.34547 1.10186 -0.529119 
336 0.47959 2.37428 1.18931 0.555284 0 0 0 -0.452024 0.940828 -0.147876 
469 1.0405 2.01731 1.12835 0.406966 0 0 0 -0.64187 0.936063 0.520269 
308 0.417198 2.38388 1.20765 0.568905 0 0 0 -0.422081 0.883019 -0.144399 
15 1.22459 1.8628 1.21612 0.350381 0 0 0 0.329906 0.109553 1.24252 
424 1.33272 2.62682 0.397189 0.618366 0 0 0 -0.0725518 1.29744 -0.162141 
7 1.3725 2.12814 0.709276 0.457156 0 0 0 -0.584543 1.11292 -1.16717 
174 1.29679 1.80757 1.23498 0.33218 0 0 0 0.573528 -0.124899 0.946862 
6 1.09485 1.81937 1.39358 0.350538 0 0 0 0.885901 -0.0217464 0.820643 
458 0.509358 2.15863 1.40969 0.503688 0 0 0 -0.692794 0.732876 -0.0556191 
433 1.53014 1.83936 0.985042 0.363363 0 0 0 0.317927 0.587867 0.0928554 
437 1.46749 2.04175 0.748711 0.434918 0 0 0 -0.336996 1.01701 -1.23252 
153 1.27972 1.81894 1.23333 0.335818 0 0 0 0.531899 -0.101109 1.03893 
286 1.48251 2.02988 0.753384 0.432207 0 0 0 -0.289578 0.996447 -1.23885 
195 0.960329 1.93964 1.32812 0.392722 0 0 0 -0.00435078 0.669684 0.654006 
399 1.51635 1.93623 0.86665 0.397929 0 0 0 -0.430005 0.218826 -1.13948 
354 0.503419 2.10105 1.49637 0.49589 0 0 0 -0.741084 0.71452 0.0203409 
372 1.50625 1.49957 1.49052 0.251512 0 0 0 -0.213102 0.0451091 0.264263 
164 0.232475 1.81997 1.47903 0.555411 0 0 0 -0.187179 -0.25102 -0.150813 
17 1.50459 1.49817 1.49392 0.25144 0 0 0 -0.188185 0.0475343 0.240376 
52 0.953884 1.86576 1.44846 0.38025 0 0 0 0.395379 0.462941 0.490577 
145 0.944092 3.68322 0.31978 0.962025 0 0 0 -0.0697409 0.94257 -0.136536 
256 0.558355 2.11604 1.73864 0.49638 0 0 0 -0.760221 0.519698 0.0905397 
495 1.04309 1.64388 1.68229 0.346148 0 0 0 0.726227 0.284243 0.13414 
248 0.868787 1.56289 1.93385 0.40168 0 0 0 -0.734246 0.724765 0.574582 
43 0.148921 2.31439 1.81883 0.623841 0 0 0 -0.186935 0.906588 0.491341 
76 0.906804 1.57911 1.88405 0.389078 0 0 0 -0.518217 0.646495 0.347112 
450 0.854482 1.64816 1.83468 0.397154 0 0 0 -0.471636 0.832917 0.328214 
166 1.19151 3.39112 1.71318 0.833435 0 0 0 0.311559 -0.18727 0.0847931 
70 0.975126 2.32046 2.30292 0.608762 0 0 0 0.374773 -1.55694 -1.46656 
199 -0.163989 2.48213 2.51655 0.815892 0 0 0 -0.221982 0.751753 0.499413 
223 -0.313709 3.51998 2.20263 1.0656 0 0 0 -0.343008 0.730763 0.185287 
201 -0.0322995 3.01378 1.68138 0.815637 0 0 0 -0.0812922 0.978496 0.267411 
243 0.900444 2.03173 2.39423 0.562184 0 0 0 0.102953 -1.11849 -1.35641 
191 0.402 2.14627 2.61254 0.667708 0 0 0 0.53757 1.16209 0.686806 
204 0.494255 3.83159 2.13436 1.03917 0 0 0 0.0831315 0.663333 0.133739 
49 0.769421 1.87246 1.59107 0.41737 0 0 0 -0.388082 1.005 0.294925 
160 0.914952 1.82327 1.54462 0.382719 0 0 0 0.276158 0.47053 0.187832 
207 0.786902 2.75747 2.50756 0.754782 0 0 0 0.726067 0.142247 -0.116926 
208 1.03099 2.39115 1.63948 0.51811 0 0 0 -1.29636 -4.15672 -2.32194 
209 0.529461 2.20089 1.58261 0.507845 0 0 0 -0.583216 0.778387 0.0883302 
447 0.197364 2.26424 2.14672 0.639119 0 0 0 0.0857785 1.11293 0.777264 
211 0.711171 3.69218 1.79547 0.943617 0 0 0 0.228616 0.561469 0.152186 
212 0.655027 3.2858 1.83325 0.812309 0 0 0 0.469023 0.508436 0.273221 
213 0.067819 3.47689 2.25792 0.980738 0 0 0 -0.0321045 0.748331 0.22937 
490 1.46127 1.49806 1.53103 0.253855 0 0 0 1.29273 -0.711574 0.12873 
215 0.794992 3.88391 2.27497 1.06152 0 0 0 0.148997 0.502777 0.0716789 
184 1.50041 1.49456 1.50257 0.251402 0 0 0 -0.121612 0.0573817 0.171752 
55 0.266693 2.26505 1.5319 0.574507 0 0 0 -0.404446 0.671159 0.0856319 
505 0.361124 1.60465 2.26191 0.548759 0 0 0 -0.983767 0.18061 0.294874 
255 1.2108 2.61049 2.17653 0.668968 0 0 0 0.0490225 -2.31915 -1.57542 
479 0.0168461 2.36861 2.04037 0.686484 0 0 0 -0.17002 0.920336 0.583065 
173 -0.124523 1.91621 1.83532 0.659826 0 0 0 -0.837779 -0.402884 -0.215151 
318 0.349881 1.78872 2.07953 0.534859 0 0 0 -0.899095 0.413727 0.360454 
54 0.430627 1.94053 1.8001 0.502877 0 0 0 -0.876009 0.602266 0.284622 
34 0.259995 2.18276 1.85537 0.577328 0 0 0 -0.275865 0.845144 0.514593 
172 0.165971 2.12749 1.58858 0.582571 0 0 0 -0.604335 0.13146 -0.0734966 
229 1.0813 2.33349 2.5338 0.661711 0 0 0 0.49755 -1.05237 -1.40597 
234 1.04409 1.64646 1.67795 0.345828 0 0 0 0.744682 0.277138 0.135687 
252 1.15749 1.61768 1.62227 0.318149 0 0 0 1.06405 -0.250276 0.524531 
235 1.04832 1.62 1.71022 0.345716 0 0 0 0.625834 0.289083 0.162226 
29 0.843076 1.72178 1.74556 0.396692 0 0 0 -0.258949 0.877943 0.216104 
513 0.660704 1.56777 2.09004 0.46031 0 0 0 -1.20299 0.513731 0.742857 
241 1.06009 1.60521 1.72045 0.343451 0 0 0 0.600466 0.255464 0.206982 
38 0.320523 1.7588 2.2745 0.566246 0 0 0 -0.693124 0.511558 0.471367 
35 0.25209 1.76159 2.40264 0.603924 0 0 0 -0.543957 0.556799 0.510694 
30 0.500219 1.66022 2.12088 0.499528 0 0 0 -1.10773 0.440832 0.49662 
239 -0.586846 2.64441 2.57886 0.974136 0 0 0 -0.577185 0.458324 0.298061 
233 0.904613 1.60662 1.8497 0.386759 0 0 0 -0.399457 0.66949 0.256648 
75 0.829571 1.66228 1.83747 0.403136 0 0 0 -0.564268 0.867651 0.365817 
219 1.50021 1.49439 1.50297 0.251406 0 0 0 -0.118433 0.0579396 0.16835 
167 1.5004 1.49455 1.50258 0.251402 0 0 0 -0.121474 0.0574058 0.171604 
466 1.5002 1.49437 1.503 0.251406 0 0 0 -0.118205 0.0579799 0.168105 
471 1.50021 1.49439 1.50297 0.251406 0 0 0 -0.118477 0.0579319 0.168397 
36 1.50029 1.49445 1.50282 0.251404 0 0 0 -0.119652 0.0577253 0.169655 
278 1.50195 1.4959 1.49935 0.251391 0 0 0 -0.146762 0.0532095 0.198321 
37 1.50089 1.49497 1.50157 0.251396 0 0 0 -0.129527 0.0560876 0.180089 
58 1.50159 1.49559 1.5001 0.251391 0 0 0 -0.141017 0.0542158 0.19218 
47 1.07811 1.75571 1.49969 0.343428 0 0 0 1.02032 -0.136303 0.347795 
477 1.50167 1.49566 1.49993 0.251391 0 0 0 -0.142237 0.0539265 0.193589 
355 1.50134 1.49537 1.50062 0.251392 0 0 0 -0.136846 0.054801 0.187922 
334 1.50104 1.49511 1.50125 0.251394 0 0 0 -0.131943 0.0556146 0.182742 
476 1.50097 1.49505 1.50139 0.251395 0 0 0 -0.130871 0.0557948 0.181606 
179 1.50089 1.49498 1.50157 0.251396 0 0 0 -0.129463 0.0560324 0.180113 
222 1.50059 1.49472 1.50218 0.251399 0 0 0 -0.124624 0.0568594 0.174966 
302 1.50066 1.49478 1.50205 0.251398 0 0 0 -0.125711 0.0566723 0.176124 
176 1.50066 1.49478 1.50204 0.251398 0 0 0 -0.125771 0.056662 0.176188 
225 0.922806 2.39725 3.41234 0.888287 0 0 0 0.373677 0.377 0.311789 
106 0.302737 2.02714 3.35323 0.857238 0 0 0 0.120777 0.569719 0.780077 
249 -0.498557 2.47087 2.81671 0.95917 0 0 0 -0.536702 0.431532 0.394126 
228 -0.108655 3.23445 3.60257 1.22453 0 0 0 -0.281628 0.494532 0.579478 
254 -0.486116 2.76307 3.5122 1.1744 0 0 0 -0.471147 0.385428 0.584944 
230 0.506969 3.7114 2.9996 1.13779 0 0 0 0.0269022 0.555004 0.264722 
231 0.569901 2.2762 3.57917 0.935086 0 0 0 0.214646 0.45791 0.686143 
242 0.544173 2.40527 3.25163 0.856901 0 0 0 0.388551 0.605928 0.516841 
246 -0.356549 2.01123 3.52011 1.04153 0 0 0 -0.460431 0.227393 0.669543 
464 0.277936 1.66566 2.73314 0.660815 0 0 0 -0.253235 0.600726 0.673402 
205 0.789502 1.62297 3.04756 0.674936 0 0 0 0.588779 0.903096 0.639751 
251 0.368725 3.45847 3.03809 1.07462 0 0 0 0.0473237 0.574822 0.331755 
105 -0.172731 1.52945 3.72936 1.0418 0 0 0 -0.383887 0.0755035 0.777717 
250 0.796413 3.13053 3.3993 1.05192 0 0 0 0.168004 0.346686 0.318549 
244 1.25516 2.37352 3.45388 0.901674 0 0 0 0.225143 0.194174 0.063027 
240 -0.316575 3.69298 3.4091 1.33894 0 0 0 -0.398572 0.574286 0.443184 
257 3.62637 1.21803 -0.278446 1.02737 0 0 0 0.662292 -0.0959325 -0.447612 
441 1.86626 1.15929 0.0293861 0.661003 0 0 0 -0.675395 -0.369679 0.601531 
288 3.6737 0.857923 0.0530742 0.99189 0 0 0 0.717091 -0.235551 -0.33433 
260 3.1323 0.827985 -0.609109 1.0191 0 0 0 0.333841 -0.274311 -0.675074 
261 3.52398 -0.100122 0.154682 1.093 0 0 0 0.50273 -0.63477 -0.330555 
276 2.55308 0.780201 -0.320845 0.838313 0 0 0 -0.251421 -0.566757 -0.547737 
427 2.22869 1.08024 0.20878 0.632711 0 0 0 -0.822427 -0.713989 -0.101814 
285 1.77615 0.218844 -0.0315139 0.864556 0 0 0 -0.185619 0.145302 0.517835 
436 2.35116 1.4222 -0.0512638 0.678325 0 0 0 -0.406532 -0.673946 -0.734153 
266 2.66025 0.936352 -0.843419 1.00718 0 0 0 0.0635741 -0.223767 -0.783958 
267 3.03037 0.608857 -0.0398055 0.865179 0 0 0 0.15906 -0.643751 -0.506131 
293 2.10191 1.07615 -0.87052 0.957152 0 0 0 -0.174109 -0.223622 -0.718735 
269 2.55512 0.949701 -0.706879 0.943087 0 0 0 -0.0495116 -0.288849 -0.743547 
270 2.46766 0.612227 -0.432207 0.891626 0 0 0 -0.223506 -0.523983 -0.496715 
271 3.23129 -0.579426 -0.176076 1.23192 0 0 0 0.360718 -0.692754 -0.376332 
272 1.6467 0.82301 0.128492 0.70244 0 0 0 -0.20572 0.701023 1.5532 
284 2.04211 0.324122 -0.432477 0.936209 0 0 0 -0.243785 -0.335183 -0.149029 
290 2.38962 -0.690833 -0.214171 1.17656 0 0 0 0.0652795 -0.547437 -0.230047 
291 3.16121 0.334527 -0.492719 1.06554 0 0 0 0.325713 -0.499012 -0.575624 
294 3.06872 0.327591 0.682214 0.794007 0 0 0 0.101738 -0.942256 -0.433143 
23 1.96012 1.40534 1.23483 0.34908 0 0 0 -0.599544 -0.217236 0.0857719 
453 2.93383 0.913309 1.3622 0.602811 0 0 0 0.732848 -0.100555 0.132454 
18 1.90808 1.36094 1.34067 0.333037 0 0 0 -1.25071 0.0129765 0.295367 
298 2.04666 1.34271 1.25147 0.36717 0 0 0 -0.540395 -0.421682 0.0781927 
299 2.9192 0.965587 1.15319 0.600932 0 0 0 0.695806 -0.293987 -0.119136 
451 2.12579 1.28905 1.26587 0.385298 0 0 0 -0.254696 -0.637394 -0.0746578 
301 3.70181 0.535437 1.4268 0.900409 0 0 0 0.879141 -0.217161 0.0446047 
264 2.45149 0.855536 0.62013 0.59732 0 0 0 -0.523689 -0.843215 -0.416918 
445 2.28053 1.21986 1.24788 0.42347 0 0 0 0.555517 -0.751855 -0.307255 
304 2.19731 1.11982 1.14347 0.431072 0 0 0 2.27665 2.78738 2.37274 
41 2.8642 0.991067 0.872287 0.609242 0 0 0 0.493119 -0.669875 -0.497218 
306 1.99421 1.20525 1.4957 0.35872 0 0 0 -1.55159 -0.175329 0.05553 
307 2.07212 1.04494 1.19274 0.425499 0 0 0 3.78019 7.11474 5.71622 
277 2.64746 1.39934 0.72181 0.548757 0 0 0 0.848665 -0.164882 -0.410675 
309 3.42367 0.40937 1.28612 0.825452 0 0 0 0.70541 -0.507587 -0.108066 
310 2.04762 -0.00926223 1.06794 0.725923 0 0 0 -0.566292 0.412271 0.0785108 
311 2.88347 1.04323 0.925481 0.602773 0 0 0 0.627636 -0.456691 -0.367862 
341 2.75568 1.06759 0.733261 0.594093 0 0 0 0.363324 -0.793549 -0.668182 
432 2.74185 1.44695 0.883124 0.554668 0 0 0 0.863044 0.249315 0.0388654 
161 2.00056 1.43223 1.16426 0.363504 0 0 0 -0.0699565 -0.338672 -0.117087 
182 2.69528 1.32605 0.523285 0.596683 0 0 0 0.459735 -0.519071 -0.622894 
316 2.92723 -0.308179 0.75685 0.924408 0 0 0 0.054758 -0.866018 -0.307159 
317 3.34937 0.0147995 0.768079 0.924395 0 0 0 0.39466 -0.767695 -0.282418 
275 3.40929 -0.820401 0.709984 1.195 0 0 0 0.430009 -0.788071 -0.184206 
33 2.6597 0.8451 1.48871 0.537869 0 0 0 0.731287 -0.584718 0.0577171 
320 1.86541 0.0375198 0.931894 0.734207 0 0 0 -0.348828 1.04575 0.599286 
72 2.19326 1.16819 1.39319 0.403132 0 0 0 -0.136032 -0.76986 -0.0247326 
265 1.93826 -0.369083 0.732909 0.882172 0 0 0 -0.204932 0.0533044 0.157729 
501 2.42645 1.15685 1.21413 0.460774 0 0 0 0.925152 -0.612834 -0.326037 
56 2.57031 0.702998 0.53253 0.656286 0 0 0 -0.587875 -1.04466 -0.472255 
325 2.33715 1.10414 1.34222 0.440659 0 0 0 0.76145 -0.601135 0.0305862 
287 2.41139 -0.366531 0.555641 0.915702 0 0 0 -0.190792 -0.554721 -0.138694 
327 3.36119 1.24899 1.48976 0.72928 0 0 0 0.602885 0.610941 0.465251 
329 1.95982 0.208856 1.14449 0.655289 0 0 0 -0.514477 1.36128 0.567936 
428 2.78132 0.81392 1.48194 0.571734 0 0 0 0.696746 -0.434555 0.0856811 
31 2.45658 0.720517 0.487636 0.649593 0 0 0 -0.729158 -0.862224 -0.283703 
283 1.78566 0.844228 0.902899 0.529958 0 0 0 2.21367 7.11563 5.72817 
326 2.4987 1.10644 1.22629 0.479724 0 0 0 0.917777 -0.587029 -0.275401 
470 3.20794 1.21786 1.38465 0.675377 0 0 0 0.60496 0.650661 0.479889 
313 2.78303 0.837265 1.4233 0.56937 0 0 0 0.688857 -0.469737 0.0305182 
457 1.88296 1.3176 1.42381 0.328058 0 0 0 -1.57502 0.173091 0.325286 
455 2.09928 1.46729 1.04026 0.396735 0 0 0 0.73734 -0.567006 -0.644778 
422 2.35312 1.29627 1.08161 0.44657 0 0 0 1.03425 -0.563835 -0.623566 
456 2.55984 0.341741 1.38463 0.628051 0 0 0 -0.349845 -1.08265 -0.530415 
474 1.85407 1.41999 1.30336 0.322766 0 0 0 -0.756372 0.168517 0.00893883 
300 3.62897 -0.222312 1.47508 1.02441 0 0 0 0.628928 -0.6283 -0.0936737 
478 2.35706 1.45327 0.867212 0.466211 0 0 0 1.20534 -0.34442 -0.812677 
340 1.70264 1.43604 1.41147 0.286353 0 0 0 -0.968849 0.606899 -0.38837 
281 1.70783 0.00683802 0.314208 0.851726 0 0 0 -0.0686911 0.525066 0.736435 
333 2.95213 0.625801 2.57619 0.753146 0 0 0 0.713185 0.39876 0.50231 
323 1.96024 1.06257 1.74773 0.38267 0 0 0 -0.574112 -0.518615 -0.531181 
335 2.66602 0.847269 2.44811 0.646091 0 0 0 0.592464 0.832695 0.530777 
491 1.78688 1.17972 1.7055 0.33807 0 0 0 -0.880286 0.101905 -0.515995 
337 2.05362 -0.945715 1.91696 0.993525 0 0 0 -0.0302143 -0.872241 -0.198421 
338 3.03181 0.24015 2.16305 0.772452 0 0 0 0.621385 -0.400478 0.185032 
339 1.79311 0.243011 1.69179 0.598001 0 0 0 -0.162349 1.31184 -0.0847458 
370 1.65925 -0.976642 2.59511 1.03459 0 0 0 -0.00371601 -0.913974 -0.00498192 
452 2.42607 0.244139 1.74989 0.624612 0 0 0 -0.262873 -1.04638 -0.48902 
295 2.09994 0.574218 2.39618 0.559709 0 0 0 0.422669 -0.554885 0.449821 
296 2.19624 1.05237 1.56909 0.416345 0 0 0 0.0525414 -0.767491 0.00176279 
344 2.37282 0.960808 1.94511 0.49317 0 0 0 0.094685 -0.747972 -0.194941 
345 3.40707 1.06476 2.12277 0.795706 0 0 0 0.61773 0.513876 0.408955 
346 2.01393 0.96028 1.86444 0.415938 0 0 0 0.2126 -0.860669 0.00204578 
364 1.68475 1.12266 1.87406 0.355485 0 0 0 0.033756 -0.64317 -0.441271 
348 3.88722 1.46542 2.1892 0.984171 0 0 0 0.62312 0.145075 0.180693 
331 2.11756 0.995953 1.72374 0.415841 0 0 0 0.0795833 -0.764272 -0.0600842 
350 2.3602 -0.0945966 1.61191 0.719202 0 0 0 -0.476423 -0.8471 -0.611064 
351 1.77259 1.23309 1.64011 0.323703 0 0 0 -1.06184 0.264635 -0.192783 
352 2.46184 0.668521 2.26259 0.58233 0 0 0 0.676371 0.0572901 0.582572 
363 2.55574 -0.637613 2.03573 0.923296 0 0 0 0.0626232 -0.993186 -0.189395 
45 1.68419 1.14929 1.83489 0.346042 0 0 0 -0.0692421 -0.451916 -0.387667 
365 1.6938 0.22291 2.3901 0.619913 0 0 0 -0.246725 -1.20418 -0.522426 
356 3.26093 1.43479 2.49167 0.819985 0 0 0 0.0772316 0.4428 0.108643 
357 2.16288 1.08651 2.24833 0.50237 0 0 0 -1.19516 -1.26626 -1.34784 
358 2.14802 0.666398 2.60498 0.595297 0 0 0 0.560602 0.181431 0.638794 
359 3.56756 -0.600343 2.21029 1.1353 0 0 0 0.571198 -0.671614 0.0263342 
360 1.95003 0.186202 2.18313 0.617075 0 0 0 -0.299108 -1.06727 -0.548376 
361 2.06205 -0.717423 1.53364 0.916866 0 0 0 -0.165976 -0.667969 -0.288178 
362 2.41713 0.274359 1.96776 0.621369 0 0 0 -0.0196182 -1.05121 -0.266838 
460 1.97019 1.14592 1.60674 0.364137 0 0 0 -1.33181 -0.186474 -0.368099 
303 2.32215 1.05425 1.64056 0.44636 0 0 0 -0.243866 -1.64995 -0.782146 
393 1.97008 -0.328911 2.07153 0.770046 0 0 0 -0.341787 -0.895122 -0.523347 
324 2.45376 0.691633 1.9828 0.539927 0 0 0 0.658964 -0.447207 0.399879 
312 3.14154 1.31986 1.96637 0.699457 0 0 0 -0.035604 0.799507 0.326175 
375 1.7987 0.918471 2.09439 0.426672 0 0 0 0.572613 -1.16245 0.509484 
459 2.65914 0.457166 1.80806 0.612561 0 0 0 0.369615 -0.819315 -0.0486322 
62 1.74291 1.05769 1.9291 0.377705 0 0 0 0.103656 -0.931229 -0.415008 
380 2.33974 0.664182 2.34272 0.573091 0 0 0 0.614356 -0.00928889 0.600979 
485 1.68786 1.16813 1.80446 0.339539 0 0 0 -0.171959 -0.322646 -0.330806 
510 2.07899 0.979143 1.78211 0.415851 0 0 0 0.124291 -0.791848 -0.0554313 
497 1.81804 0.60949 2.48231 0.542848 0 0 0 0.301698 -0.771571 0.409463 
347 1.77136 -0.881253 1.97401 0.962731 0 0 0 -0.0895689 -0.78655 -0.24752 
377 3.60722 1.30346 2.56839 0.933678 0 0 0 0.514261 0.27203 0.238898 
314 2.7149 0.746784 1.7233 0.570733 0 0 0 0.739721 -0.292757 0.267042 
388 1.7547 1.18522 1.72428 0.334977 0 0 0 -0.686849 0.0359194 -0.44232 
315 2.63579 0.314018 1.72366 0.638916 0 0 0 0.0537949 -1.04204 -0.326256 
472 2.09293 0.870498 1.94172 0.44809 0 0 0 0.491767 -0.963404 0.346329 
483 1.82858 0.756605 2.34806 0.493681 0 0 0 0.43947 -0.869999 0.607192 
481 2.18418 0.922722 1.7832 0.441241 0 0 0 0.45049 -0.865576 0.161392 
53 1.96945 0.837134 2.09145 0.454925 0 0 0 0.523665 -1.05333 0.546386 
484 1.59689 0.907451 2.2591 0.443744 0 0 0 0.52084 -1.2109 0.880318 
384 3.3199 -0.642173 2.68997 1.13434 0 0 0 0.468076 -0.689847 0.149535 
79 1.6855 1.09274 1.92023 0.366689 0 0 0 0.137806 -0.883278 -0.419579 
492 1.57913 1.14676 1.92413 0.353493 0 0 0 0.285151 -0.824219 -0.0689113 
102 1.57313 0.883422 2.31386 0.456287 0 0 0 0.43287 -1.15593 0.886169 
353 2.07856 1.26353 2.6402 0.588626 0 0 0 -0.784842 0.435473 -1.265 
462 2.05823 1.16867 1.5 0.374843 0 0 0 -1.12475 -0.441539 -0.00753141 
366 3.1868 0.39456 3.69955 1.11941 0 0 0 0.42786 -0.058965 0.661264 
89 1.72107 0.843355 2.90213 0.612807 0 0 0 0.333708 0.563357 0.677294 
368 3.28496 -0.261773 3.55746 1.21014 0 0 0 0.427474 -0.424275 0.520485 
369 3.64677 0.24624 3.45703 1.1909 0 0 0 0.608276 -0.163267 0.482324 
378 2.68147 0.577425 2.86987 0.757389 0 0 0 0.589622 0.356549 0.599852 
389 2.14752 0.922798 3.36327 0.79033 0 0 0 0.301176 0.63992 0.697758 
95 1.59937 0.244863 3.84568 0.991723 0 0 0 0.0260017 -0.174656 0.844431 
373 1.65834 -0.0884503 2.8068 0.767131 0 0 0 -0.127088 -0.98398 -0.0238849 
390 2.59699 1.19522 3.71532 0.975794 0 0 0 0.204653 0.334107 0.633331 
86 1.82023 1.15322 3.19896 0.705229 0 0 0 0.238584 0.99936 0.374357 
376 2.3167 1.03751 3.19032 0.758191 0 0 0 0.30255 0.831212 0.474065 
391 3.65085 0.0254059 3.455 1.22491 0 0 0 0.591529 -0.276207 0.462941 
236 1.54662 0.573476 2.76919 0.603726 0 0 0 0.00801291 -0.614122 0.469226 
379 2.28479 0.064396 2.74732 0.757381 0 0 0 0.197691 -0.711346 0.263056 
392 3.16306 0.164083 2.91473 0.933106 0 0 0 0.56189 -0.181141 0.36811 
381 3.3365 -0.184161 3.45155 1.17626 0 0 0 0.468469 -0.388439 0.486809 
115 1.62184 0.856722 2.99927 0.635535 0 0 0 0.269754 0.566728 0.738458 
386 3.19115 1.2429 3.66152 1.08251 0 0 0 0.343951 0.202025 0.542289 
97 1.83971 0.614677 2.73121 0.599046 0 0 0 0.34178 -0.19232 0.590667 
385 2.36353 -0.0875381 3.34841 0.94501 0 0 0 0.184319 -0.438183 0.551916 
413 2.04561 3.55203 0.25629 0.937591 0 0 0 0.0167879 0.826886 0.10674 
396 3.29247 3.22368 0.0353806 1.07479 0 0 0 0.396765 0.490326 -0.151137 
417 1.86394 3.11944 -0.421515 0.938945 0 0 0 0.0259761 0.635539 -0.497442 
398 3.25695 2.67494 0.143852 0.921569 0 0 0 0.465739 0.36336 -0.0248125 
418 3.60252 2.06812 -0.0315366 0.979932 0 0 0 0.668195 0.103291 -0.267781 
400 3.51106 2.53616 -0.0693561 1.01263 0 0 0 0.56668 0.207836 -0.261323 
420 1.73365 2.37769 -0.458357 0.802556 0 0 0 0.0173872 0.149977 -0.822001 
414 2.021 2.40555 -0.00567079 0.688313 0 0 0 0.194051 0.747615 -0.386251 
416 2.84933 3.42506 -0.151608 1.0695 0 0 0 0.207376 0.613231 -0.261575 
404 3.3127 3.00275 -0.201166 1.07257 0 0 0 0.424787 0.366719 -0.332245 
415 3.39604 3.43407 0.0890923 1.15433 0 0 0 0.404624 0.538804 -0.151418 
322 1.89507 1.81396 -0.137576 0.66346 0 0 0 -0.322284 -0.680428 -0.736598 
407 3.49973 1.68272 -0.386587 1.01346 0 0 0 0.577617 0.0301484 -0.502843 
408 2.0203 1.93863 -0.607175 0.832002 0 0 0 -0.0249582 -0.176072 -0.869687 
202 2.56613 1.60662 0.174909 0.644141 0 0 0 0.24282 -0.252885 -0.704199 
410 3.59068 2.9862 -0.00984947 1.11004 0 0 0 0.546409 0.338201 -0.221808 
411 1.93646 3.67858 -0.355088 1.08848 0 0 0 -0.0202915 0.765231 -0.418145 
289 2.40056 1.93837 0.244715 0.614261 0 0 0 0.514137 0.450157 -0.390146 
262 1.74618 2.1512 0.279802 0.555164 0 0 0 0.0127653 0.577686 -0.810568 
12 2.05402 1.71887 0.758052 0.438052 0 0 0 1.0132 -0.0353161 -1.31538 
419 2.13205 2.72408 0.899576 0.661816 0 0 0 -0.342855 -0.25327 0.907382 
406 2.42478 3.61752 0.659938 0.970484 0 0 0 -0.0178898 0.633408 0.325802 
5 1.83386 1.60258 1.06899 0.350517 0 0 0 0.518321 -0.00483648 -0.439335 
282 2.10938 1.7138 0.725213 0.451012 0 0 0 1.0297 -0.00762369 -1.22513 
332 2.94218 1.87249 1.48281 0.65802 0 0 0 -1.34652 0.0500919 0.272362 
273 1.97811 2.02245 0.498354 0.505724 0 0 0 0.418243 0.715745 -0.889794 
465 1.55316 1.80293 1.02061 0.352749 0 0 0 0.42369 0.4132 0.116663 
473 2.46734 1.59649 0.666437 0.518459 0 0 0 0.967325 0.00929377 -0.462033 
431 2.32608 2.05446 0.519979 0.560176 0 0 0 0.724107 0.993832 0.163039 
14 1.55419 1.93328 0.828396 0.405063 0 0 0 0.045245 0.830568 -0.972443 
292 1.85024 1.93215 0.623213 0.458607 0 0 0 0.520318 0.633283 -1.45582 
434 2.75644 2.12253 0.77665 0.640349 0 0 0 0.27599 0.828501 0.976959 
435 2.27549 2.78877 1.36395 0.72416 0 0 0 -1.28365 -1.59751 0.0353383 
449 1.78491 1.65285 1.04033 0.351592 0 0 0 0.620193 0.0967002 -0.44409 
397 2.83484 3.18348 0.751305 0.89463 0 0 0 -0.0118775 0.462725 0.500415 
503 1.69432 1.53292 1.28279 0.296975 0 0 0 0.0871443 0.668217 -1.17528 
439 2.23606 1.68881 0.721625 0.470068 0 0 0 0.997522 -0.149413 -1.01181 
440 3.40613 2.58475 1.18372 0.890001 0 0 0 0.014827 0.225987 0.341528 
321 3.75634 1.95026 1.30416 0.908664 0 0 0 0.522756 0.204477 0.235078 
442 2.01407 1.55506 0.987746 0.389565 0 0 0 0.846795 -0.376388 -0.680734 
280 3.36552 1.9208 0.844514 0.776133 0 0 0 0.563183 0.49533 0.460951 
409 2.0694 2.09252 1.00965 0.487102 0 0 0 -3.00212 -4.83808 -2.50873 
132 1.60203 2.67403 1.23181 0.597765 0 0 0 -0.896664 -2.87794 -0.340719 
412 3.37692 2.95078 0.91598 0.958066 0 0 0 0.18546 0.354266 0.329063 
467 2.39565 1.7078 0.607567 0.518874 0 0 0 0.911726 0.184923 -0.454133 
475 1.63585 1.75674 1.01821 0.35108 0 0 0 0.572064 0.320045 -0.170003 
297 1.88583 2.11884 0.468274 0.516633 0 0 0 0.269635 0.900485 -0.811 
258 1.88163 2.07849 0.490093 0.505799 0 0 0 0.29274 0.819148 -0.959369 
21 1.95024 1.79309 0.737003 0.433782 0 0 0 0.835027 0.192455 -1.45179 
155 1.57049 2.57305 1.03081 0.556284 0 0 0 -0.930657 -1.97375 -0.346164 
152 1.64318 3.26844 0.896391 0.775454 0 0 0 0.145056 0.32025 0.577038 
330 3.25835 2.11222 1.26291 0.765142 0 0 0 -0.227367 0.346556 0.517383 
50 2.10971 2.01879 0.4613 0.52891 0 0 0 0.523353 0.760786 -0.524172 
11 1.82699 1.65768 0.998594 0.364155 0 0 0 0.726153 0.0561138 -0.479189 
221 3.06292 2.07823 0.893001 0.704356 0 0 0 0.191754 0.6759 0.805536 
74 3.04859 1.89687 0.613136 0.697118 0 0 0 0.73396 0.698624 0.481363 
446 2.36993 1.57697 0.416045 0.55107 0 0 0 0.338417 -0.381196 -0.77763 
395 2.2081 3.17315 0.332804 0.823202 0 0 0 0.0906832 0.789288 0.380103 
259 2.6154 1.55377 0.447527 0.589885 0 0 0 0.615122 -0.13495 -0.484158 
421 3.45212 3.42162 0.54613 1.11866 0 0 0 0.356774 0.514225 0.0955125 
454 1.56662 1.58654 1.3165 0.280869 0 0 0 0.559504 0.530514 -1.02801 
46 1.85723 1.59487 1.06019 0.354939 0 0 0 0.539197 -0.0521651 -0.419154 
342 1.94864 1.51663 1.09143 0.362943 0 0 0 0.365645 -0.248091 -0.311612 
468 1.84502 1.61503 1.04262 0.356899 0 0 0 0.605163 -0.019949 -0.435472 
3 1.71464 1.71188 1.01634 0.352865 0 0 0 0.642 0.223086 -0.361565 
305 1.96778 2.68475 0.388911 0.661755 0 0 0 0.243359 1.21752 0.507517 
197 2.25482 2.31208 0.348898 0.621999 0 0 0 0.537156 1.21492 0.278907 
405 2.37908 2.7423 0.381568 0.727043 0 0 0 0.265669 0.922395 0.602295 
401 2.75364 3.61332 0.332401 1.03903 0 0 0 0.115531 0.715405 0.10731 
13 1.5531 1.67704 1.20138 0.307973 0 0 0 0.785781 0.491892 -0.794208 
387 2.43193 1.68889 2.17913 0.610133 0 0 0 -3.3323 -1.77701 -2.95724 
482 2.51489 2.75823 2.04881 0.82689 0 0 0 -1.56769 -1.33386 -0.988759 
463 2.97197 2.60117 1.62743 0.818335 0 0 0 -1.07674 -0.446853 -0.0860595 
394 2.64219 1.6578 2.44454 0.691174 0 0 0 -1.51698 -0.0733975 -1.27241 
319 3.26548 1.82336 1.59356 0.744788 0 0 0 -0.412072 0.388325 0.342384 
500 3.11264 2.32838 2.11934 0.848985 0 0 0 -0.956512 -0.383039 -0.424586 
487 2.72997 2.14153 2.33657 0.768569 0 0 0 -1.73817 -0.883111 -1.23833 
502 2.94168 3.1234 2.45848 1.05467 0 0 0 -0.570308 -0.288453 -0.388162 
499 3.04774 2.90836 2.592 1.0427 0 0 0 -0.532271 -0.292087 -0.370331 
429 3.27855 2.24372 1.51449 0.807219 0 0 0 -0.495889 0.0821247 0.239965 
504 1.83961 1.98455 2.30366 0.597584 0 0 0 -3.80668 -5.33941 -5.67549 
383 3.18367 1.5004 2.61693 0.827666 0 0 0 -0.0343667 0.389494 0.0164123 
99 1.58531 1.59036 3.49473 0.813436 0 0 0 0.14999 0.619328 0.283841 
382 2.94579 1.66321 3.32611 0.956234 0 0 0 0.0216919 0.231192 0.173937 
374 2.17945 1.70018 3.15937 0.782233 0 0 0 -0.408962 0.359896 -0.575176 
367 2.15103 1.73257 3.16272 0.783981 0 0 0 -0.427386 0.315464 -0.617706 
512 1.68195 3.18105 2.91329 0.986988 0 0 0 -0.181803 -0.379625 -0.49142 
498 3.03601 3.15207 3.07829 1.20085 0 0 0 -0.26433 -0.140561 -0.154735 
508 2.36177 2.26392 2.93278 0.848658 0 0 0 -1.00137 -0.572094 -1.04111 
488 2.76679 3.03525 3.02365 1.10813 0 0 0 -0.447044 -0.241949 -0.294055 
100 1.61345 1.74365 3.65537 0.88614 0 0 0 0.0867499 0.432647 0.364273 
245 1.53524 1.87342 3.55191 0.862725 0 0 0 0.113813 0.405938 0.174802 
ITEM: TIMESTEP
740908
ITEM: NUMBER OF ATOMS
512
ITEM: BOX BOUNDS ss ss ss
-8.1988304040437454e-01 3.8875120101141034e+00
-9.7693552394909078e-01 3.9476017366228966e+00
-9.1281994132074906e-01 3.9096273972560476e+00
ITEM: ATOMS id x y z width_SPH x_COM y_COM z_COM vx vy vz 
263 1.46291 0.88658 -0.255343 0.797053 0 0 0 -0.184403 0.0652882 0.617635 
403 1.47177 1.28214 -0.572763 0.836226 0 0 0 -0.296158 -0.417885 -0.281626 
25 0.482321 0.121026 0.00276916 1.02263 0 0 0 0.431026 0.529146 0.569929 
279 1.31897 1.03444 -0.485001 0.850873 0 0 0 -0.189066 -0.16579 0.106868 
402 1.48864 1.3275 -0.648023 0.856458 0 0 0 -0.281505 -0.409922 -0.421838 
16 0.283963 0.665577 0.148011 0.902206 0 0 0 0.58654 0.592037 0.780351 
8 0.548842 0.851558 0.116509 0.825733 0 0 0 0.734428 0.682649 1.15147 
131 1.20618 1.40824 0.665991 0.517629 0 0 0 4.80038 6.68379 7.38352 
217 -0.458205 1.32447 1.07566 0.827557 0 0 0 -0.140256 -0.412283 -0.139907 
2 -0.191096 0.578913 0.378222 0.976756 0 0 0 0.26943 0.355319 0.381138 
24 0.947297 0.538047 0.655883 0.732043 0 0 0 1.68988 2.78511 2.58754 
129 -0.027244 1.21936 0.471862 0.809152 0 0 0 0.464906 -0.111329 0.504347 
224 -0.038184 1.2323 1.09789 0.718728 0 0 0 1.00084 -0.0777625 0.267202 
78 0.717466 0.416255 1.44599 0.684316 0 0 0 2.08591 2.94728 0.725771 
67 0.056673 0.170699 1.35969 0.867435 0 0 0 0.646822 0.692228 0.00583709 
22 1.1096 0.78223 0.476506 0.689899 0 0 0 1.54601 2.71429 3.19748 
125 0.0919163 1.14992 0.334142 0.817638 0 0 0 0.528976 0.0431973 0.639718 
10 0.362724 0.340198 0.337046 0.920795 0 0 0 0.743201 0.865774 0.897101 
68 -0.629253 1.10997 1.49534 0.872298 0 0 0 -0.401516 -0.268311 -0.303198 
116 -0.467657 -0.224833 2.43602 1.06883 0 0 0 -0.510461 -0.41394 -0.0581861 
39 1.33122 1.26246 1.96203 0.349425 0 0 0 -0.248381 -0.393209 0.561778 
57 -0.136591 -0.184234 1.60661 0.978297 0 0 0 0.086284 0.0850696 -0.196883 
111 1.47856 0.661568 1.94946 0.479322 0 0 0 3.06044 4.58015 2.61056 
59 0.836243 1.31492 2.27396 0.459125 0 0 0 -1.0554 -0.0553349 0.985133 
183 0.484322 1.33661 2.61271 0.586942 0 0 0 -0.675464 -0.06499 0.479693 
80 1.06798 1.32418 2.08947 0.394887 0 0 0 -0.90748 0.0277338 0.821349 
103 -0.666443 -0.192846 2.21681 1.11079 0 0 0 -0.541736 -0.319405 -0.0821399 
63 -0.481043 0.335769 1.67077 0.939104 0 0 0 -0.201791 0.0269418 -0.274249 
64 0.692256 1.25097 1.95538 0.468149 0 0 0 1.81287 3.52183 2.44696 
65 1.41229 1.12563 2.09166 0.38475 0 0 0 0.113582 -1.07871 0.468895 
66 0.536317 -0.153304 1.5622 0.84528 0 0 0 0.649419 0.683614 -0.164182 
27 1.41507 1.3286 1.80371 0.309625 0 0 0 -0.411756 -0.394165 1.39337 
343 1.489 1.48456 1.52633 0.252367 0 0 0 0.0620404 0.0890176 -0.0237259 
69 0.578518 1.29327 2.42892 0.53307 0 0 0 -0.970069 -0.283468 0.404221 
82 0.155988 0.760112 1.61801 0.699977 0 0 0 1.16221 0.799962 -0.325305 
71 0.319318 -0.0268666 1.59759 0.843496 0 0 0 0.6182 0.61329 -0.223037 
509 1.47935 1.4766 1.54574 0.254225 0 0 0 0.182469 0.0866322 -0.118281 
226 0.739729 1.28996 2.43123 0.504117 0 0 0 -0.86037 -0.174968 0.698009 
511 1.41956 1.17053 2.0196 0.366042 0 0 0 0.094129 -0.90913 0.29708 
118 0.968941 0.167101 2.50852 0.690234 0 0 0 -0.380088 -0.89709 -0.669388 
26 1.04233 1.47276 1.9123 0.366373 0 0 0 -0.425941 0.305108 0.347947 
77 0.568465 0.474341 2.28659 0.658593 0 0 0 -0.193288 -0.487511 -0.883494 
92 0.62797 -0.707369 2.33072 0.983499 0 0 0 -0.0562682 -0.633957 -0.231831 
107 0.249774 0.442638 2.19695 0.724249 0 0 0 -0.0884941 -0.275274 -0.803405 
122 1.04947 0.384904 2.37968 0.613126 0 0 0 -0.286977 -0.858495 -0.736316 
94 1.18309 0.612672 2.42577 0.545581 0 0 0 -0.172949 -1.01249 -0.0157228 
247 0.952671 1.10214 2.48173 0.497485 0 0 0 -0.61199 -0.522935 0.847404 
73 1.44161 0.794437 2.54928 0.516404 0 0 0 0.0604489 -0.778612 0.685179 
87 0.756022 0.283343 2.07374 0.669736 0 0 0 0.352319 0.328714 -0.88605 
84 -0.667099 1.05545 2.40897 0.902825 0 0 0 -0.847674 -0.26715 -0.18099 
507 1.18215 1.1312 2.24889 0.425768 0 0 0 -0.485931 -0.575629 1.24133 
169 1.39493 0.991804 2.28372 0.436524 0 0 0 0.175072 -1.07743 1.11096 
85 0.770572 -0.606563 1.99598 0.927262 0 0 0 0.0904861 -0.341419 -0.356414 
371 1.36018 0.868794 2.51444 0.500146 0 0 0 -0.0253172 -0.82102 0.806212 
448 0.609023 1.28906 1.89855 0.48383 0 0 0 1.7175 3.16733 1.99168 
328 0.993105 0.774305 2.21876 0.511074 0 0 0 0.604138 0.591876 0.631532 
112 0.97346 1.266 2.22438 0.433457 0 0 0 -0.947529 -0.0536056 1.19695 
40 0.542476 1.29074 2.42961 0.540917 0 0 0 -0.994544 -0.331591 0.322551 
496 1.48485 1.48105 1.5348 0.253068 0 0 0 0.119672 0.0926894 -0.0759648 
42 1.22246 1.29781 2.00115 0.362849 0 0 0 -0.557356 -0.18905 0.501038 
237 1.11561 1.25582 2.14124 0.40222 0 0 0 -0.810593 -0.184017 0.983591 
494 1.38749 1.19011 2.01749 0.364346 0 0 0 -0.0151071 -0.801625 0.357174 
181 0.316507 1.14153 2.56082 0.627434 0 0 0 -0.95786 -0.732049 -0.0854752 
81 -0.121093 -0.62164 2.09638 1.08733 0 0 0 -0.197004 -0.422684 -0.131279 
83 1.18469 -0.50668 2.52988 0.870694 0 0 0 -0.142371 -0.821277 -0.309908 
232 0.99801 1.0124 2.54916 0.515983 0 0 0 -0.467551 -0.616719 0.771139 
93 -0.508148 0.844911 2.0297 0.851662 0 0 0 -0.540541 -0.298774 -0.44418 
61 1.51202 0.359919 1.94817 0.566535 0 0 0 0.589501 1.39729 -0.113224 
349 1.50386 -0.381651 1.57127 0.808644 0 0 0 -0.129207 0.23403 -0.291413 
253 1.16406 1.08586 2.3957 0.460847 0 0 0 -0.611604 -0.907118 0.937624 
193 -0.727524 1.42164 1.5528 0.877434 0 0 0 -0.69636 -0.372889 -0.303497 
506 1.46209 1.27675 1.83871 0.320015 0 0 0 -0.221585 -0.637808 0.942419 
44 -0.248202 1.37176 1.89732 0.712931 0 0 0 -0.599152 -0.717584 -0.652016 
32 1.23784 1.37168 1.88978 0.336997 0 0 0 -0.418195 -0.0105124 0.780208 
493 1.20601 1.42553 1.84333 0.331296 0 0 0 -0.251736 0.0106645 0.833519 
9 1.40198 1.32545 1.82112 0.313664 0 0 0 -0.524597 -0.595559 1.18533 
218 1.31593 1.40023 1.78917 0.30964 0 0 0 -0.538562 -0.471017 1.28599 
200 -0.243766 1.45154 1.90838 0.706229 0 0 0 -0.689997 -0.735855 -0.614237 
486 1.31685 1.26322 1.98199 0.354055 0 0 0 0.425716 0.779714 1.35099 
98 0.192045 0.505972 2.67418 0.762681 0 0 0 -0.547801 -0.679275 -0.319393 
113 1.36474 -0.76775 2.84603 0.993317 0 0 0 -0.0519107 -0.877638 0.0551775 
114 -0.662814 0.667394 3.0988 1.04669 0 0 0 -0.730342 -0.208071 0.292163 
108 0.827866 -0.375043 3.19939 0.967027 0 0 0 -0.179655 -0.68332 0.269367 
163 0.568723 0.925254 2.79803 0.645966 0 0 0 -0.629003 -0.714714 0.3034 
60 0.824457 1.36372 3.15257 0.691632 0 0 0 0.333302 0.629409 0.835942 
117 0.983524 0.117899 3.7019 0.978817 0 0 0 -0.129095 -0.308783 0.718557 
51 0.407867 1.42257 2.78812 0.64207 0 0 0 -0.346619 0.249814 0.656778 
88 1.42973 0.53892 3.6292 0.869876 0 0 0 0.00638743 0.0152731 0.89495 
109 -0.521004 -0.195162 3.25587 1.19581 0 0 0 -0.575243 -0.43826 0.393266 
90 -0.819589 0.596006 2.78624 1.05283 0 0 0 -0.798722 -0.21651 0.11203 
91 0.794654 1.1685 3.90934 0.962241 0 0 0 -0.00640092 0.133373 0.951552 
227 1.33614 1.35544 2.76354 0.562286 0 0 0 -0.0936576 0.239748 -0.637906 
438 0.692842 1.45414 3.02107 0.665648 0 0 0 0.310283 0.681397 0.831896 
119 0.719814 0.052661 3.43824 0.932509 0 0 0 -0.230062 -0.438123 0.511977 
430 1.20337 0.667934 2.80486 0.606693 0 0 0 -0.284863 -0.6888 0.484985 
96 1.21336 -0.443182 3.49593 1.03711 0 0 0 -0.05809 -0.627555 0.498011 
121 -0.478877 0.852547 3.15732 0.98183 0 0 0 -0.686129 -0.196808 0.337563 
110 0.000530302 -0.178565 2.91004 0.98903 0 0 0 -0.415652 -0.545737 0.0950893 
120 -0.757142 1.33216 2.86286 0.982956 0 0 0 -0.855551 -0.0638504 0.192642 
104 0.10118 -0.598301 3.21263 1.14763 0 0 0 -0.345983 -0.642431 0.341687 
101 0.537348 0.503481 3.11842 0.786336 0 0 0 -0.405485 -0.525513 0.336956 
238 1.23272 1.23412 2.83499 0.574662 0 0 0 0.182202 0.58672 0.304322 
123 -0.31698 2.86792 -0.691698 1.18976 0 0 0 -0.540356 0.329793 -0.65983 
159 0.397832 3.05213 -0.625379 1.0548 0 0 0 -0.285733 0.503084 -0.690792 
142 1.18785 3.80508 -0.0596148 1.0579 0 0 0 -0.106362 0.892018 -0.316706 
126 -0.541268 3.21741 0.184413 1.10843 0 0 0 -0.64499 0.551744 -0.319702 
127 0.805513 2.06304 -0.832077 0.949851 0 0 0 -0.27057 -0.262301 -0.88621 
158 0.896478 2.14782 -0.502452 0.825349 0 0 0 -0.343763 -0.410895 -0.87409 
143 -0.162419 2.51389 -0.788981 1.13561 0 0 0 -0.507491 0.116803 -0.735198 
149 1.11664 2.1868 -0.912527 0.958565 0 0 0 -0.15284 -0.115957 -0.939901 
151 1.36321 3.3662 0.288897 0.844521 0 0 0 0.0302152 0.959226 0.0450174 
274 1.33477 2.01645 -0.0268006 0.636668 0 0 0 -0.366981 -0.743705 -0.663907 
157 0.0134446 1.643 0.128942 0.821068 0 0 0 -0.211161 -0.666848 -0.103415 
156 -0.609021 1.93331 -0.65012 1.19061 0 0 0 -0.59917 -0.0660176 -0.549871 
130 0.986177 2.15088 0.267698 0.593012 0 0 0 -0.524986 -0.340101 -0.635073 
148 0.698616 1.49459 -0.232561 0.791589 0 0 0 -0.0750638 -0.610822 0.0773932 
137 -0.708153 2.86987 0.246402 1.07807 0 0 0 -0.787239 0.323152 -0.310886 
138 0.424979 2.62752 -0.593772 0.963028 0 0 0 -0.356613 0.182126 -0.803859 
141 0.160034 1.99701 -0.415251 0.914395 0 0 0 -0.476584 -0.434297 -0.672671 
140 0.862151 2.60215 -0.809076 0.979754 0 0 0 -0.192281 0.19698 -0.875631 
443 1.31898 2.08521 0.116084 0.599073 0 0 0 -0.363284 -0.428155 -0.737868 
444 1.48154 2.23981 0.062791 0.620898 0 0 0 -0.25958 0.134162 -0.787091 
136 1.03226 1.8917 0.221509 0.597169 0 0 0 -0.149043 -0.793352 0.0686639 
268 1.46276 2.00808 0.11334 0.589758 0 0 0 -0.280077 -0.51314 -0.711844 
146 0.824178 2.05114 0.253745 0.615591 0 0 0 -0.451241 -0.790391 -0.379438 
180 0.816326 2.50704 0.789625 0.56531 0 0 0 -0.422082 1.23142 -0.299283 
190 0.821828 3.2916 1.17401 0.773671 0 0 0 0.338226 0.751395 0.367131 
178 -0.546729 3.08541 1.13917 0.974057 0 0 0 -0.646038 0.581695 -0.0204884 
220 0.899091 2.2326 1.45458 0.460913 0 0 0 -1.92839 -2.57341 -1.96297 
189 1.01702 2.26103 0.814602 0.487548 0 0 0 -0.947738 1.11267 -0.60642 
165 1.0488 2.30437 0.745473 0.50253 0 0 0 -0.824717 1.1566 -0.661854 
128 1.38576 3.34334 1.2518 0.793523 0 0 0 0.238326 -0.0104509 0.37925 
185 0.700684 3.36967 1.30718 0.807795 0 0 0 0.30644 0.749875 0.317372 
168 0.779369 2.05424 1.00595 0.471615 0 0 0 -0.205897 1.53656 0.70654 
186 -0.76769 1.72337 0.481584 0.983527 0 0 0 -0.740674 -0.285033 -0.211639 
170 0.556747 2.28227 0.547186 0.609203 0 0 0 -0.63949 -0.127159 -0.555099 
171 0.284592 3.56152 0.915819 0.929533 0 0 0 -0.124112 0.922015 0.0251766 
175 -0.673983 2.64647 1.34235 0.922311 0 0 0 -0.838177 0.285625 -0.0589419 
124 0.946523 2.13444 1.03011 0.448056 0 0 0 -1.03386 1.02044 -0.156164 
187 -0.341967 2.06188 0.381161 0.853128 0 0 0 -0.732679 -0.50204 -0.361233 
134 1.44029 2.99974 0.715256 0.686523 0 0 0 0.237597 0.772272 0.575617 
198 1.10455 2.48528 1.32489 0.5197 0 0 0 -1.07302 -2.52531 -1.2374 
426 1.5256 1.8097 1.03414 0.350827 0 0 0 0.374556 0.399552 0.236722 
147 1.22189 1.9207 1.15986 0.365564 0 0 0 -0.681732 -0.61257 0.427766 
133 1.04449 2.31189 0.324249 0.588099 0 0 0 -0.518681 0.36562 -0.73431 
188 0.398835 2.22613 0.467434 0.65219 0 0 0 -0.608959 -0.528024 -0.525453 
20 1.4012 1.64926 1.36986 0.284345 0 0 0 1.58826 -0.491166 -0.21012 
216 -0.0737742 2.3515 1.33666 0.682755 0 0 0 -0.676893 0.163004 -0.232996 
206 -0.717431 1.91108 1.19379 0.879569 0 0 0 -0.88095 -0.367045 -0.250329 
154 -0.280085 3.2078 0.526567 0.978396 0 0 0 -0.533212 0.672514 -0.188913 
144 1.30247 2.01086 0.912944 0.407615 0 0 0 -0.672981 1.05407 -0.238562 
423 1.18173 2.03443 0.97732 0.411238 0 0 0 -0.851559 1.06102 0.0833661 
135 -0.226249 3.12139 0.410254 0.958207 0 0 0 -0.535683 0.63212 -0.247141 
192 0.529698 2.18855 0.46584 0.623392 0 0 0 -0.590046 -0.541595 -0.501841 
194 0.171584 2.21543 0.651673 0.670488 0 0 0 -0.636154 -0.56827 -0.480127 
196 0.990077 2.89059 1.10309 0.6406 0 0 0 0.388181 0.633299 0.41903 
203 0.53233 2.55461 0.541054 0.655192 0 0 0 -0.461134 0.623914 -0.448616 
150 1.41056 1.88551 0.988728 0.370978 0 0 0 2.87633 5.46941 3.79522 
214 -0.0711014 1.80497 0.791841 0.711167 0 0 0 -0.190329 -1.00773 -0.17295 
425 1.42104 1.95118 0.905407 0.394387 0 0 0 -0.268519 0.944205 -0.302432 
48 0.228428 2.29404 0.623426 0.667388 0 0 0 -0.652893 -0.340593 -0.509611 
162 1.52738 1.51565 1.44982 0.254791 0 0 0 -0.400389 0.113628 0.320331 
177 0.870218 1.99606 1.31465 0.416624 0 0 0 -0.428263 0.917042 0.359049 
139 0.901011 3.94731 0.7486 1.02061 0 0 0 -0.02395 0.908771 -0.0296531 
461 1.38948 1.75363 1.23162 0.316837 0 0 0 0.788937 0.0388363 0.353823 
210 0.261616 2.17599 0.847568 0.615997 0 0 0 -0.594676 -0.510658 -0.434905 
480 1.02344 2.02373 1.13292 0.409867 0 0 0 -0.664296 0.947456 0.473161 
28 1.05076 1.83854 1.404 0.360318 0 0 0 0.745249 0.122653 0.74651 
489 0.558858 2.27472 1.21428 0.519891 0 0 0 -0.640151 0.853612 -0.17799 
4 1.22244 1.72085 1.42292 0.315216 0 0 0 1.31363 -0.333608 0.539329 
19 1.14084 2.47425 0.428797 0.585356 0 0 0 -0.345466 1.10186 -0.529115 
336 0.479589 2.37428 1.18931 0.555284 0 0 0 -0.452017 0.940827 -0.147876 
469 1.0405 2.01731 1.12835 0.406966 0 0 0 -0.641847 0.93607 0.520264 
308 0.417197 2.38388 1.20765 0.568905 0 0 0 -0.422075 0.883017 -0.144399 
15 1.22459 1.8628 1.21612 0.350381 0 0 0 0.329906 0.109542 1.24248 
424 1.33272 2.62683 0.397189 0.618366 0 0 0 -0.0725507 1.29743 -0.162137 
7 1.3725 2.12814 0.709275 0.457156 0 0 0 -0.584538 1.11292 -1.16715 
174 1.29679 1.80757 1.23498 0.33218 0 0 0 0.573519 -0.124904 0.946819 
6 1.09485 1.81937 1.39358 0.350538 0 0 0 0.885908 -0.0217506 0.820623 
458 0.509357 2.15863 1.40969 0.503688 0 0 0 -0.692783 0.732873 -0.0556179 
433 1.53014 1.83936 0.985042 0.363363 0 0 0 0.317911 0.587867 0.0928495 
437 1.46749 2.04176 0.74871 0.434918 0 0 0 -0.336993 1.01702 -1.2325 
153 1.27972 1.81894 1.23333 0.335818 0 0 0 0.531891 -0.101117 1.03889 
286 1.4825 2.02988 0.753383 0.432208 0 0 0 -0.289575 0.996456 -1.23883 
195 0.960329 1.93964 1.32812 0.392722 0 0 0 -0.00433296 0.669685 0.653998 
399 1.51635 1.93623 0.866648 0.39793 0 0 0 -0.429964 0.218909 -1.13943 
354 0.503418 2.10105 1.49637 0.495891 0 0 0 -0.741073 0.714517 0.0203426 
372 1.50625 1.49957 1.49052 0.251512 0 0 0 -0.213098 0.0451097 0.264257 
164 0.232475 1.81997 1.47903 0.555411 0 0 0 -0.187168 -0.251024 -0.150814 
17 1.50459 1.49817 1.49392 0.25144 0 0 0 -0.188181 0.0475354 0.240371 
52 0.953884 1.86576 1.44846 0.38025 0 0 0 0.395394 0.46294 0.490573 
145 0.944092 3.68322 0.31978 0.962025 0 0 0 -0.0697402 0.942569 -0.136535 
256 0.558354 2.11604 1.73864 0.49638 0 0 0 -0.760212 0.519704 0.0905474 
495 1.04309 1.64388 1.68229 0.346148 0 0 0 0.726246 0.284246 0.134157 
248 0.868786 1.5629 1.93385 0.401681 0 0 0 -0.73423 0.72476 0.57458 
43 0.148921 2.31439 1.81883 0.623841 0 0 0 -0.186932 0.906589 0.491344 
76 0.906803 1.57911 1.88405 0.389079 0 0 0 -0.518197 0.646494 0.347115 
450 0.854481 1.64817 1.83468 0.397155 0 0 0 -0.471621 0.83291 0.328215 
166 1.19151 3.39112 1.71318 0.833435 0 0 0 0.311559 -0.187269 0.0847943 
70 0.975126 2.32046 2.30292 0.608761 0 0 0 0.374762 -1.55695 -1.46657 
199 -0.163989 2.48213 2.51655 0.815892 0 0 0 -0.22198 0.751754 0.499414 
223 -0.313709 3.51998 2.20263 1.0656 0 0 0 -0.343007 0.730764 0.185288 
201 -0.0322996 3.01379 1.68138 0.815638 0 0 0 -0.0812899 0.978496 0.267412 
243 0.900444 2.03173 2.39423 0.562183 0 0 0 0.102943 -1.11849 -1.35641 
191 0.402001 2.14627 2.61254 0.667708 0 0 0 0.537573 1.16209 0.686809 
204 0.494255 3.83159 2.13436 1.03917 0 0 0 0.083132 0.663334 0.133741 
49 0.769421 1.87246 1.59107 0.41737 0 0 0 -0.38807 1.00499 0.294926 
160 0.914953 1.82327 1.54462 0.382719 0 0 0 0.276181 0.470542 0.187844 
207 0.786903 2.75747 2.50756 0.754782 0 0 0 0.726067 0.142249 -0.116925 
208 1.03099 2.39115 1.63948 0.518108 0 0 0 -1.29641 -4.15675 -2.32197 
209 0.52946 2.20089 1.58261 0.507845 0 0 0 -0.583208 0.778389 0.0883351 
447 0.197364 2.26424 2.14672 0.639119 0 0 0 0.0857822 1.11293 0.777267 
211 0.711171 3.69218 1.79547 0.943617 0 0 0 0.228617 0.561469 0.152187 
212 0.655027 3.2858 1.83326 0.812309 0 0 0 0.469024 0.508437 0.273222 
213 0.067819 3.47689 2.25792 0.980738 0 0 0 -0.0321033 0.748332 0.229371 
490 1.46127 1.49805 1.53103 0.253855 0 0 0 1.29269 -0.711537 0.128719 
215 0.794993 3.88391 2.27497 1.06152 0 0 0 0.148997 0.502779 0.0716802 
184 1.50041 1.49456 1.50257 0.251402 0 0 0 -0.121609 0.0573841 0.171747 
55 0.266693 2.26505 1.5319 0.574507 0 0 0 -0.404442 0.671158 0.0856333 
505 0.361123 1.60465 2.26191 0.548759 0 0 0 -0.983761 0.180609 0.294872 
255 1.2108 2.61049 2.17653 0.668967 0 0 0 0.0490126 -2.31916 -1.57543 
479 0.0168459 2.36861 2.04038 0.686484 0 0 0 -0.170017 0.920337 0.583067 
173 -0.124524 1.91621 1.83532 0.659827 0 0 0 -0.837776 -0.402888 -0.215153 
318 0.34988 1.78872 2.07953 0.534859 0 0 0 -0.899087 0.413726 0.360453 
54 0.430626 1.94053 1.8001 0.502878 0 0 0 -0.875999 0.602264 0.284623 
34 0.259995 2.18276 1.85537 0.577329 0 0 0 -0.275861 0.845146 0.514595 
172 0.16597 2.12749 1.58858 0.582571 0 0 0 -0.604332 0.131457 -0.0734972 
229 1.0813 2.33349 2.5338 0.661711 0 0 0 0.497544 -1.05237 -1.40597 
234 1.04409 1.64646 1.67795 0.345828 0 0 0 0.7447 0.277141 0.135704 
252 1.15749 1.61768 1.62227 0.318149 0 0 0 1.06404 -0.250286 0.524542 
235 1.04832 1.62 1.71022 0.345716 0 0 0 0.625854 0.289087 0.162244 
29 0.843076 1.72178 1.74556 0.396693 0 0 0 -0.258935 0.877936 0.216106 
513 0.660703 1.56777 2.09004 0.46031 0 0 0 -1.20297 0.513731 0.742853 
241 1.06009 1.60521 1.72045 0.343451 0 0 0 0.600485 0.255468 0.207001 
38 0.320523 1.7588 2.2745 0.566246 0 0 0 -0.693118 0.511559 0.471368 
35 0.252089 1.76159 2.40264 0.603924 0 0 0 -0.543953 0.5568 0.510696 
30 0.500218 1.66022 2.12088 0.499528 0 0 0 -1.10772 0.440832 0.496618 
239 -0.586847 2.64441 2.57886 0.974136 0 0 0 -0.577183 0.458324 0.298061 
233 0.904612 1.60662 1.8497 0.386759 0 0 0 -0.399437 0.669489 0.256653 
75 0.829571 1.66228 1.83747 0.403137 0 0 0 -0.564256 0.867641 0.365814 
219 1.50021 1.49439 1.50297 0.251406 0 0 0 -0.11843 0.057942 0.168345 
167 1.5004 1.49455 1.50258 0.251402 0 0 0 -0.121471 0.0574082 0.171599 
466 1.5002 1.49437 1.503 0.251406 0 0 0 -0.118202 0.0579824 0.1681 
471 1.50021 1.49439 1.50297 0.251406 0 0 0 -0.118474 0.0579343 0.168392 
36 1.50029 1.49445 1.50282 0.251404 0 0 0 -0.119649 0.0577277 0.16965 
278 1.50195 1.4959 1.49935 0.251391 0 0 0 -0.146759 0.0532115 0.198316 
37 1.50089 1.49497 1.50157 0.251396 0 0 0 -0.129524 0.0560898 0.180084 
58 1.50159 1.49559 1.5001 0.251391 0 0 0 -0.141013 0.0542178 0.192174 
47 1.07811 1.75571 1.49969 0.343428 0 0 0 1.02033 -0.1363 0.347793 
477 1.50167 1.49566 1.49993 0.251391 0 0 0 -0.142233 0.0539285 0.193583 
355 1.50134 1.49537 1.50062 0.251392 0 0 0 -0.136843 0.0548031 0.187917 
334 1.50104 1.49511 1.50125 0.251394 0 0 0 -0.13194 0.0556168 0.182737 
476 1.50097 1.49505 1.50139 0.251395 0 0 0 -0.130868 0.055797 0.181601 
179 1.50089 1.49498 1.50157 0.251396 0 0 0 -0.12946 0.0560347 0.180108 
222 1.50059 1.49472 1.50218 0.251399 0 0 0 -0.124621 0.0568617 0.174961 
302 1.50066 1.49478 1.50205 0.251398 0 0 0 -0.125708 0.0566746 0.176119 
176 1.50066 1.49478 1.50204 0.251398 0 0 0 -0.125768 0.0566642 0.176183 
225 0.922807 2.39725 3.41234 0.888287 0 0 0 0.373677 0.377003 0.31179 
106 0.302737 2.02714 3.35323 0.857239 0 0 0 0.120778 0.569719 0.780078 
249 -0.498557 2.47087 2.81671 0.959171 0 0 0 -0.5367 0.431532 0.394126 
228 -0.108656 3.23445 3.60257 1.22453 0 0 0 -0.281627 0.494533 0.579479 
254 -0.486116 2.76307 3.5122 1.1744 0 0 0 -0.471146 0.385429 0.584945 
230 0.506969 3.7114 2.9996 1.13779 0 0 0 0.0269026 0.555005 0.264723 
231 0.569901 2.2762 3.57917 0.935086 0 0 0 0.214646 0.457911 0.686144 
242 0.544174 2.40527 3.25163 0.856901 0 0 0 0.388552 0.60593 0.516842 
246 -0.35655 2.01124 3.52011 1.04153 0 0 0 -0.46043 0.227393 0.669543 
464 0.277935 1.66566 2.73314 0.660815 0 0 0 -0.253232 0.600727 0.673404 
205 0.789502 1.62297 3.04756 0.674936 0 0 0 0.588782 0.903098 0.639752 
251 0.368725 3.45847 3.03809 1.07462 0 0 0 0.0473244 0.574823 0.331756 
105 -0.172731 1.52945 3.72936 1.04181 0 0 0 -0.383886 0.0755034 0.777717 
250 0.796413 3.13053 3.3993 1.05192 0 0 0 0.168004 0.346688 0.31855 
244 1.25516 2.37352 3.45388 0.901674 0 0 0 0.225143 0.194178 0.0630278 
240 -0.316575 3.69298 3.4091 1.33894 0 0 0 -0.398571 0.574287 0.443185 
257 3.62637 1.21803 -0.278447 1.02737 0 0 0 0.662291 -0.0959334 -0.447612 
441 1.86626 1.15928 0.0293867 0.661003 0 0 0 -0.675393 -0.369677 0.601536 
288 3.6737 0.857923 0.0530739 0.991891 0 0 0 0.71709 -0.235552 -0.33433 
260 3.1323 0.827985 -0.60911 1.0191 0 0 0 0.333841 -0.274312 -0.675073 
261 3.52398 -0.100122 0.154682 1.093 0 0 0 0.50273 -0.634771 -0.330555 
276 2.55308 0.780201 -0.320845 0.838313 0 0 0 -0.251421 -0.566758 -0.547736 
427 2.22869 1.08024 0.20878 0.632711 0 0 0 -0.822426 -0.713989 -0.101811 
285 1.77615 0.218844 -0.0315133 0.864556 0 0 0 -0.185618 0.145301 0.517836 
436 2.35116 1.42219 -0.0512646 0.678326 0 0 0 -0.406534 -0.673948 -0.734152 
266 2.66025 0.936352 -0.84342 1.00718 0 0 0 0.063574 -0.223768 -0.783958 
267 3.03037 0.608856 -0.039806 0.86518 0 0 0 0.159059 -0.643752 -0.506131 
293 2.10191 1.07615 -0.870521 0.957152 0 0 0 -0.174108 -0.223622 -0.718734 
269 2.55512 0.949701 -0.706879 0.943087 0 0 0 -0.0495116 -0.288849 -0.743547 
270 2.46766 0.612226 -0.432208 0.891626 0 0 0 -0.223506 -0.523984 -0.496715 
271 3.23129 -0.579426 -0.176076 1.23192 0 0 0 0.360718 -0.692755 -0.376333 
272 1.6467 0.823011 0.128494 0.70244 0 0 0 -0.205715 0.701027 1.5532 
284 2.04211 0.324122 -0.432477 0.936209 0 0 0 -0.243784 -0.335184 -0.149029 
290 2.38962 -0.690834 -0.214171 1.17656 0 0 0 0.0652803 -0.547438 -0.230048 
291 3.16121 0.334526 -0.49272 1.06555 0 0 0 0.325713 -0.499013 -0.575624 
294 3.06872 0.32759 0.682214 0.794007 0 0 0 0.101738 -0.942257 -0.433144 
23 1.96012 1.40534 1.23483 0.34908 0 0 0 -0.599551 -0.217219 0.0857725 
453 2.93383 0.913309 1.3622 0.602812 0 0 0 0.732847 -0.100556 0.132453 
18 1.90808 1.36094 1.34067 0.333037 0 0 0 -1.25071 0.0130065 0.295376 
298 2.04666 1.34271 1.25147 0.36717 0 0 0 -0.540398 -0.421669 0.0781928 
299 2.9192 0.965587 1.15319 0.600932 0 0 0 0.695805 -0.29399 -0.119138 
451 2.12579 1.28905 1.26587 0.385298 0 0 0 -0.254696 -0.637386 -0.0746595 
301 3.70182 0.535437 1.4268 0.900409 0 0 0 0.87914 -0.217162 0.0446036 
264 2.45149 0.855536 0.620129 0.59732 0 0 0 -0.523688 -0.843215 -0.416918 
445 2.28053 1.21986 1.24788 0.42347 0 0 0 0.555516 -0.751861 -0.307264 
304 2.19731 1.11982 1.14347 0.431072 0 0 0 2.27663 2.78729 2.37267 
41 2.8642 0.991066 0.872286 0.609243 0 0 0 0.493118 -0.669879 -0.497221 
306 1.9942 1.20525 1.4957 0.35872 0 0 0 -1.55159 -0.175307 0.0555409 
307 2.07212 1.04495 1.19274 0.425496 0 0 0 3.78021 7.11467 5.71617 
277 2.64746 1.39934 0.721809 0.548757 0 0 0 0.848661 -0.164885 -0.410676 
309 3.42367 0.40937 1.28612 0.825452 0 0 0 0.70541 -0.507589 -0.108068 
310 2.04762 -0.00926182 1.06794 0.725923 0 0 0 -0.566289 0.412273 0.078509 
311 2.88347 1.04323 0.925481 0.602774 0 0 0 0.627635 -0.456695 -0.367864 
341 2.75568 1.06759 0.733261 0.594093 0 0 0 0.363322 -0.793553 -0.668185 
432 2.74185 1.44695 0.883124 0.554669 0 0 0 0.86304 0.249314 0.0388662 
161 2.00056 1.43223 1.16426 0.363504 0 0 0 -0.0699636 -0.338661 -0.11709 
182 2.69528 1.32605 0.523284 0.596683 0 0 0 0.459732 -0.519075 -0.622895 
316 2.92723 -0.30818 0.756849 0.924408 0 0 0 0.0547588 -0.866019 -0.307161 
317 3.34937 0.0147987 0.768079 0.924395 0 0 0 0.394661 -0.767695 -0.282419 
275 3.40929 -0.820402 0.709984 1.195 0 0 0 0.430009 -0.788072 -0.184206 
33 2.6597 0.845099 1.48871 0.53787 0 0 0 0.731285 -0.584722 0.0577135 
320 1.86541 0.0375209 0.931895 0.734206 0 0 0 -0.348824 1.04575 0.599286 
72 2.19326 1.16819 1.39319 0.403132 0 0 0 -0.136033 -0.769865 -0.0247392 
265 1.93826 -0.369083 0.732909 0.882172 0 0 0 -0.204931 0.0533036 0.157727 
501 2.42645 1.15685 1.21413 0.460774 0 0 0 0.925147 -0.61284 -0.326045 
56 2.57031 0.702997 0.53253 0.656286 0 0 0 -0.587875 -1.04466 -0.472254 
325 2.33715 1.10414 1.34222 0.440659 0 0 0 0.761446 -0.601148 0.0305738 
287 2.41139 -0.366531 0.55564 0.915702 0 0 0 -0.190791 -0.554722 -0.138695 
327 3.3612 1.24899 1.48976 0.72928 0 0 0 0.602883 0.610939 0.46525 
329 1.95982 0.208857 1.14449 0.655288 0 0 0 -0.51447 1.36129 0.567937 
428 2.78132 0.813919 1.48194 0.571734 0 0 0 0.696745 -0.434558 0.0856785 
31 2.45657 0.720516 0.487636 0.649593 0 0 0 -0.729157 -0.862223 -0.283701 
283 1.78566 0.844235 0.902904 0.529955 0 0 0 2.21379 7.1158 5.72829 
326 2.4987 1.10644 1.22629 0.479724 0 0 0 0.917773 -0.587035 -0.275407 
470 3.20794 1.21786 1.38465 0.675377 0 0 0 0.604957 0.650659 0.479889 
313 2.78303 0.837264 1.4233 0.56937 0 0 0 0.688856 -0.469741 0.0305156 
457 1.88296 1.3176 1.42381 0.328057 0 0 0 -1.57502 0.173125 0.325299 
455 2.09928 1.46729 1.04026 0.396736 0 0 0 0.737339 -0.566995 -0.644779 
422 2.35312 1.29627 1.08161 0.446571 0 0 0 1.03425 -0.563839 -0.623574 
456 2.55984 0.34174 1.38463 0.628051 0 0 0 -0.349844 -1.08265 -0.530419 
474 1.85407 1.41999 1.30336 0.322766 0 0 0 -0.756379 0.168542 0.00894277 
300 3.62897 -0.222313 1.47508 1.02441 0 0 0 0.628928 -0.628301 -0.0936746 
478 2.35707 1.45327 0.867212 0.466212 0 0 0 1.20533 -0.344423 -0.812679 
340 1.70264 1.43604 1.41147 0.286353 0 0 0 -0.968864 0.606929 -0.388364 
281 1.70783 0.00683855 0.314209 0.851726 0 0 0 -0.0686888 0.525066 0.736436 
333 2.95213 0.625802 2.57619 0.753146 0 0 0 0.713183 0.39876 0.502309 
323 1.96024 1.06257 1.74773 0.38267 0 0 0 -0.574119 -0.518613 -0.531183 
335 2.66602 0.84727 2.44811 0.646092 0 0 0 0.592462 0.832697 0.530774 
491 1.78687 1.17972 1.7055 0.33807 0 0 0 -0.880279 0.101948 -0.515958 
337 2.05362 -0.945716 1.91696 0.993526 0 0 0 -0.0302141 -0.872242 -0.198422 
338 3.03181 0.240149 2.16305 0.772453 0 0 0 0.621384 -0.400479 0.18503 
339 1.79311 0.243013 1.69179 0.598 0 0 0 -0.162342 1.31184 -0.0847429 
370 1.65925 -0.976643 2.59511 1.0346 0 0 0 -0.00371641 -0.913975 -0.00498239 
452 2.42607 0.244137 1.74989 0.624612 0 0 0 -0.262872 -1.04639 -0.489025 
295 2.09994 0.574218 2.39618 0.559709 0 0 0 0.422666 -0.554886 0.449817 
296 2.19624 1.05237 1.56909 0.416345 0 0 0 0.0525385 -0.767503 0.00175279 
344 2.37282 0.960807 1.94511 0.493171 0 0 0 0.0946807 -0.747969 -0.194947 
345 3.40708 1.06476 2.12277 0.795707 0 0 0 0.617728 0.513875 0.408954 
346 2.01393 0.960279 1.86444 0.415938 0 0 0 0.21259 -0.86068 0.00203359 
364 1.68475 1.12266 1.87406 0.355485 0 0 0 0.0337537 -0.643122 -0.441244 
348 3.88722 1.46542 2.1892 0.984171 0 0 0 0.623118 0.145074 0.180693 
331 2.11756 0.995952 1.72374 0.415841 0 0 0 0.0795776 -0.764285 -0.0600957 
350 2.3602 -0.0945975 1.61191 0.719202 0 0 0 -0.476422 -0.847101 -0.611066 
351 1.77259 1.23309 1.64011 0.323702 0 0 0 -1.06184 0.264665 -0.192754 
352 2.46184 0.668521 2.26259 0.58233 0 0 0 0.67637 0.0572923 0.582568 
363 2.55574 -0.637614 2.03573 0.923296 0 0 0 0.0626234 -0.993187 -0.189395 
45 1.68419 1.14929 1.83489 0.346042 0 0 0 -0.0692432 -0.451866 -0.387635 
365 1.6938 0.222909 2.3901 0.619913 0 0 0 -0.246729 -1.20418 -0.522429 
356 3.26093 1.43479 2.49167 0.819985 0 0 0 0.0772292 0.4428 0.108643 
357 2.16287 1.08651 2.24833 0.502369 0 0 0 -1.19517 -1.26626 -1.34784 
358 2.14802 0.666398 2.60498 0.595297 0 0 0 0.5606 0.181435 0.638793 
359 3.56756 -0.600344 2.21029 1.1353 0 0 0 0.571198 -0.671615 0.0263334 
360 1.95003 0.186201 2.18312 0.617075 0 0 0 -0.29911 -1.06728 -0.54838 
361 2.06205 -0.717424 1.53364 0.916866 0 0 0 -0.165975 -0.667971 -0.288179 
362 2.41713 0.274358 1.96776 0.621369 0 0 0 -0.0196182 -1.05121 -0.266842 
460 1.97019 1.14592 1.60674 0.364137 0 0 0 -1.3318 -0.186454 -0.368088 
303 2.32215 1.05425 1.64056 0.44636 0 0 0 -0.243859 -1.64994 -0.782139 
393 1.97008 -0.328912 2.07153 0.770046 0 0 0 -0.341788 -0.895123 -0.523348 
324 2.45376 0.691633 1.9828 0.539927 0 0 0 0.658963 -0.447208 0.399873 
312 3.14154 1.31986 1.96637 0.699457 0 0 0 -0.0356085 0.799506 0.326173 
375 1.7987 0.91847 2.0944 0.426673 0 0 0 0.572594 -1.16245 0.509472 
459 2.65914 0.457165 1.80806 0.612562 0 0 0 0.369615 -0.819319 -0.0486365 
62 1.74291 1.05769 1.9291 0.377705 0 0 0 0.103643 -0.931208 -0.415001 
380 2.33974 0.664182 2.34272 0.573091 0 0 0 0.614355 -0.00928635 0.600974 
485 1.68786 1.16813 1.80446 0.339539 0 0 0 -0.17196 -0.322599 -0.330772 
510 2.07899 0.979142 1.78211 0.415851 0 0 0 0.124283 -0.791861 -0.0554431 
497 1.81804 0.60949 2.48231 0.542848 0 0 0 0.301691 -0.771572 0.409459 
347 1.77136 -0.881254 1.97401 0.962731 0 0 0 -0.0895689 -0.786551 -0.24752 
377 3.60722 1.30346 2.56839 0.933678 0 0 0 0.51426 0.27203 0.238898 
314 2.7149 0.746783 1.7233 0.570733 0 0 0 0.73972 -0.292758 0.267039 
388 1.7547 1.18522 1.72428 0.334977 0 0 0 -0.686845 0.0359619 -0.442283 
315 2.63579 0.314017 1.72366 0.638916 0 0 0 0.0537951 -1.04204 -0.326261 
472 2.09293 0.870497 1.94172 0.44809 0 0 0 0.491759 -0.963412 0.346316 
483 1.82858 0.756604 2.34806 0.493681 0 0 0 0.43946 -0.869996 0.607184 
481 2.18418 0.922721 1.7832 0.441241 0 0 0 0.450485 -0.865587 0.16138 
53 1.96945 0.837133 2.09145 0.454925 0 0 0 0.523654 -1.05333 0.546374 
484 1.59689 0.90745 2.2591 0.443744 0 0 0 0.520822 -1.2109 0.880307 
384 3.3199 -0.642174 2.68997 1.13434 0 0 0 0.468076 -0.689847 0.149535 
79 1.6855 1.09274 1.92023 0.366689 0 0 0 0.137797 -0.883243 -0.419564 
492 1.57913 1.14676 1.92413 0.353493 0 0 0 0.285149 -0.824169 -0.0688852 
102 1.57313 0.883421 2.31386 0.456287 0 0 0 0.432854 -1.15592 0.886159 
353 2.07856 1.26353 2.6402 0.588626 0 0 0 -0.784852 0.435472 -1.26501 
462 2.05823 1.16867 1.5 0.374843 0 0 0 -1.12476 -0.441531 -0.00752921 
366 3.1868 0.39456 3.69955 1.11941 0 0 0 0.427859 -0.0589649 0.661263 
89 1.72107 0.843356 2.90213 0.612807 0 0 0 0.333706 0.563363 0.677293 
368 3.28496 -0.261773 3.55746 1.21014 0 0 0 0.427474 -0.424275 0.520484 
369 3.64677 0.24624 3.45704 1.1909 0 0 0 0.608275 -0.163267 0.482323 
378 2.68147 0.577425 2.86987 0.75739 0 0 0 0.589621 0.356549 0.599851 
389 2.14752 0.922798 3.36327 0.79033 0 0 0 0.301175 0.639921 0.697757 
95 1.59937 0.244863 3.84568 0.991723 0 0 0 0.0260011 -0.174656 0.84443 
373 1.65834 -0.0884513 2.8068 0.767131 0 0 0 -0.127089 -0.983981 -0.0238865 
390 2.59699 1.19522 3.71532 0.975794 0 0 0 0.204652 0.334108 0.63333 
86 1.82023 1.15322 3.19896 0.705229 0 0 0 0.238583 0.999362 0.374356 
376 2.3167 1.03751 3.19032 0.758192 0 0 0 0.302549 0.831213 0.474064 
391 3.65085 0.0254056 3.455 1.22491 0 0 0 0.591528 -0.276207 0.46294 
236 1.54662 0.573475 2.76919 0.603726 0 0 0 0.00800832 -0.614122 0.469224 
379 2.28479 0.0643953 2.74732 0.757381 0 0 0 0.19769 -0.711347 0.263055 
392 3.16306 0.164083 2.91473 0.933106 0 0 0 0.561889 -0.181141 0.368109 
381 3.3365 -0.184162 3.45155 1.17626 0 0 0 0.468469 -0.388439 0.486808 
115 1.62184 0.856723 2.99927 0.635535 0 0 0 0.269752 0.566732 0.738457 
386 3.19115 1.2429 3.66152 1.08251 0 0 0 0.34395 0.202026 0.542289 
97 1.83971 0.614677 2.73121 0.599047 0 0 0 0.341777 -0.192318 0.590666 
385 2.36353 -0.0875385 3.34841 0.94501 0 0 0 0.184318 -0.438183 0.551915 
413 2.04561 3.55203 0.25629 0.937591 0 0 0 0.0167875 0.826886 0.106741 
396 3.29247 3.22368 0.0353804 1.07479 0 0 0 0.396764 0.490326 -0.151137 
417 1.86394 3.11944 -0.421515 0.938945 0 0 0 0.0259758 0.635537 -0.497441 
398 3.25695 2.67494 0.143852 0.92157 0 0 0 0.465738 0.363359 -0.0248121 
418 3.60252 2.06812 -0.0315369 0.979932 0 0 0 0.668194 0.10329 -0.267781 
400 3.51106 2.53616 -0.0693564 1.01263 0 0 0 0.566679 0.207835 -0.261322 
420 1.73365 2.37769 -0.458358 0.802556 0 0 0 0.0173863 0.149976 -0.821998 
414 2.021 2.40555 -0.00567117 0.688313 0 0 0 0.194048 0.747613 -0.386248 
416 2.84933 3.42506 -0.151608 1.0695 0 0 0 0.207376 0.613231 -0.261575 
404 3.3127 3.00275 -0.201166 1.07257 0 0 0 0.424786 0.366718 -0.332244 
415 3.39604 3.43407 0.0890922 1.15433 0 0 0 0.404624 0.538804 -0.151418 
322 1.89507 1.81396 -0.137576 0.66346 0 0 0 -0.322287 -0.680431 -0.736596 
407 3.49973 1.68272 -0.386587 1.01346 0 0 0 0.577616 0.0301474 -0.502843 
408 2.0203 1.93863 -0.607175 0.832002 0 0 0 -0.0249591 -0.176073 -0.869685 
202 2.56613 1.60662 0.174909 0.644141 0 0 0 0.242817 -0.252889 -0.704199 
410 3.59068 2.9862 -0.00984969 1.11004 0 0 0 0.546408 0.338201 -0.221808 
411 1.93646 3.67858 -0.355088 1.08848 0 0 0 -0.0202915 0.76523 -0.418144 
289 2.40056 1.93837 0.244714 0.614261 0 0 0 0.514134 0.450155 -0.390144 
262 1.74618 2.1512 0.279802 0.555165 0 0 0 0.012761 0.577682 -0.810562 
12 2.05402 1.71887 0.758051 0.438052 0 0 0 1.01319 -0.0353125 -1.31537 
419 2.13205 2.72408 0.899577 0.661816 0 0 0 -0.34286 -0.253275 0.90738 
406 2.42478 3.61752 0.659938 0.970485 0 0 0 -0.0178906 0.633408 0.325803 
5 1.83386 1.60258 1.06899 0.350518 0 0 0 0.518301 -0.00483528 -0.43934 
282 2.10938 1.7138 0.725212 0.451013 0 0 0 1.02969 -0.00762337 -1.22513 
332 2.94218 1.87249 1.48281 0.65802 0 0 0 -1.34653 0.0500881 0.272359 
273 1.97812 2.02245 0.498353 0.505724 0 0 0 0.418235 0.715743 -0.889786 
465 1.55316 1.80293 1.02061 0.35275 0 0 0 0.423667 0.413194 0.116648 
473 2.46734 1.59649 0.666437 0.518459 0 0 0 0.967319 0.00929132 -0.462031 
431 2.32608 2.05446 0.519979 0.560176 0 0 0 0.724102 0.993831 0.163045 
14 1.55419 1.93328 0.828395 0.405063 0 0 0 0.0452453 0.830586 -0.972427 
292 1.85024 1.93215 0.623212 0.458608 0 0 0 0.520307 0.633282 -1.45581 
434 2.75644 2.12253 0.776651 0.640349 0 0 0 0.275983 0.828498 0.976961 
435 2.27549 2.78877 1.36395 0.724159 0 0 0 -1.28366 -1.59751 0.0353354 
449 1.78491 1.65285 1.04032 0.351592 0 0 0 0.620171 0.0966989 -0.444097 
397 2.83484 3.18348 0.751305 0.89463 0 0 0 -0.0118791 0.462725 0.500415 
503 1.69432 1.53292 1.28279 0.296975 0 0 0 0.0871236 0.668215 -1.17529 
439 2.23607 1.68881 0.721624 0.470069 0 0 0 0.997513 -0.149413 -1.0118 
440 3.40613 2.58475 1.18372 0.890001 0 0 0 0.0148249 0.225987 0.341528 
321 3.75634 1.95026 1.30416 0.908664 0 0 0 0.522755 0.204476 0.235077 
442 2.01407 1.55506 0.987745 0.389566 0 0 0 0.846791 -0.376375 -0.680733 
280 3.36552 1.9208 0.844515 0.776134 0 0 0 0.563181 0.495328 0.460951 
409 2.06939 2.09252 1.00964 0.4871 0 0 0 -3.00215 -4.83812 -2.50878 
132 1.60203 2.67403 1.23181 0.597764 0 0 0 -0.896683 -2.87796 -0.340736 
412 3.37692 2.95078 0.915981 0.958066 0 0 0 0.185458 0.354267 0.329063 
467 2.39565 1.7078 0.607566 0.518874 0 0 0 0.91172 0.184921 -0.45413 
475 1.63585 1.75674 1.01821 0.35108 0 0 0 0.572038 0.32004 -0.170016 
297 1.88583 2.11884 0.468273 0.516633 0 0 0 0.269629 0.900483 -0.810991 
258 1.88163 2.07849 0.490092 0.5058 0 0 0 0.292733 0.819146 -0.959359 
21 1.95024 1.79309 0.737001 0.433782 0 0 0 0.835018 0.192461 -1.45178 
155 1.57049 2.57305 1.03081 0.556283 0 0 0 -0.930671 -1.97376 -0.34618 
152 1.64318 3.26844 0.896392 0.775454 0 0 0 0.145055 0.32025 0.577039 
330 3.25835 2.11222 1.26291 0.765142 0 0 0 -0.227371 0.346556 0.517383 
50 2.10971 2.01879 0.4613 0.52891 0 0 0 0.523347 0.760784 -0.524165 
11 1.82699 1.65768 0.998593 0.364155 0 0 0 0.726135 0.056116 -0.479193 
221 3.06292 2.07823 0.893002 0.704357 0 0 0 0.191749 0.675898 0.805536 
74 3.04859 1.89687 0.613136 0.697118 0 0 0 0.733957 0.698623 0.481364 
446 2.36993 1.57697 0.416044 0.55107 0 0 0 0.338412 -0.381201 -0.77763 
395 2.2081 3.17315 0.332804 0.823202 0 0 0 0.0906822 0.789287 0.380104 
259 2.6154 1.55377 0.447527 0.589885 0 0 0 0.615119 -0.134953 -0.484158 
421 3.45212 3.42162 0.54613 1.11866 0 0 0 0.356773 0.514225 0.0955127 
454 1.56662 1.58654 1.3165 0.280869 0 0 0 0.559485 0.530517 -1.02804 
46 1.85723 1.59487 1.06019 0.354939 0 0 0 0.539179 -0.0521632 -0.419159 
342 1.94864 1.51663 1.09143 0.362943 0 0 0 0.365634 -0.248084 -0.311615 
468 1.84502 1.61503 1.04262 0.356899 0 0 0 0.605145 -0.0199478 -0.435477 
3 1.71464 1.71188 1.01634 0.352865 0 0 0 0.641975 0.223083 -0.361575 
305 1.96778 2.68475 0.388912 0.661756 0 0 0 0.243357 1.21752 0.50752 
197 2.25482 2.31209 0.348899 0.621999 0 0 0 0.537152 1.21492 0.278911 
405 2.37908 2.7423 0.381569 0.727043 0 0 0 0.265666 0.922393 0.602297 
401 2.75364 3.61332 0.332401 1.03903 0 0 0 0.11553 0.715405 0.107311 
13 1.5531 1.67704 1.20138 0.307973 0 0 0 0.785733 0.491858 -0.794253 
387 2.43192 1.68889 2.17912 0.610131 0 0 0 -3.33233 -1.77704 -2.95727 
482 2.51489 2.75822 2.04881 0.826889 0 0 0 -1.5677 -1.33387 -0.988762 
463 2.97197 2.60117 1.62743 0.818334 0 0 0 -1.07674 -0.446853 -0.08606 
394 2.64219 1.6578 2.44454 0.691173 0 0 0 -1.51699 -0.0733996 -1.27241 
319 3.26548 1.82336 1.59356 0.744788 0 0 0 -0.412076 0.388324 0.342383 
500 3.11264 2.32838 2.11934 0.848985 0 0 0 -0.956517 -0.383039 -0.424586 
487 2.72997 2.14153 2.33657 0.768568 0 0 0 -1.73818 -0.883114 -1.23834 
502 2.94168 3.12339 2.45848 1.05467 0 0 0 -0.570311 -0.288451 -0.388162 
499 3.04774 2.90836 2.592 1.0427 0 0 0 -0.532273 -0.292085 -0.37033 
429 3.27854 2.24372 1.5145 0.807219 0 0 0 -0.495893 0.0821247 0.239964 
504 1.8396 1.98455 2.30366 0.597581 0 0 0 -3.80677 -5.33954 -5.6756 
383 3.18367 1.5004 2.61693 0.827666 0 0 0 -0.0343692 0.389495 0.0164121 
99 1.58531 1.59036 3.49473 0.813436 0 0 0 0.14999 0.61933 0.28384 
382 2.94579 1.66321 3.32611 0.956234 0 0 0 0.0216907 0.231194 0.173937 
374 2.17945 1.70018 3.15937 0.782233 0 0 0 -0.408964 0.359898 -0.575178 
367 2.15103 1.73257 3.16272 0.783981 0 0 0 -0.427388 0.315466 -0.617708 
512 1.68195 3.18105 2.91329 0.986988 0 0 0 -0.181804 -0.379622 -0.491419 
498 3.03601 3.15207 3.07829 1.20085 0 0 0 -0.264331 -0.140559 -0.154734 
508 2.36177 2.26392 2.93278 0.848657 0 0 0 -1.00138 -0.572092 -1.04111 
488 2.76679 3.03525 3.02365 1.10813 0 0 0 -0.447046 -0.241947 -0.294055 
100 1.61345 1.74365 3.65537 0.88614 0 0 0 0.08675 0.432649 0.364273 
245 1.53524 1.87342 3.55191 0.862725 0 0 0 0.113813 0.405941 0.174803 
ITEM: TIMESTEP
740909
ITEM: NUMBER OF ATOMS
512
ITEM: BOX BOUNDS ss ss ss
-8.1988304040437454e-01 3.8875120101141034e+00
-9.7693552394909078e-01 3.9476017366228966e+00
-9.1281994132074906e-01 3.9096273972560476e+00
ITEM: ATOMS id x y z width_SPH x_COM y_COM z_COM vx vy vz 
263 1.46291 0.88658 -0.255342 0.797053 0 0 0 -0.184401 0.0652878 0.617638 
403 1.47177 1.28214 -0.572763 0.836226 0 0 0 -0.296157 -0.417886 -0.281624 
25 0.482321 0.121027 0.00276973 1.02263 0 0 0 0.43103 0.529146 0.56993 
279 1.31897 1.03444 -0.485 0.850873 0 0 0 -0.189065 -0.165791 0.10687 
402 1.48864 1.3275 -0.648023 0.856459 0 0 0 -0.281505 -0.409922 -0.421837 
16 0.283964 0.665578 0.148012 0.902206 0 0 0 0.586546 0.592037 0.780353 
8 0.548842 0.851559 0.11651 0.825732 0 0 0 0.734435 0.682651 1.15147 
131 1.20618 1.40825 0.665998 0.517625 0 0 0 4.80053 6.68404 7.3837 
217 -0.458205 1.32447 1.07566 0.827557 0 0 0 -0.140251 -0.412282 -0.139906 
2 -0.191096 0.578914 0.378222 0.976756 0 0 0 0.269435 0.355319 0.381139 
24 0.947299 0.538049 0.655886 0.732042 0 0 0 1.6899 2.78513 2.58755 
129 -0.0272435 1.21936 0.471863 0.809152 0 0 0 0.464913 -0.111328 0.504349 
224 -0.038183 1.2323 1.09789 0.718728 0 0 0 1.00085 -0.0777605 0.267206 
78 0.717468 0.416258 1.44599 0.684314 0 0 0 2.08593 2.9473 0.725782 
67 0.0566736 0.1707 1.35969 0.867435 0 0 0 0.646827 0.692229 0.00583882 
22 1.1096 0.782233 0.47651 0.689898 0 0 0 1.54603 2.71431 3.1975 
125 0.0919168 1.14992 0.334142 0.817638 0 0 0 0.528983 0.0431979 0.639721 
10 0.362724 0.340199 0.337047 0.920794 0 0 0 0.743207 0.865775 0.897104 
68 -0.629254 1.10997 1.49534 0.872298 0 0 0 -0.401513 -0.268311 -0.303196 
116 -0.467657 -0.224833 2.43602 1.06883 0 0 0 -0.51046 -0.41394 -0.0581859 
39 1.33122 1.26246 1.96203 0.349426 0 0 0 -0.248366 -0.393168 0.561801 
57 -0.136591 -0.184234 1.60661 0.978297 0 0 0 0.0862864 0.0850693 -0.196882 
111 1.47856 0.661572 1.94946 0.479321 0 0 0 3.06046 4.58014 2.6106 
59 0.836242 1.31492 2.27396 0.459126 0 0 0 -1.05538 -0.0553338 0.985127 
183 0.484321 1.33661 2.61271 0.586942 0 0 0 -0.67546 -0.0649917 0.479692 
80 1.06798 1.32418 2.08947 0.394887 0 0 0 -0.907467 0.0277377 0.821345 
103 -0.666444 -0.192846 2.21681 1.11079 0 0 0 -0.541734 -0.319406 -0.0821395 
63 -0.481044 0.335769 1.67077 0.939105 0 0 0 -0.201788 0.0269416 -0.274248 
64 0.692258 1.25097 1.95538 0.468149 0 0 0 1.81285 3.5218 2.44696 
65 1.41229 1.12563 2.09166 0.38475 0 0 0 0.113575 -1.07869 0.468895 
66 0.536318 -0.153303 1.5622 0.84528 0 0 0 0.649422 0.683614 -0.164181 
27 1.41507 1.3286 1.80371 0.309625 0 0 0 -0.411738 -0.394119 1.39342 
343 1.489 1.48456 1.52633 0.252367 0 0 0 0.06204 0.0890227 -0.023728 
69 0.578517 1.29327 2.42892 0.533071 0 0 0 -0.970062 -0.283472 0.404217 
82 0.155989 0.760112 1.618 0.699977 0 0 0 1.16222 0.799965 -0.325302 
71 0.319319 -0.026866 1.59758 0.843496 0 0 0 0.618203 0.613291 -0.223036 
509 1.47935 1.4766 1.54574 0.254225 0 0 0 0.182466 0.0866389 -0.11828 
226 0.739728 1.28996 2.43123 0.504117 0 0 0 -0.86036 -0.174968 0.698006 
511 1.41956 1.17053 2.0196 0.366042 0 0 0 0.0941345 -0.909087 0.297098 
118 0.968941 0.1671 2.50852 0.690235 0 0 0 -0.380089 -0.897091 -0.66939 
26 1.04233 1.47276 1.9123 0.366373 0 0 0 -0.425909 0.305128 0.347964 
77 0.568465 0.47434 2.28659 0.658593 0 0 0 -0.193286 -0.48751 -0.883496 
92 0.62797 -0.70737 2.33072 0.983499 0 0 0 -0.0562683 -0.633957 -0.231831 
107 0.249774 0.442638 2.19695 0.724249 0 0 0 -0.0884912 -0.275273 -0.803406 
122 1.04947 0.384903 2.37967 0.613126 0 0 0 -0.28698 -0.858496 -0.73632 
94 1.18309 0.612671 2.42577 0.545582 0 0 0 -0.172956 -1.0125 -0.0157297 
247 0.95267 1.10214 2.48173 0.497485 0 0 0 -0.611985 -0.522933 0.847399 
73 1.44161 0.794436 2.54928 0.516404 0 0 0 0.0604406 -0.778609 0.685173 
87 0.756022 0.283344 2.07374 0.669736 0 0 0 0.352321 0.328716 -0.886049 
84 -0.6671 1.05545 2.40897 0.902826 0 0 0 -0.847672 -0.26715 -0.18099 
507 1.18215 1.1312 2.24889 0.425768 0 0 0 -0.485933 -0.575627 1.24132 
169 1.39493 0.991803 2.28372 0.436525 0 0 0 0.175058 -1.07742 1.11094 
85 0.770572 -0.606563 1.99598 0.927262 0 0 0 0.0904864 -0.34142 -0.356415 
371 1.36018 0.868793 2.51444 0.500146 0 0 0 -0.0253249 -0.821015 0.806205 
448 0.609025 1.28907 1.89855 0.483829 0 0 0 1.71749 3.16732 1.99168 
328 0.993105 0.774305 2.21876 0.511074 0 0 0 0.604134 0.591868 0.631532 
112 0.973459 1.266 2.22439 0.433458 0 0 0 -0.947518 -0.053606 1.19694 
40 0.542475 1.29074 2.42961 0.540918 0 0 0 -0.994538 -0.331595 0.322547 
496 1.48485 1.48105 1.5348 0.253068 0 0 0 0.11967 0.0926952 -0.0759657 
42 1.22246 1.29781 2.00115 0.36285 0 0 0 -0.557332 -0.189014 0.501057 
237 1.11561 1.25582 2.14124 0.40222 0 0 0 -0.810587 -0.184015 0.983583 
494 1.38749 1.19011 2.01749 0.364347 0 0 0 -0.0150983 -0.801582 0.357193 
181 0.316506 1.14153 2.56082 0.627435 0 0 0 -0.957857 -0.732052 -0.0854784 
81 -0.121094 -0.621641 2.09638 1.08733 0 0 0 -0.197003 -0.422684 -0.131279 
83 1.18469 -0.50668 2.52988 0.870694 0 0 0 -0.142372 -0.821278 -0.309909 
232 0.99801 1.0124 2.54916 0.515983 0 0 0 -0.467549 -0.616718 0.771134 
93 -0.508149 0.844911 2.0297 0.851662 0 0 0 -0.540537 -0.298774 -0.444179 
61 1.51203 0.359921 1.94817 0.566535 0 0 0 0.589506 1.39729 -0.113217 
349 1.50386 -0.381651 1.57127 0.808644 0 0 0 -0.129206 0.234029 -0.291413 
253 1.16406 1.08586 2.3957 0.460848 0 0 0 -0.611601 -0.907107 0.93762 
193 -0.727525 1.42164 1.5528 0.877434 0 0 0 -0.696356 -0.372889 -0.303496 
506 1.46209 1.27675 1.83871 0.320016 0 0 0 -0.2216 -0.637804 0.942431 
44 -0.248202 1.37176 1.89732 0.712932 0 0 0 -0.599147 -0.717585 -0.652016 
32 1.23784 1.37168 1.88978 0.336998 0 0 0 -0.418178 -0.0104918 0.780229 
493 1.20601 1.42553 1.84333 0.331296 0 0 0 -0.251722 0.0106731 0.833538 
9 1.40198 1.32545 1.82112 0.313665 0 0 0 -0.524605 -0.595557 1.18535 
218 1.31593 1.40023 1.78917 0.30964 0 0 0 -0.538564 -0.471016 1.28601 
200 -0.243766 1.45154 1.90837 0.706229 0 0 0 -0.689992 -0.735856 -0.614238 
486 1.31685 1.26322 1.98199 0.354055 0 0 0 0.425536 0.779436 1.35078 
98 0.192044 0.505971 2.67418 0.762681 0 0 0 -0.5478 -0.679276 -0.319395 
113 1.36474 -0.767751 2.84603 0.993317 0 0 0 -0.0519114 -0.877639 0.0551771 
114 -0.662814 0.667394 3.0988 1.04669 0 0 0 -0.73034 -0.208071 0.292162 
108 0.827866 -0.375043 3.19939 0.967028 0 0 0 -0.179655 -0.68332 0.269366 
163 0.568722 0.925254 2.79803 0.645966 0 0 0 -0.629002 -0.714716 0.303397 
60 0.824458 1.36372 3.15257 0.691632 0 0 0 0.333303 0.629411 0.835942 
117 0.983524 0.117898 3.7019 0.978818 0 0 0 -0.129096 -0.308783 0.718556 
51 0.407867 1.42257 2.78812 0.64207 0 0 0 -0.346615 0.249815 0.656779 
88 1.42973 0.53892 3.6292 0.869876 0 0 0 0.00638673 0.0152734 0.894949 
109 -0.521005 -0.195163 3.25587 1.19582 0 0 0 -0.575242 -0.43826 0.393265 
90 -0.81959 0.596006 2.78624 1.05283 0 0 0 -0.79872 -0.216511 0.11203 
91 0.794654 1.1685 3.90934 0.962241 0 0 0 -0.00640092 0.133374 0.951551 
227 1.33614 1.35544 2.76354 0.562286 0 0 0 -0.0936607 0.239751 -0.637907 
438 0.692843 1.45414 3.02107 0.665648 0 0 0 0.310286 0.681399 0.831897 
119 0.719814 0.0526606 3.43824 0.932509 0 0 0 -0.230062 -0.438123 0.511976 
430 1.20337 0.667934 2.80486 0.606693 0 0 0 -0.284867 -0.688801 0.484982 
96 1.21336 -0.443183 3.49593 1.03711 0 0 0 -0.0580907 -0.627555 0.498011 
121 -0.478878 0.852547 3.15732 0.98183 0 0 0 -0.686128 -0.196808 0.337563 
110 0.000529887 -0.178565 2.91004 0.989031 0 0 0 -0.415651 -0.545738 0.095089 
120 -0.757143 1.33216 2.86286 0.982956 0 0 0 -0.855549 -0.0638507 0.192642 
104 0.10118 -0.598302 3.21263 1.14763 0 0 0 -0.345983 -0.642431 0.341687 
101 0.537347 0.50348 3.11842 0.786337 0 0 0 -0.405485 -0.525514 0.336954 
238 1.23272 1.23412 2.83499 0.574662 0 0 0 0.182203 0.586726 0.304321 
123 -0.316981 2.86792 -0.691699 1.18976 0 0 0 -0.540354 0.329793 -0.659829 
159 0.397832 3.05213 -0.62538 1.0548 0 0 0 -0.285732 0.503084 -0.69079 
142 1.18785 3.80508 -0.0596151 1.0579 0 0 0 -0.106361 0.892017 -0.316705 
126 -0.541268 3.21741 0.184412 1.10843 0 0 0 -0.644988 0.551743 -0.319701 
127 0.805512 2.06304 -0.832078 0.949851 0 0 0 -0.270569 -0.262301 -0.886207 
158 0.896478 2.14782 -0.502453 0.82535 0 0 0 -0.343761 -0.410895 -0.874087 
143 -0.16242 2.51389 -0.788982 1.13561 0 0 0 -0.507489 0.116802 -0.735197 
149 1.11663 2.1868 -0.912528 0.958566 0 0 0 -0.152839 -0.115957 -0.939899 
151 1.36321 3.3662 0.288897 0.844521 0 0 0 0.0302155 0.959224 0.0450184 
274 1.33477 2.01645 -0.0268013 0.636669 0 0 0 -0.366981 -0.743708 -0.663901 
157 0.0134444 1.643 0.128942 0.821068 0 0 0 -0.211156 -0.666847 -0.103413 
156 -0.609022 1.93331 -0.650121 1.19061 0 0 0 -0.599167 -0.0660176 -0.549869 
130 0.986177 2.15088 0.267697 0.593012 0 0 0 -0.524982 -0.340107 -0.635067 
148 0.698616 1.49459 -0.232561 0.79159 0 0 0 -0.0750599 -0.610821 0.0773967 
137 -0.708154 2.86987 0.246402 1.07807 0 0 0 -0.787236 0.323152 -0.310885 
138 0.424979 2.62752 -0.593773 0.963029 0 0 0 -0.356612 0.182126 -0.803857 
141 0.160034 1.99701 -0.415252 0.914395 0 0 0 -0.476581 -0.434296 -0.672669 
140 0.862151 2.60215 -0.809077 0.979755 0 0 0 -0.19228 0.19698 -0.875629 
443 1.31898 2.08521 0.116083 0.599074 0 0 0 -0.363284 -0.42816 -0.737862 
444 1.48154 2.23981 0.0627902 0.620899 0 0 0 -0.259582 0.134158 -0.787087 
136 1.03226 1.8917 0.221509 0.597169 0 0 0 -0.149038 -0.793353 0.0686741 
268 1.46276 2.00808 0.113339 0.589758 0 0 0 -0.280079 -0.513145 -0.711837 
146 0.824178 2.05114 0.253745 0.615591 0 0 0 -0.451234 -0.790395 -0.379431 
180 0.816326 2.50705 0.789625 0.56531 0 0 0 -0.422074 1.23142 -0.299283 
190 0.821828 3.2916 1.17401 0.773672 0 0 0 0.338227 0.751394 0.367133 
178 -0.546729 3.08541 1.13917 0.974057 0 0 0 -0.646036 0.581694 -0.0204881 
220 0.899089 2.23259 1.45458 0.460912 0 0 0 -1.92838 -2.57337 -1.96295 
189 1.01702 2.26103 0.814601 0.487548 0 0 0 -0.947723 1.11266 -0.606414 
165 1.0488 2.30437 0.745472 0.502531 0 0 0 -0.824704 1.1566 -0.661848 
128 1.38576 3.34334 1.2518 0.793523 0 0 0 0.238325 -0.0104508 0.379251 
185 0.700685 3.36967 1.30718 0.807795 0 0 0 0.306442 0.749874 0.317373 
168 0.779368 2.05424 1.00595 0.471616 0 0 0 -0.205882 1.53654 0.706529 
186 -0.767691 1.72337 0.481584 0.983527 0 0 0 -0.74067 -0.285032 -0.211638 
170 0.556747 2.28227 0.547185 0.609204 0 0 0 -0.639483 -0.127164 -0.555098 
171 0.284592 3.56152 0.915819 0.929533 0 0 0 -0.12411 0.922014 0.0251771 
175 -0.673984 2.64647 1.34235 0.922312 0 0 0 -0.838175 0.285624 -0.0589415 
124 0.946522 2.13444 1.03011 0.448057 0 0 0 -1.03384 1.02044 -0.156163 
187 -0.341968 2.06188 0.381161 0.853129 0 0 0 -0.732675 -0.50204 -0.361232 
134 1.44029 2.99974 0.715256 0.686524 0 0 0 0.237596 0.77227 0.575618 
198 1.10454 2.48528 1.32489 0.519699 0 0 0 -1.07304 -2.52531 -1.23742 
426 1.5256 1.8097 1.03414 0.350827 0 0 0 0.374533 0.399546 0.236705 
147 1.22189 1.9207 1.15986 0.365564 0 0 0 -0.681767 -0.612646 0.427698 
133 1.04449 2.31189 0.324248 0.5881 0 0 0 -0.518678 0.365614 -0.734306 
188 0.398835 2.22613 0.467434 0.65219 0 0 0 -0.608953 -0.528028 -0.525452 
20 1.4012 1.64926 1.36986 0.284344 0 0 0 1.58826 -0.491149 -0.210149 
216 -0.0737748 2.3515 1.33666 0.682755 0 0 0 -0.67689 0.163001 -0.232996 
206 -0.717432 1.91108 1.19379 0.879569 0 0 0 -0.880947 -0.367045 -0.250328 
154 -0.280085 3.2078 0.526567 0.978397 0 0 0 -0.53321 0.672514 -0.188912 
144 1.30247 2.01087 0.912943 0.407615 0 0 0 -0.67297 1.05408 -0.238549 
423 1.18173 2.03443 0.97732 0.411238 0 0 0 -0.85154 1.06103 0.0833727 
135 -0.22625 3.12139 0.410253 0.958208 0 0 0 -0.53568 0.632119 -0.24714 
192 0.529698 2.18855 0.465839 0.623393 0 0 0 -0.590038 -0.5416 -0.501839 
194 0.171583 2.21543 0.651672 0.670489 0 0 0 -0.636148 -0.568273 -0.480126 
196 0.990077 2.89059 1.10309 0.6406 0 0 0 0.388182 0.633298 0.41903 
203 0.532329 2.55461 0.541054 0.655192 0 0 0 -0.46113 0.623912 -0.448616 
150 1.41056 1.88551 0.988731 0.370978 0 0 0 2.87592 5.46877 3.79475 
214 -0.0711016 1.80497 0.791841 0.711167 0 0 0 -0.190322 -1.00773 -0.172948 
425 1.42104 1.95118 0.905407 0.394388 0 0 0 -0.268515 0.944223 -0.302418 
48 0.228428 2.29404 0.623425 0.667389 0 0 0 -0.652888 -0.340596 -0.509611 
162 1.52738 1.51565 1.44982 0.254791 0 0 0 -0.400389 0.113622 0.320329 
177 0.870218 1.99606 1.31465 0.416624 0 0 0 -0.428244 0.917044 0.359045 
139 0.901011 3.94731 0.7486 1.02061 0 0 0 -0.0239496 0.908771 -0.0296525 
461 1.38948 1.75363 1.23162 0.316837 0 0 0 0.788921 0.0388437 0.353781 
210 0.261616 2.17599 0.847568 0.615998 0 0 0 -0.594669 -0.510664 -0.434905 
480 1.02344 2.02373 1.13292 0.409867 0 0 0 -0.664272 0.947463 0.473156 
28 1.05076 1.83854 1.404 0.360318 0 0 0 0.745261 0.122652 0.746498 
489 0.558858 2.27472 1.21428 0.519891 0 0 0 -0.640141 0.853609 -0.177991 
4 1.22244 1.72085 1.42292 0.315215 0 0 0 1.31362 -0.333607 0.539301 
19 1.14084 2.47426 0.428797 0.585357 0 0 0 -0.345463 1.10186 -0.529111 
336 0.479589 2.37428 1.18931 0.555284 0 0 0 -0.452009 0.940825 -0.147876 
469 1.0405 2.01731 1.12835 0.406966 0 0 0 -0.641823 0.936078 0.52026 
308 0.417197 2.38388 1.20765 0.568906 0 0 0 -0.42207 0.883015 -0.144399 
15 1.22459 1.8628 1.21612 0.350381 0 0 0 0.329907 0.10953 1.24245 
424 1.33272 2.62683 0.397189 0.618366 0 0 0 -0.0725495 1.29743 -0.162134 
7 1.3725 2.12814 0.709274 0.457157 0 0 0 -0.584533 1.11292 -1.16713 
174 1.2968 1.80757 1.23498 0.33218 0 0 0 0.573509 -0.124909 0.946775 
6 1.09485 1.81937 1.39358 0.350538 0 0 0 0.885915 -0.0217547 0.820604 
458 0.509357 2.15863 1.40969 0.503688 0 0 0 -0.692772 0.732869 -0.0556167 
433 1.53014 1.83936 0.985042 0.363363 0 0 0 0.317894 0.587868 0.0928436 
437 1.46749 2.04176 0.748709 0.434919 0 0 0 -0.336991 1.01703 -1.23248 
153 1.27972 1.81894 1.23333 0.335818 0 0 0 0.531883 -0.101125 1.03884 
286 1.4825 2.02988 0.753382 0.432208 0 0 0 -0.289573 0.996465 -1.23881 
195 0.960329 1.93964 1.32812 0.392722 0 0 0 -0.00431514 0.669685 0.653989 
399 1.51635 1.93623 0.866647 0.39793 0 0 0 -0.429923 0.218993 -1.13937 
354 0.503418 2.10105 1.49637 0.495891 0 0 0 -0.741062 0.714514 0.0203444 
372 1.50625 1.49957 1.49052 0.251512 0 0 0 -0.213094 0.0451103 0.264252 
164 0.232474 1.81997 1.47903 0.555411 0 0 0 -0.187158 -0.251027 -0.150815 
17 1.50459 1.49817 1.49392 0.25144 0 0 0 -0.188177 0.0475365 0.240365 
52 0.953885 1.86576 1.44846 0.38025 0 0 0 0.395408 0.462938 0.490569 
145 0.944092 3.68322 0.31978 0.962026 0 0 0 -0.0697396 0.942568 -0.136535 
256 0.558353 2.11604 1.73864 0.496381 0 0 0 -0.760203 0.51971 0.0905551 
495 1.04309 1.64388 1.68229 0.346148 0 0 0 0.726265 0.28425 0.134173 
248 0.868786 1.5629 1.93385 0.401681 0 0 0 -0.734213 0.724754 0.574578 
43 0.148921 2.31439 1.81883 0.623841 0 0 0 -0.186929 0.90659 0.491346 
76 0.906803 1.57911 1.88405 0.389079 0 0 0 -0.518177 0.646493 0.347118 
450 0.854481 1.64817 1.83468 0.397155 0 0 0 -0.471605 0.832904 0.328216 
166 1.19151 3.39112 1.71318 0.833435 0 0 0 0.311558 -0.187268 0.0847955 
70 0.975127 2.32046 2.30292 0.60876 0 0 0 0.374751 -1.55696 -1.46657 
199 -0.16399 2.48213 2.51655 0.815893 0 0 0 -0.221977 0.751754 0.499415 
223 -0.313709 3.51998 2.20263 1.0656 0 0 0 -0.343006 0.730764 0.185289 
201 -0.0322997 3.01379 1.68138 0.815638 0 0 0 -0.0812876 0.978495 0.267413 
243 0.900445 2.03173 2.39423 0.562183 0 0 0 0.102933 -1.1185 -1.35641 
191 0.402002 2.14627 2.61254 0.667708 0 0 0 0.537576 1.16209 0.686811 
204 0.494255 3.83159 2.13436 1.03917 0 0 0 0.0831325 0.663335 0.133742 
49 0.76942 1.87246 1.59107 0.41737 0 0 0 -0.388058 1.00499 0.294927 
160 0.914953 1.82327 1.54462 0.382719 0 0 0 0.276204 0.470555 0.187856 
207 0.786904 2.75747 2.50756 0.754782 0 0 0 0.726067 0.142252 -0.116924 
208 1.03099 2.39114 1.63947 0.518107 0 0 0 -1.29645 -4.15677 -2.322 
209 0.52946 2.20089 1.58261 0.507845 0 0 0 -0.5832 0.778391 0.0883399 
447 0.197364 2.26424 2.14672 0.639119 0 0 0 0.0857859 1.11293 0.77727 
211 0.711171 3.69218 1.79547 0.943618 0 0 0 0.228617 0.56147 0.152188 
212 0.655028 3.2858 1.83326 0.812309 0 0 0 0.469025 0.508437 0.273223 
213 0.067819 3.47689 2.25792 0.980738 0 0 0 -0.0321021 0.748332 0.229372 
490 1.46127 1.49805 1.53103 0.253855 0 0 0 1.29265 -0.711501 0.128707 
215 0.794993 3.88391 2.27497 1.06152 0 0 0 0.148998 0.50278 0.0716815 
184 1.5004 1.49456 1.50257 0.251402 0 0 0 -0.121606 0.0573865 0.171742 
55 0.266692 2.26505 1.5319 0.574507 0 0 0 -0.404439 0.671157 0.0856346 
505 0.361122 1.60465 2.26191 0.54876 0 0 0 -0.983755 0.180607 0.29487 
255 1.2108 2.61049 2.17652 0.668966 0 0 0 0.0490027 -2.31917 -1.57544 
479 0.0168458 2.36861 2.04038 0.686485 0 0 0 -0.170014 0.920338 0.583068 
173 -0.124525 1.91621 1.83532 0.659827 0 0 0 -0.837774 -0.402891 -0.215155 
318 0.349879 1.78872 2.07953 0.53486 0 0 0 -0.89908 0.413725 0.360452 
54 0.430625 1.94053 1.8001 0.502878 0 0 0 -0.875989 0.602263 0.284623 
34 0.259995 2.18276 1.85537 0.577329 0 0 0 -0.275857 0.845148 0.514598 
172 0.16597 2.12749 1.58858 0.582571 0 0 0 -0.604329 0.131453 -0.0734977 
229 1.0813 2.33349 2.5338 0.66171 0 0 0 0.497538 -1.05237 -1.40598 
234 1.04409 1.64646 1.67795 0.345828 0 0 0 0.744719 0.277144 0.13572 
252 1.1575 1.61768 1.62227 0.318149 0 0 0 1.06404 -0.250296 0.524553 
235 1.04832 1.62 1.71022 0.345715 0 0 0 0.625874 0.289091 0.162262 
29 0.843075 1.72178 1.74556 0.396693 0 0 0 -0.258922 0.877929 0.216107 
513 0.660702 1.56778 2.09004 0.460311 0 0 0 -1.20295 0.513731 0.74285 
241 1.06009 1.60521 1.72045 0.343451 0 0 0 0.600505 0.255472 0.207019 
38 0.320522 1.7588 2.2745 0.566247 0 0 0 -0.693113 0.51156 0.471369 
35 0.252088 1.76159 2.40264 0.603924 0 0 0 -0.543949 0.556801 0.510698 
30 0.500217 1.66022 2.12088 0.499529 0 0 0 -1.10771 0.440832 0.496615 
239 -0.586848 2.64441 2.57886 0.974137 0 0 0 -0.577182 0.458324 0.298062 
233 0.904612 1.60662 1.8497 0.386759 0 0 0 -0.399416 0.669488 0.256657 
75 0.82957 1.66228 1.83747 0.403137 0 0 0 -0.564243 0.867631 0.365812 
219 1.50021 1.49439 1.50297 0.251406 0 0 0 -0.118427 0.0579444 0.16834 
167 1.5004 1.49455 1.50259 0.251402 0 0 0 -0.121468 0.0574106 0.171594 
466 1.5002 1.49437 1.503 0.251406 0 0 0 -0.118199 0.0579848 0.168095 
471 1.50021 1.49439 1.50297 0.251406 0 0 0 -0.118471 0.0579367 0.168387 
36 1.50029 1.49445 1.50282 0.251404 0 0 0 -0.119646 0.0577301 0.169645 
278 1.50195 1.4959 1.49935 0.251391 0 0 0 -0.146755 0.0532134 0.198311 
37 1.50089 1.49497 1.50157 0.251396 0 0 0 -0.129521 0.056092 0.180079 
58 1.50159 1.49559 1.5001 0.251391 0 0 0 -0.14101 0.0542198 0.192169 
47 1.07811 1.75571 1.49969 0.343428 0 0 0 1.02034 -0.136298 0.347791 
477 1.50167 1.49566 1.49993 0.251391 0 0 0 -0.14223 0.0539305 0.193578 
355 1.50134 1.49537 1.50062 0.251392 0 0 0 -0.13684 0.0548052 0.187912 
334 1.50104 1.49511 1.50125 0.251394 0 0 0 -0.131937 0.055619 0.182731 
476 1.50097 1.49505 1.50139 0.251395 0 0 0 -0.130864 0.0557992 0.181595 
179 1.50089 1.49498 1.50157 0.251396 0 0 0 -0.129457 0.0560369 0.180102 
222 1.50059 1.49472 1.50218 0.251399 0 0 0 -0.124618 0.0568641 0.174956 
302 1.50066 1.49478 1.50205 0.251398 0 0 0 -0.125705 0.0566769 0.176114 
176 1.50066 1.49478 1.50204 0.251398 0 0 0 -0.125765 0.0566665 0.176178 
225 0.922807 2.39725 3.41234 0.888287 0 0 0 0.373677 0.377006 0.311791 
106 0.302738 2.02714 3.35323 0.857239 0 0 0 0.12078 0.56972 0.780078 
249 -0.498558 2.47087 2.81671 0.959171 0 0 0 -0.536699 0.431532 0.394127 
228 -0.108656 3.23445 3.60257 1.22453 0 0 0 -0.281627 0.494534 0.57948 
254 -0.486117 2.76307 3.5122 1.1744 0 0 0 -0.471145 0.385429 0.584945 
230 0.506969 3.7114 2.9996 1.13779 0 0 0 0.026903 0.555007 0.264724 
231 0.569901 2.2762 3.57917 0.935086 0 0 0 0.214647 0.457913 0.686144 
242 0.544174 2.40527 3.25163 0.856901 0 0 0 0.388553 0.605932 0.516843 
246 -0.35655 2.01124 3.52011 1.04153 0 0 0 -0.460429 0.227393 0.669543 
464 0.277935 1.66566 2.73314 0.660815 0 0 0 -0.253228 0.600728 0.673406 
205 0.789503 1.62297 3.04756 0.674936 0 0 0 0.588784 0.9031 0.639753 
251 0.368725 3.45847 3.03809 1.07462 0 0 0 0.0473251 0.574825 0.331757 
105 -0.172732 1.52945 3.72936 1.04181 0 0 0 -0.383885 0.0755034 0.777717 
250 0.796413 3.13054 3.3993 1.05192 0 0 0 0.168005 0.346691 0.318551 
244 1.25516 2.37352 3.45388 0.901675 0 0 0 0.225143 0.194181 0.0630285 
240 -0.316576 3.69298 3.4091 1.33894 0 0 0 -0.398571 0.574288 0.443185 
257 3.62637 1.21803 -0.278447 1.02737 0 0 0 0.66229 -0.0959343 -0.447612 
441 1.86626 1.15928 0.0293873 0.661003 0 0 0 -0.675392 -0.369676 0.601541 
288 3.6737 0.857922 0.0530736 0.991891 0 0 0 0.71709 -0.235553 -0.334331 
260 3.1323 0.827985 -0.609111 1.0191 0 0 0 0.333841 -0.274312 -0.675073 
261 3.52398 -0.100123 0.154682 1.093 0 0 0 0.502731 -0.634772 -0.330556 
276 2.55308 0.7802 -0.320846 0.838314 0 0 0 -0.251421 -0.566759 -0.547736 
427 2.22869 1.08024 0.20878 0.632711 0 0 0 -0.822425 -0.713989 -0.101807 
285 1.77615 0.218844 -0.0315128 0.864556 0 0 0 -0.185616 0.145301 0.517837 
436 2.35116 1.42219 -0.0512653 0.678326 0 0 0 -0.406537 -0.673951 -0.734151 
266 2.66025 0.936352 -0.84342 1.00718 0 0 0 0.063574 -0.223769 -0.783957 
267 3.03037 0.608856 -0.0398065 0.86518 0 0 0 0.159059 -0.643753 -0.506131 
293 2.10191 1.07615 -0.870522 0.957153 0 0 0 -0.174108 -0.223623 -0.718733 
269 2.55512 0.9497 -0.70688 0.943088 0 0 0 -0.0495117 -0.28885 -0.743547 
270 2.46766 0.612226 -0.432208 0.891627 0 0 0 -0.223505 -0.523985 -0.496714 
271 3.23129 -0.579427 -0.176076 1.23192 0 0 0 0.360719 -0.692756 -0.376334 
272 1.6467 0.823012 0.128496 0.702439 0 0 0 -0.20571 0.701031 1.55321 
284 2.04211 0.324121 -0.432477 0.936209 0 0 0 -0.243783 -0.335185 -0.149028 
290 2.38962 -0.690834 -0.214171 1.17656 0 0 0 0.0652811 -0.547439 -0.230048 
291 3.16121 0.334526 -0.49272 1.06555 0 0 0 0.325713 -0.499013 -0.575624 
294 3.06872 0.327589 0.682213 0.794007 0 0 0 0.101738 -0.942257 -0.433145 
23 1.96012 1.40534 1.23483 0.34908 0 0 0 -0.599559 -0.217202 0.0857731 
453 2.93383 0.913308 1.3622 0.602812 0 0 0 0.732846 -0.100558 0.132452 
18 1.90808 1.36094 1.34067 0.333037 0 0 0 -1.25071 0.0130365 0.295384 
298 2.04666 1.34271 1.25147 0.36717 0 0 0 -0.540402 -0.421655 0.078193 
299 2.9192 0.965586 1.15319 0.600932 0 0 0 0.695805 -0.293992 -0.11914 
451 2.12579 1.28905 1.26587 0.385298 0 0 0 -0.254695 -0.637378 -0.0746612 
301 3.70182 0.535437 1.4268 0.900409 0 0 0 0.87914 -0.217164 0.0446025 
264 2.45149 0.855535 0.620129 0.59732 0 0 0 -0.523687 -0.843215 -0.416917 
445 2.28053 1.21986 1.24788 0.42347 0 0 0 0.555514 -0.751866 -0.307273 
304 2.19731 1.11983 1.14348 0.431071 0 0 0 2.27662 2.7872 2.3726 
41 2.8642 0.991065 0.872286 0.609243 0 0 0 0.493117 -0.669882 -0.497224 
306 1.9942 1.20525 1.4957 0.35872 0 0 0 -1.55159 -0.175284 0.0555517 
307 2.07213 1.04496 1.19275 0.425494 0 0 0 3.78024 7.11459 5.71612 
277 2.64746 1.39934 0.721809 0.548757 0 0 0 0.848658 -0.164888 -0.410677 
309 3.42367 0.409369 1.28612 0.825453 0 0 0 0.70541 -0.50759 -0.108069 
310 2.04762 -0.00926141 1.06794 0.725923 0 0 0 -0.566286 0.412274 0.0785072 
311 2.88347 1.04323 0.92548 0.602774 0 0 0 0.627634 -0.456698 -0.367867 
341 2.75568 1.06758 0.73326 0.594093 0 0 0 0.36332 -0.793557 -0.668188 
432 2.74185 1.44695 0.883124 0.554669 0 0 0 0.863035 0.249313 0.038867 
161 2.00056 1.43223 1.16426 0.363504 0 0 0 -0.0699708 -0.33865 -0.117093 
182 2.69528 1.32605 0.523283 0.596684 0 0 0 0.45973 -0.519079 -0.622897 
316 2.92723 -0.308181 0.756849 0.924409 0 0 0 0.0547597 -0.86602 -0.307162 
317 3.34937 0.0147979 0.768079 0.924395 0 0 0 0.394661 -0.767696 -0.28242 
275 3.40929 -0.820403 0.709984 1.195 0 0 0 0.430009 -0.788073 -0.184207 
33 2.6597 0.845098 1.48871 0.53787 0 0 0 0.731283 -0.584726 0.0577098 
320 1.86541 0.0375219 0.931896 0.734206 0 0 0 -0.348821 1.04575 0.599285 
72 2.19326 1.16819 1.39319 0.403132 0 0 0 -0.136033 -0.769871 -0.0247458 
265 1.93826 -0.369082 0.732909 0.882172 0 0 0 -0.204929 0.0533028 0.157725 
501 2.42645 1.15685 1.21413 0.460775 0 0 0 0.925143 -0.612847 -0.326052 
56 2.5703 0.702996 0.532529 0.656286 0 0 0 -0.587875 -1.04466 -0.472253 
325 2.33715 1.10413 1.34222 0.44066 0 0 0 0.761442 -0.601162 0.0305615 
287 2.41139 -0.366532 0.55564 0.915702 0 0 0 -0.19079 -0.554723 -0.138697 
327 3.3612 1.24899 1.48976 0.72928 0 0 0 0.60288 0.610937 0.465249 
329 1.95982 0.208859 1.14449 0.655288 0 0 0 -0.514463 1.3613 0.567938 
428 2.78132 0.813919 1.48194 0.571735 0 0 0 0.696744 -0.43456 0.0856759 
31 2.45657 0.720515 0.487636 0.649593 0 0 0 -0.729156 -0.862222 -0.283699 
283 1.78566 0.844242 0.90291 0.529952 0 0 0 2.21391 7.11597 5.72842 
326 2.4987 1.10644 1.22629 0.479725 0 0 0 0.917768 -0.587041 -0.275413 
470 3.20794 1.21786 1.38465 0.675377 0 0 0 0.604954 0.650658 0.479888 
313 2.78303 0.837264 1.4233 0.56937 0 0 0 0.688855 -0.469744 0.0305129 
457 1.88296 1.3176 1.42381 0.328057 0 0 0 -1.57501 0.173159 0.325313 
455 2.09928 1.46729 1.04026 0.396736 0 0 0 0.737339 -0.566984 -0.64478 
422 2.35313 1.29627 1.08161 0.446571 0 0 0 1.03424 -0.563843 -0.623581 
456 2.55983 0.341739 1.38463 0.628052 0 0 0 -0.349843 -1.08265 -0.530423 
474 1.85407 1.41999 1.30336 0.322766 0 0 0 -0.756386 0.168567 0.0089467 
300 3.62897 -0.222313 1.47508 1.02441 0 0 0 0.628928 -0.628302 -0.0936755 
478 2.35707 1.45326 0.867211 0.466212 0 0 0 1.20532 -0.344426 -0.812681 
340 1.70264 1.43604 1.41147 0.286352 0 0 0 -0.96888 0.606959 -0.388359 
281 1.70783 0.00683907 0.314209 0.851726 0 0 0 -0.0686864 0.525066 0.736436 
333 2.95213 0.625802 2.57619 0.753146 0 0 0 0.713182 0.39876 0.502307 
323 1.96024 1.06257 1.74773 0.38267 0 0 0 -0.574127 -0.518611 -0.531185 
335 2.66602 0.847271 2.44811 0.646092 0 0 0 0.592459 0.8327 0.53077 
491 1.78687 1.17972 1.7055 0.338069 0 0 0 -0.880271 0.101992 -0.515921 
337 2.05362 -0.945717 1.91696 0.993526 0 0 0 -0.0302139 -0.872243 -0.198422 
338 3.03182 0.240149 2.16305 0.772453 0 0 0 0.621384 -0.40048 0.185029 
339 1.79311 0.243014 1.69179 0.598 0 0 0 -0.162334 1.31184 -0.0847401 
370 1.65925 -0.976644 2.59511 1.0346 0 0 0 -0.00371681 -0.913976 -0.00498286 
452 2.42607 0.244136 1.74989 0.624612 0 0 0 -0.262872 -1.04639 -0.48903 
295 2.09994 0.574217 2.39618 0.55971 0 0 0 0.422664 -0.554887 0.449813 
296 2.19624 1.05237 1.56909 0.416345 0 0 0 0.0525355 -0.767516 0.0017428 
344 2.37282 0.960807 1.94511 0.493171 0 0 0 0.0946763 -0.747967 -0.194953 
345 3.40708 1.06476 2.12277 0.795707 0 0 0 0.617726 0.513873 0.408953 
346 2.01393 0.960278 1.86444 0.415938 0 0 0 0.21258 -0.860692 0.0020214 
364 1.68475 1.12266 1.87406 0.355485 0 0 0 0.0337513 -0.643073 -0.441216 
348 3.88722 1.46542 2.1892 0.984172 0 0 0 0.623117 0.145074 0.180692 
331 2.11756 0.995952 1.72374 0.415841 0 0 0 0.0795719 -0.764298 -0.0601071 
350 2.3602 -0.0945983 1.6119 0.719202 0 0 0 -0.476421 -0.847102 -0.611068 
351 1.77259 1.23309 1.64011 0.323702 0 0 0 -1.06184 0.264694 -0.192724 
352 2.46184 0.668521 2.26259 0.582331 0 0 0 0.676369 0.0572945 0.582564 
363 2.55574 -0.637615 2.03573 0.923296 0 0 0 0.0626236 -0.993188 -0.189396 
45 1.68419 1.14929 1.83489 0.346042 0 0 0 -0.0692443 -0.451817 -0.387602 
365 1.6938 0.222908 2.3901 0.619913 0 0 0 -0.246733 -1.20419 -0.522433 
356 3.26093 1.43479 2.49167 0.819985 0 0 0 0.0772268 0.4428 0.108642 
357 2.16287 1.08651 2.24833 0.502369 0 0 0 -1.19518 -1.26626 -1.34785 
358 2.14802 0.666398 2.60498 0.595297 0 0 0 0.560598 0.181438 0.638791 
359 3.56757 -0.600345 2.21029 1.1353 0 0 0 0.571197 -0.671616 0.0263327 
360 1.95003 0.1862 2.18312 0.617076 0 0 0 -0.299112 -1.06728 -0.548384 
361 2.06205 -0.717425 1.53364 0.916866 0 0 0 -0.165974 -0.667972 -0.28818 
362 2.41713 0.274357 1.96776 0.621369 0 0 0 -0.0196183 -1.05122 -0.266847 
460 1.97019 1.14592 1.60674 0.364136 0 0 0 -1.3318 -0.186434 -0.368077 
303 2.32215 1.05425 1.64056 0.44636 0 0 0 -0.243853 -1.64993 -0.782132 
393 1.97008 -0.328913 2.07153 0.770046 0 0 0 -0.341788 -0.895125 -0.523349 
324 2.45377 0.691632 1.9828 0.539927 0 0 0 0.658962 -0.447209 0.399867 
312 3.14154 1.31987 1.96637 0.699457 0 0 0 -0.035613 0.799504 0.326172 
375 1.7987 0.918469 2.0944 0.426673 0 0 0 0.572575 -1.16245 0.509461 
459 2.65914 0.457165 1.80806 0.612562 0 0 0 0.369616 -0.819322 -0.0486407 
62 1.74291 1.05769 1.9291 0.377705 0 0 0 0.10363 -0.931186 -0.414994 
380 2.33975 0.664182 2.34272 0.573091 0 0 0 0.614354 -0.00928382 0.60097 
485 1.68786 1.16813 1.80446 0.339539 0 0 0 -0.171961 -0.322552 -0.330738 
510 2.07899 0.979142 1.78211 0.415851 0 0 0 0.124276 -0.791873 -0.055455 
497 1.81804 0.609489 2.48231 0.542848 0 0 0 0.301685 -0.771573 0.409455 
347 1.77136 -0.881255 1.97401 0.962731 0 0 0 -0.0895688 -0.786552 -0.247521 
377 3.60723 1.30346 2.56839 0.933678 0 0 0 0.514258 0.27203 0.238898 
314 2.7149 0.746783 1.7233 0.570733 0 0 0 0.739719 -0.29276 0.267035 
388 1.7547 1.18522 1.72428 0.334977 0 0 0 -0.686841 0.0360043 -0.442246 
315 2.63579 0.314016 1.72366 0.638916 0 0 0 0.0537954 -1.04204 -0.326265 
472 2.09293 0.870496 1.94172 0.448091 0 0 0 0.491752 -0.96342 0.346304 
483 1.82858 0.756603 2.34806 0.493682 0 0 0 0.439451 -0.869994 0.607176 
481 2.18418 0.922721 1.7832 0.441242 0 0 0 0.45048 -0.865598 0.161368 
53 1.96945 0.837132 2.09145 0.454926 0 0 0 0.523643 -1.05333 0.546362 
484 1.59689 0.907449 2.2591 0.443745 0 0 0 0.520804 -1.21089 0.880295 
384 3.3199 -0.642174 2.68997 1.13434 0 0 0 0.468075 -0.689848 0.149534 
79 1.6855 1.09274 1.92023 0.366689 0 0 0 0.137788 -0.883207 -0.419548 
492 1.57913 1.14676 1.92413 0.353493 0 0 0 0.285147 -0.824118 -0.0688591 
102 1.57313 0.883419 2.31386 0.456287 0 0 0 0.432839 -1.15592 0.886148 
353 2.07856 1.26353 2.64019 0.588626 0 0 0 -0.784862 0.435471 -1.26502 
462 2.05823 1.16867 1.5 0.374843 0 0 0 -1.12476 -0.441523 -0.00752701 
366 3.1868 0.394559 3.69955 1.11941 0 0 0 0.427858 -0.0589647 0.661262 
89 1.72107 0.843356 2.90213 0.612807 0 0 0 0.333703 0.563368 0.677293 
368 3.28496 -0.261774 3.55747 1.21014 0 0 0 0.427473 -0.424275 0.520483 
369 3.64677 0.24624 3.45704 1.1909 0 0 0 0.608274 -0.163267 0.482323 
378 2.68147 0.577425 2.86987 0.75739 0 0 0 0.58962 0.35655 0.599849 
389 2.14752 0.922799 3.36327 0.79033 0 0 0 0.301174 0.639922 0.697756 
95 1.59937 0.244863 3.84568 0.991723 0 0 0 0.0260004 -0.174656 0.844429 
373 1.65834 -0.0884523 2.8068 0.767131 0 0 0 -0.127091 -0.983982 -0.023888 
390 2.59699 1.19522 3.71532 0.975794 0 0 0 0.204652 0.334109 0.63333 
86 1.82023 1.15322 3.19896 0.705229 0 0 0 0.238581 0.999365 0.374355 
376 2.3167 1.03751 3.19032 0.758192 0 0 0 0.302547 0.831215 0.474062 
391 3.65085 0.0254053 3.455 1.22491 0 0 0 0.591527 -0.276208 0.462939 
236 1.54662 0.573475 2.76919 0.603727 0 0 0 0.00800372 -0.614123 0.469223 
379 2.2848 0.0643946 2.74732 0.757381 0 0 0 0.197689 -0.711348 0.263053 
392 3.16306 0.164083 2.91473 0.933106 0 0 0 0.561888 -0.181142 0.368108 
381 3.3365 -0.184162 3.45156 1.17626 0 0 0 0.468468 -0.388439 0.486807 
115 1.62184 0.856724 2.99927 0.635536 0 0 0 0.26975 0.566737 0.738456 
386 3.19115 1.2429 3.66152 1.08251 0 0 0 0.343949 0.202027 0.542288 
97 1.83971 0.614677 2.73121 0.599047 0 0 0 0.341774 -0.192316 0.590665 
385 2.36353 -0.0875389 3.34842 0.945011 0 0 0 0.184317 -0.438183 0.551914 
413 2.04561 3.55203 0.25629 0.937592 0 0 0 0.0167871 0.826885 0.106741 
396 3.29247 3.22368 0.0353803 1.0748 0 0 0 0.396763 0.490325 -0.151136 
417 1.86394 3.11944 -0.421516 0.938945 0 0 0 0.0259755 0.635536 -0.497439 
398 3.25695 2.67494 0.143852 0.92157 0 0 0 0.465737 0.363358 -0.0248117 
418 3.60252 2.06812 -0.0315371 0.979933 0 0 0 0.668192 0.103289 -0.267781 
400 3.51106 2.53616 -0.0693567 1.01263 0 0 0 0.566678 0.207834 -0.261322 
420 1.73365 2.37769 -0.458359 0.802556 0 0 0 0.0173854 0.149975 -0.821996 
414 2.021 2.40555 -0.00567156 0.688314 0 0 0 0.194046 0.747611 -0.386246 
416 2.84933 3.42506 -0.151608 1.0695 0 0 0 0.207375 0.61323 -0.261574 
404 3.3127 3.00275 -0.201166 1.07257 0 0 0 0.424785 0.366717 -0.332244 
415 3.39604 3.43407 0.089092 1.15433 0 0 0 0.404623 0.538803 -0.151418 
322 1.89507 1.81396 -0.137577 0.663461 0 0 0 -0.322289 -0.680433 -0.736593 
407 3.49973 1.68272 -0.386588 1.01346 0 0 0 0.577615 0.0301465 -0.502843 
408 2.0203 1.93863 -0.607176 0.832003 0 0 0 -0.0249601 -0.176074 -0.869683 
202 2.56613 1.60662 0.174908 0.644141 0 0 0 0.242814 -0.252892 -0.704199 
410 3.59069 2.9862 -0.00984991 1.11004 0 0 0 0.546407 0.3382 -0.221808 
411 1.93646 3.67858 -0.355089 1.08848 0 0 0 -0.0202915 0.765229 -0.418143 
289 2.40056 1.93837 0.244714 0.614262 0 0 0 0.514131 0.450153 -0.390142 
262 1.74618 2.1512 0.279801 0.555165 0 0 0 0.0127566 0.577677 -0.810556 
12 2.05402 1.71887 0.758049 0.438053 0 0 0 1.01318 -0.0353088 -1.31537 
419 2.13205 2.72408 0.899577 0.661815 0 0 0 -0.342865 -0.253279 0.907378 
406 2.42478 3.61753 0.659939 0.970485 0 0 0 -0.0178915 0.633408 0.325803 
5 1.83386 1.60258 1.06899 0.350518 0 0 0 0.518282 -0.00483408 -0.439345 
282 2.10938 1.7138 0.725211 0.451013 0 0 0 1.02968 -0.00762306 -1.22512 
332 2.94218 1.87249 1.48281 0.658019 0 0 0 -1.34653 0.0500844 0.272357 
273 1.97812 2.02245 0.498352 0.505724 0 0 0 0.418227 0.715741 -0.889777 
465 1.55316 1.80293 1.02061 0.35275 0 0 0 0.423643 0.413189 0.116634 
473 2.46734 1.59649 0.666436 0.518459 0 0 0 0.967313 0.00928887 -0.46203 
431 2.32608 2.05446 0.519979 0.560177 0 0 0 0.724097 0.993829 0.163051 
14 1.55419 1.93328 0.828394 0.405063 0 0 0 0.0452456 0.830604 -0.972411 
292 1.85024 1.93215 0.62321 0.458608 0 0 0 0.520297 0.633282 -1.4558 
434 2.75645 2.12253 0.776652 0.64035 0 0 0 0.275977 0.828495 0.976962 
435 2.27549 2.78877 1.36395 0.724159 0 0 0 -1.28367 -1.59752 0.0353324 
449 1.78491 1.65285 1.04032 0.351592 0 0 0 0.620148 0.0966976 -0.444104 
397 2.83484 3.18348 0.751306 0.89463 0 0 0 -0.0118808 0.462725 0.500415 
503 1.69432 1.53292 1.28279 0.296975 0 0 0 0.087103 0.668214 -1.1753 
439 2.23607 1.68881 0.721623 0.470069 0 0 0 0.997504 -0.149413 -1.0118 
440 3.40613 2.58475 1.18372 0.890002 0 0 0 0.0148227 0.225988 0.341528 
321 3.75634 1.95026 1.30416 0.908665 0 0 0 0.522753 0.204475 0.235076 
442 2.01407 1.55506 0.987745 0.389566 0 0 0 0.846787 -0.376363 -0.680732 
280 3.36552 1.9208 0.844515 0.776134 0 0 0 0.563179 0.495327 0.46095 
409 2.06939 2.09251 1.00964 0.487098 0 0 0 -3.00217 -4.83815 -2.50884 
132 1.60202 2.67403 1.23181 0.597763 0 0 0 -0.896702 -2.87798 -0.340752 
412 3.37692 2.95078 0.915981 0.958066 0 0 0 0.185457 0.354267 0.329062 
467 2.39565 1.7078 0.607566 0.518874 0 0 0 0.911714 0.184919 -0.454127 
475 1.63585 1.75674 1.01821 0.35108 0 0 0 0.572013 0.320036 -0.170029 
297 1.88583 2.11884 0.468273 0.516634 0 0 0 0.269623 0.90048 -0.810982 
258 1.88163 2.07849 0.490091 0.5058 0 0 0 0.292726 0.819143 -0.959349 
21 1.95024 1.79309 0.737 0.433783 0 0 0 0.835008 0.192467 -1.45177 
155 1.57049 2.57305 1.0308 0.556282 0 0 0 -0.930686 -1.97376 -0.346195 
152 1.64318 3.26844 0.896392 0.775454 0 0 0 0.145054 0.320249 0.57704 
330 3.25835 2.11222 1.26292 0.765142 0 0 0 -0.227374 0.346555 0.517382 
50 2.10971 2.0188 0.461299 0.52891 0 0 0 0.523341 0.760782 -0.524159 
11 1.82699 1.65768 0.998593 0.364156 0 0 0 0.726117 0.0561183 -0.479197 
221 3.06292 2.07823 0.893003 0.704357 0 0 0 0.191745 0.675897 0.805536 
74 3.04859 1.89687 0.613137 0.697118 0 0 0 0.733954 0.698621 0.481365 
446 2.36993 1.57697 0.416043 0.551071 0 0 0 0.338406 -0.381206 -0.777631 
395 2.2081 3.17315 0.332805 0.823202 0 0 0 0.0906812 0.789286 0.380105 
259 2.6154 1.55377 0.447526 0.589885 0 0 0 0.615116 -0.134956 -0.484158 
421 3.45212 3.42163 0.54613 1.11866 0 0 0 0.356772 0.514225 0.0955129 
454 1.56662 1.58654 1.3165 0.280869 0 0 0 0.559466 0.53052 -1.02806 
46 1.85723 1.59487 1.06019 0.354939 0 0 0 0.539161 -0.0521614 -0.419164 
342 1.94864 1.51663 1.09143 0.362943 0 0 0 0.365622 -0.248078 -0.311619 
468 1.84502 1.61503 1.04262 0.356899 0 0 0 0.605126 -0.0199466 -0.435482 
3 1.71464 1.71188 1.01634 0.352865 0 0 0 0.641951 0.22308 -0.361584 
305 1.96778 2.68475 0.388912 0.661756 0 0 0 0.243355 1.21752 0.507523 
197 2.25482 2.31209 0.348899 0.621999 0 0 0 0.537149 1.21492 0.278916 
405 2.37908 2.7423 0.38157 0.727044 0 0 0 0.265664 0.922392 0.602299 
401 2.75364 3.61332 0.332401 1.03903 0 0 0 0.11553 0.715405 0.107311 
13 1.5531 1.67704 1.20138 0.307974 0 0 0 0.785685 0.491824 -0.794297 
387 2.43192 1.68889 2.17912 0.61013 0 0 0 -3.33237 -1.77707 -2.9573 
482 2.51489 2.75822 2.04881 0.826889 0 0 0 -1.5677 -1.33387 -0.988765 
463 2.97196 2.60117 1.62743 0.818334 0 0 0 -1.07675 -0.446853 -0.0860606 
394 2.64219 1.6578 2.44454 0.691173 0 0 0 -1.517 -0.0734018 -1.27242 
319 3.26548 1.82336 1.59356 0.744788 0 0 0 -0.41208 0.388323 0.342382 
500 3.11264 2.32838 2.11934 0.848985 0 0 0 -0.956522 -0.383039 -0.424586 
487 2.72997 2.14153 2.33657 0.768567 0 0 0 -1.73819 -0.883117 -1.23834 
502 2.94168 3.12339 2.45848 1.05467 0 0 0 -0.570313 -0.28845 -0.388161 
499 3.04774 2.90835 2.592 1.0427 0 0 0 -0.532276 -0.292083 -0.370329 
429 3.27854 2.24372 1.5145 0.807219 0 0 0 -0.495896 0.0821246 0.239964 
504 1.8396 1.98454 2.30365 0.597578 0 0 0 -3.80685 -5.33966 -5.67571 
383 3.18367 1.5004 2.61693 0.827666 0 0 0 -0.0343717 0.389495 0.0164119 
99 1.58531 1.59036 3.49473 0.813436 0 0 0 0.14999 0.619332 0.28384 
382 2.94579 1.66321 3.32611 0.956234 0 0 0 0.0216896 0.231196 0.173937 
374 2.17945 1.70018 3.15937 0.782233 0 0 0 -0.408965 0.3599 -0.575179 
367 2.15103 1.73257 3.16272 0.783981 0 0 0 -0.427389 0.315468 -0.617709 
512 1.68195 3.18105 2.91329 0.986988 0 0 0 -0.181805 -0.379619 -0.491419 
498 3.03601 3.15207 3.07829 1.20085 0 0 0 -0.264333 -0.140557 -0.154734 
508 2.36177 2.26392 2.93278 0.848657 0 0 0 -1.00138 -0.572091 -1.04112 
488 2.76679 3.03525 3.02365 1.10813 0 0 0 -0.447047 -0.241945 -0.294054 
100 1.61345 1.74365 3.65537 0.88614 0 0 0 0.08675 0.432652 0.364274 
245 1.53524 1.87342 3.55191 0.862725 0 0 0 0.113813 0.405943 0.174803 
ITEM: TIMESTEP
740910
ITEM: NUMBER OF ATOMS
512
ITEM: BOX BOUNDS ss ss ss
-8.1988304040437454e-01 3.8875120101141034e+00
-9.7693552394909078e-01 3.9476017366228966e+00
-9.1281994132074906e-01 3.9096273972560476e+00
ITEM: ATOMS id x y z width_SPH x_COM y_COM z_COM vx vy vz 
263 1.46291 0.88658 -0.255342 0.797053 0 0 0 -0.184399 0.0652875 0.617641 
403 1.47176 1.28214 -0.572764 0.836227 0 0 0 -0.296156 -0.417886 -0.281622 
25 0.482322 0.121027 0.0027703 1.02263 0 0 0 0.431034 0.529146 0.569931 
279 1.31897 1.03444 -0.485 0.850874 0 0 0 -0.189063 -0.165792 0.106872 
402 1.48864 1.3275 -0.648024 0.856459 0 0 0 -0.281504 -0.409922 -0.421835 
16 0.283965 0.665578 0.148013 0.902205 0 0 0 0.586552 0.592037 0.780355 
8 0.548843 0.85156 0.116511 0.825732 0 0 0 0.734442 0.682652 1.15147 
131 1.20619 1.40825 0.666005 0.517622 0 0 0 4.80069 6.68428 7.38387 
217 -0.458205 1.32447 1.07566 0.827557 0 0 0 -0.140247 -0.412281 -0.139905 
2 -0.191096 0.578914 0.378222 0.976756 0 0 0 0.26944 0.355318 0.38114 
24 0.947301 0.538052 0.655888 0.732041 0 0 0 1.68992 2.78515 2.58757 
129 -0.0272431 1.21936 0.471863 0.809152 0 0 0 0.46492 -0.111327 0.504351 
224 -0.038182 1.2323 1.09789 0.718727 0 0 0 1.00085 -0.0777586 0.267209 
78 0.71747 0.416261 1.44599 0.684313 0 0 0 2.08595 2.94732 0.725793 
67 0.0566743 0.170701 1.35969 0.867434 0 0 0 0.646831 0.69223 0.00584055 
22 1.1096 0.782236 0.476513 0.689897 0 0 0 1.54605 2.71434 3.19753 
125 0.0919173 1.14992 0.334143 0.817638 0 0 0 0.52899 0.0431986 0.639723 
10 0.362725 0.3402 0.337048 0.920794 0 0 0 0.743214 0.865777 0.897106 
68 -0.629254 1.10997 1.49534 0.872299 0 0 0 -0.401509 -0.268311 -0.303195 
116 -0.467658 -0.224834 2.43602 1.06883 0 0 0 -0.510459 -0.413941 -0.0581856 
39 1.33122 1.26246 1.96203 0.349426 0 0 0 -0.248352 -0.393128 0.561824 
57 -0.136591 -0.184234 1.60661 0.978297 0 0 0 0.0862888 0.085069 -0.196881 
111 1.47856 0.661577 1.94947 0.479319 0 0 0 3.06048 4.58012 2.61063 
59 0.836241 1.31492 2.27396 0.459126 0 0 0 -1.05537 -0.0553326 0.985121 
183 0.484321 1.33661 2.61271 0.586943 0 0 0 -0.675456 -0.0649935 0.479692 
80 1.06798 1.32418 2.08947 0.394887 0 0 0 -0.907454 0.0277416 0.821341 
103 -0.666445 -0.192846 2.21681 1.11079 0 0 0 -0.541733 -0.319406 -0.0821391 
63 -0.481044 0.335769 1.67077 0.939105 0 0 0 -0.201785 0.0269413 -0.274247 
64 0.69226 1.25098 1.95539 0.468148 0 0 0 1.81284 3.52178 2.44696 
65 1.41229 1.12563 2.09166 0.384751 0 0 0 0.113569 -1.07867 0.468895 
66 0.536319 -0.153302 1.5622 0.84528 0 0 0 0.649425 0.683615 -0.16418 
27 1.41507 1.3286 1.80371 0.309625 0 0 0 -0.411719 -0.394073 1.39348 
343 1.489 1.48456 1.52633 0.252367 0 0 0 0.0620395 0.0890277 -0.0237301 
69 0.578517 1.29327 2.42892 0.533071 0 0 0 -0.970055 -0.283476 0.404213 
82 0.155991 0.760113 1.618 0.699977 0 0 0 1.16223 0.799968 -0.325299 
71 0.31932 -0.0268654 1.59758 0.843495 0 0 0 0.618207 0.613292 -0.223035 
509 1.47935 1.4766 1.54574 0.254225 0 0 0 0.182464 0.0866455 -0.11828 
226 0.739727 1.28996 2.43124 0.504117 0 0 0 -0.86035 -0.174969 0.698003 
511 1.41956 1.17052 2.0196 0.366042 0 0 0 0.0941399 -0.909044 0.297115 
118 0.96894 0.167099 2.50852 0.690235 0 0 0 -0.380091 -0.897091 -0.669393 
26 1.04233 1.47276 1.9123 0.366374 0 0 0 -0.425876 0.305148 0.347982 
77 0.568465 0.47434 2.28659 0.658594 0 0 0 -0.193283 -0.487509 -0.883498 
92 0.62797 -0.70737 2.33072 0.983499 0 0 0 -0.0562683 -0.633958 -0.231831 
107 0.249774 0.442638 2.19695 0.724249 0 0 0 -0.0884883 -0.275272 -0.803406 
122 1.04947 0.384903 2.37967 0.613126 0 0 0 -0.286982 -0.858496 -0.736323 
94 1.18309 0.61267 2.42577 0.545582 0 0 0 -0.172963 -1.0125 -0.0157366 
247 0.95267 1.10214 2.48173 0.497485 0 0 0 -0.61198 -0.522932 0.847393 
73 1.44161 0.794435 2.54928 0.516404 0 0 0 0.0604323 -0.778605 0.685168 
87 0.756023 0.283344 2.07374 0.669736 0 0 0 0.352324 0.328718 -0.886049 
84 -0.667101 1.05545 2.40897 0.902826 0 0 0 -0.84767 -0.26715 -0.18099 
507 1.18215 1.1312 2.24889 0.425768 0 0 0 -0.485935 -0.575625 1.24131 
169 1.39493 0.991802 2.28372 0.436525 0 0 0 0.175045 -1.07742 1.11093 
85 0.770572 -0.606563 1.99598 0.927262 0 0 0 0.0904866 -0.341421 -0.356415 
371 1.36018 0.868792 2.51444 0.500146 0 0 0 -0.0253325 -0.821011 0.806199 
448 0.609026 1.28907 1.89855 0.483828 0 0 0 1.71749 3.16731 1.99169 
328 0.993106 0.774306 2.21876 0.511074 0 0 0 0.60413 0.591859 0.631531 
112 0.973458 1.266 2.22439 0.433458 0 0 0 -0.947506 -0.0536063 1.19693 
40 0.542474 1.29074 2.42961 0.540918 0 0 0 -0.994532 -0.3316 0.322543 
496 1.48485 1.48105 1.5348 0.253068 0 0 0 0.119669 0.092701 -0.0759665 
42 1.22246 1.29781 2.00115 0.36285 0 0 0 -0.557309 -0.188977 0.501076 
237 1.11561 1.25582 2.14125 0.402221 0 0 0 -0.810581 -0.184013 0.983575 
494 1.38749 1.19011 2.01749 0.364347 0 0 0 -0.0150896 -0.801539 0.357211 
181 0.316506 1.14153 2.56082 0.627435 0 0 0 -0.957854 -0.732056 -0.0854817 
81 -0.121094 -0.621641 2.09638 1.08733 0 0 0 -0.197002 -0.422685 -0.131278 
83 1.18469 -0.506681 2.52988 0.870694 0 0 0 -0.142373 -0.821279 -0.309909 
232 0.998009 1.0124 2.54916 0.515984 0 0 0 -0.467548 -0.616717 0.771128 
93 -0.508149 0.84491 2.0297 0.851662 0 0 0 -0.540534 -0.298774 -0.444179 
61 1.51203 0.359922 1.94817 0.566534 0 0 0 0.589511 1.39729 -0.113209 
349 1.50386 -0.381651 1.57127 0.808644 0 0 0 -0.129205 0.234028 -0.291414 
253 1.16405 1.08586 2.3957 0.460848 0 0 0 -0.611598 -0.907096 0.937616 
193 -0.727526 1.42163 1.5528 0.877434 0 0 0 -0.696353 -0.372889 -0.303495 
506 1.46209 1.27675 1.83871 0.320016 0 0 0 -0.221614 -0.6378 0.942443 
44 -0.248203 1.37176 1.89732 0.712932 0 0 0 -0.599141 -0.717585 -0.652017 
32 1.23784 1.37168 1.88978 0.336998 0 0 0 -0.418161 -0.0104713 0.78025 
493 1.20601 1.42553 1.84333 0.331297 0 0 0 -0.251709 0.0106818 0.833557 
9 1.40198 1.32545 1.82112 0.313665 0 0 0 -0.524613 -0.595555 1.18536 
218 1.31593 1.40023 1.78917 0.309641 0 0 0 -0.538566 -0.471014 1.28604 
200 -0.243767 1.45154 1.90837 0.706229 0 0 0 -0.689987 -0.735857 -0.614239 
486 1.31685 1.26322 1.98199 0.354055 0 0 0 0.425357 0.779159 1.35058 
98 0.192043 0.505971 2.67418 0.762682 0 0 0 -0.547799 -0.679276 -0.319396 
113 1.36474 -0.767752 2.84603 0.993318 0 0 0 -0.051912 -0.877639 0.0551766 
114 -0.662815 0.667394 3.0988 1.0467 0 0 0 -0.730339 -0.208072 0.292162 
108 0.827866 -0.375044 3.19939 0.967028 0 0 0 -0.179656 -0.68332 0.269366 
163 0.568722 0.925253 2.79803 0.645967 0 0 0 -0.629001 -0.714718 0.303395 
60 0.824458 1.36372 3.15257 0.691632 0 0 0 0.333305 0.629413 0.835943 
117 0.983524 0.117898 3.7019 0.978818 0 0 0 -0.129096 -0.308783 0.718555 
51 0.407866 1.42257 2.78812 0.64207 0 0 0 -0.346612 0.249815 0.65678 
88 1.42973 0.53892 3.6292 0.869877 0 0 0 0.00638604 0.0152738 0.894948 
109 -0.521005 -0.195163 3.25587 1.19582 0 0 0 -0.575241 -0.43826 0.393265 
90 -0.819591 0.596006 2.78624 1.05283 0 0 0 -0.798718 -0.216511 0.11203 
91 0.794654 1.1685 3.90934 0.962242 0 0 0 -0.00640092 0.133374 0.951551 
227 1.33614 1.35544 2.76354 0.562285 0 0 0 -0.0936639 0.239754 -0.637908 
438 0.692843 1.45414 3.02107 0.665648 0 0 0 0.310289 0.681401 0.831898 
119 0.719813 0.0526602 3.43824 0.932509 0 0 0 -0.230063 -0.438123 0.511975 
430 1.20337 0.667933 2.80486 0.606693 0 0 0 -0.28487 -0.688801 0.48498 
96 1.21336 -0.443183 3.49593 1.03711 0 0 0 -0.0580913 -0.627555 0.49801 
121 -0.478878 0.852547 3.15732 0.981831 0 0 0 -0.686127 -0.196809 0.337563 
110 0.000529471 -0.178566 2.91004 0.989031 0 0 0 -0.415651 -0.545738 0.0950888 
120 -0.757144 1.33216 2.86286 0.982956 0 0 0 -0.855548 -0.063851 0.192642 
104 0.10118 -0.598302 3.21263 1.14763 0 0 0 -0.345983 -0.642432 0.341687 
101 0.537347 0.50348 3.11842 0.786337 0 0 0 -0.405484 -0.525514 0.336953 
238 1.23272 1.23412 2.83499 0.574662 0 0 0 0.182203 0.586733 0.304319 
123 -0.316982 2.86792 -0.691699 1.18977 0 0 0 -0.540353 0.329793 -0.659827 
159 0.397832 3.05213 -0.62538 1.0548 0 0 0 -0.28573 0.503083 -0.690788 
142 1.18785 3.80509 -0.0596155 1.05791 0 0 0 -0.106361 0.892016 -0.316704 
126 -0.541269 3.21741 0.184412 1.10843 0 0 0 -0.644986 0.551743 -0.3197 
127 0.805512 2.06304 -0.832079 0.949852 0 0 0 -0.270567 -0.262301 -0.886205 
158 0.896478 2.14782 -0.502453 0.82535 0 0 0 -0.34376 -0.410895 -0.874083 
143 -0.16242 2.51389 -0.788983 1.13562 0 0 0 -0.507487 0.116802 -0.735195 
149 1.11663 2.1868 -0.912529 0.958566 0 0 0 -0.152839 -0.115958 -0.939896 
151 1.36321 3.3662 0.288898 0.844522 0 0 0 0.0302157 0.959223 0.0450193 
274 1.33477 2.01645 -0.0268019 0.636669 0 0 0 -0.366981 -0.743711 -0.663896 
157 0.0134442 1.643 0.128942 0.821068 0 0 0 -0.211151 -0.666846 -0.103411 
156 -0.609023 1.93331 -0.650121 1.19061 0 0 0 -0.599165 -0.0660175 -0.549868 
130 0.986176 2.15088 0.267696 0.593012 0 0 0 -0.524977 -0.340113 -0.635061 
148 0.698616 1.49459 -0.232561 0.79159 0 0 0 -0.075056 -0.61082 0.0774001 
137 -0.708155 2.86987 0.246402 1.07807 0 0 0 -0.787234 0.323151 -0.310884 
138 0.424978 2.62752 -0.593774 0.963029 0 0 0 -0.35661 0.182125 -0.803855 
141 0.160033 1.99701 -0.415253 0.914395 0 0 0 -0.476578 -0.434296 -0.672667 
140 0.862151 2.60215 -0.809077 0.979755 0 0 0 -0.192279 0.196979 -0.875627 
443 1.31898 2.08521 0.116083 0.599074 0 0 0 -0.363285 -0.428165 -0.737856 
444 1.48154 2.23981 0.0627894 0.620899 0 0 0 -0.259583 0.134155 -0.787084 
136 1.03226 1.8917 0.221509 0.597169 0 0 0 -0.149032 -0.793355 0.0686844 
268 1.46276 2.00807 0.113338 0.589758 0 0 0 -0.28008 -0.51315 -0.711831 
146 0.824178 2.05114 0.253745 0.615592 0 0 0 -0.451227 -0.790399 -0.379425 
180 0.816325 2.50705 0.789624 0.56531 0 0 0 -0.422065 1.23142 -0.299283 
190 0.821829 3.2916 1.17401 0.773672 0 0 0 0.338228 0.751393 0.367134 
178 -0.54673 3.08541 1.13917 0.974057 0 0 0 -0.646034 0.581694 -0.0204877 
220 0.899087 2.23259 1.45457 0.460912 0 0 0 -1.92838 -2.57332 -1.96294 
189 1.01702 2.26103 0.8146 0.487548 0 0 0 -0.947707 1.11266 -0.606409 
165 1.0488 2.30437 0.745471 0.502531 0 0 0 -0.824691 1.15659 -0.661842 
128 1.38576 3.34334 1.2518 0.793523 0 0 0 0.238324 -0.0104507 0.379253 
185 0.700685 3.36967 1.30718 0.807796 0 0 0 0.306443 0.749873 0.317374 
168 0.779368 2.05424 1.00595 0.471616 0 0 0 -0.205867 1.53653 0.706518 
186 -0.767692 1.72337 0.481584 0.983527 0 0 0 -0.740667 -0.285031 -0.211637 
170 0.556746 2.28227 0.547184 0.609204 0 0 0 -0.639476 -0.127169 -0.555098 
171 0.284592 3.56152 0.91582 0.929534 0 0 0 -0.124109 0.922013 0.0251776 
175 -0.673985 2.64647 1.34235 0.922312 0 0 0 -0.838172 0.285624 -0.0589411 
124 0.946521 2.13444 1.0301 0.448057 0 0 0 -1.03381 1.02044 -0.156162 
187 -0.341969 2.06188 0.38116 0.853129 0 0 0 -0.732671 -0.502039 -0.36123 
134 1.44029 2.99975 0.715257 0.686524 0 0 0 0.237596 0.772268 0.575618 
198 1.10454 2.48527 1.32489 0.519698 0 0 0 -1.07306 -2.5253 -1.23743 
426 1.5256 1.8097 1.03414 0.350827 0 0 0 0.374509 0.399539 0.236689 
147 1.22189 1.9207 1.15986 0.365564 0 0 0 -0.681803 -0.612721 0.42763 
133 1.04449 2.31189 0.324247 0.5881 0 0 0 -0.518674 0.365609 -0.734302 
188 0.398834 2.22613 0.467433 0.65219 0 0 0 -0.608947 -0.528031 -0.525451 
20 1.4012 1.64926 1.36986 0.284344 0 0 0 1.58825 -0.491133 -0.210178 
216 -0.0737755 2.3515 1.33666 0.682755 0 0 0 -0.676888 0.162998 -0.232996 
206 -0.717433 1.91108 1.19379 0.87957 0 0 0 -0.880943 -0.367044 -0.250327 
154 -0.280086 3.2078 0.526567 0.978397 0 0 0 -0.533208 0.672513 -0.188912 
144 1.30247 2.01087 0.912943 0.407615 0 0 0 -0.672958 1.0541 -0.238536 
423 1.18173 2.03443 0.97732 0.411238 0 0 0 -0.851521 1.06104 0.0833793 
135 -0.22625 3.12139 0.410253 0.958208 0 0 0 -0.535678 0.632118 -0.247139 
192 0.529697 2.18854 0.465839 0.623393 0 0 0 -0.590031 -0.541604 -0.501836 
194 0.171582 2.21543 0.651672 0.670489 0 0 0 -0.636143 -0.568276 -0.480126 
196 0.990078 2.89059 1.10309 0.6406 0 0 0 0.388183 0.633298 0.41903 
203 0.532329 2.55461 0.541054 0.655193 0 0 0 -0.461126 0.62391 -0.448616 
150 1.41057 1.88552 0.988735 0.370978 0 0 0 2.87552 5.46813 3.79428 
214 -0.0711018 1.80497 0.791841 0.711167 0 0 0 -0.190314 -1.00773 -0.172946 
425 1.42104 1.95118 0.905406 0.394388 0 0 0 -0.268512 0.94424 -0.302405 
48 0.228427 2.29404 0.623425 0.667389 0 0 0 -0.652883 -0.3406 -0.509611 
162 1.52738 1.51565 1.44982 0.254791 0 0 0 -0.400388 0.113617 0.320327 
177 0.870217 1.99606 1.31465 0.416624 0 0 0 -0.428225 0.917046 0.359041 
139 0.901011 3.94731 0.7486 1.02061 0 0 0 -0.0239492 0.90877 -0.0296518 
461 1.38948 1.75363 1.23162 0.316837 0 0 0 0.788905 0.0388511 0.353739 
210 0.261615 2.17599 0.847567 0.615998 0 0 0 -0.594662 -0.510669 -0.434905 
480 1.02344 2.02373 1.13292 0.409867 0 0 0 -0.664248 0.947471 0.473152 
28 1.05076 1.83854 1.404 0.360318 0 0 0 0.745274 0.122651 0.746486 
489 0.558857 2.27472 1.21428 0.519892 0 0 0 -0.64013 0.853606 -0.177991 
4 1.22244 1.72084 1.42292 0.315215 0 0 0 1.31362 -0.333606 0.539273 
19 1.14084 2.47426 0.428796 0.585357 0 0 0 -0.34546 1.10185 -0.529107 
336 0.479588 2.37429 1.18931 0.555284 0 0 0 -0.452002 0.940823 -0.147876 
469 1.0405 2.01731 1.12835 0.406967 0 0 0 -0.641799 0.936085 0.520256 
308 0.417197 2.38388 1.20765 0.568906 0 0 0 -0.422064 0.883014 -0.144399 
15 1.22459 1.8628 1.21612 0.350381 0 0 0 0.329907 0.109519 1.24242 
424 1.33272 2.62683 0.397188 0.618367 0 0 0 -0.0725484 1.29743 -0.162131 
7 1.3725 2.12814 0.709272 0.457157 0 0 0 -0.584528 1.11292 -1.16712 
174 1.2968 1.80757 1.23498 0.332179 0 0 0 0.5735 -0.124914 0.946731 
6 1.09485 1.81937 1.39359 0.350538 0 0 0 0.885922 -0.0217589 0.820584 
458 0.509356 2.15863 1.40969 0.503688 0 0 0 -0.692761 0.732866 -0.0556156 
433 1.53014 1.83936 0.985042 0.363363 0 0 0 0.317877 0.587869 0.0928377 
437 1.46749 2.04176 0.748708 0.434919 0 0 0 -0.336988 1.01704 -1.23247 
153 1.27972 1.81894 1.23333 0.335818 0 0 0 0.531875 -0.101133 1.0388 
286 1.4825 2.02989 0.75338 0.432208 0 0 0 -0.289571 0.996474 -1.2388 
195 0.960329 1.93964 1.32812 0.392722 0 0 0 -0.00429733 0.669686 0.653981 
399 1.51635 1.93623 0.866646 0.39793 0 0 0 -0.429883 0.219076 -1.13931 
354 0.503417 2.10105 1.49637 0.495891 0 0 0 -0.741051 0.71451 0.0203462 
372 1.50625 1.49957 1.49052 0.251512 0 0 0 -0.21309 0.0451109 0.264246 
164 0.232474 1.81997 1.47903 0.555411 0 0 0 -0.187147 -0.251031 -0.150816 
17 1.50459 1.49817 1.49392 0.25144 0 0 0 -0.188174 0.0475377 0.24036 
52 0.953885 1.86576 1.44846 0.38025 0 0 0 0.395423 0.462936 0.490565 
145 0.944092 3.68322 0.31978 0.962026 0 0 0 -0.069739 0.942566 -0.136534 
256 0.558353 2.11604 1.73864 0.496381 0 0 0 -0.760194 0.519716 0.0905628 
495 1.04309 1.64388 1.68229 0.346148 0 0 0 0.726284 0.284253 0.13419 
248 0.868785 1.5629 1.93385 0.401681 0 0 0 -0.734197 0.724748 0.574576 
43 0.148921 2.31439 1.81883 0.623841 0 0 0 -0.186926 0.906592 0.491348 
76 0.906802 1.57911 1.88405 0.389079 0 0 0 -0.518156 0.646491 0.347121 
450 0.85448 1.64817 1.83468 0.397155 0 0 0 -0.471589 0.832898 0.328216 
166 1.19151 3.39112 1.71318 0.833435 0 0 0 0.311557 -0.187267 0.0847967 
70 0.975127 2.32046 2.30292 0.608759 0 0 0 0.37474 -1.55696 -1.46658 
199 -0.16399 2.48213 2.51655 0.815893 0 0 0 -0.221975 0.751755 0.499416 
223 -0.31371 3.51998 2.20263 1.0656 0 0 0 -0.343005 0.730765 0.18529 
201 -0.0322997 3.01379 1.68138 0.815638 0 0 0 -0.0812852 0.978495 0.267413 
243 0.900445 2.03173 2.39423 0.562182 0 0 0 0.102923 -1.1185 -1.35641 
191 0.402002 2.14627 2.61254 0.667709 0 0 0 0.53758 1.16209 0.686814 
204 0.494255 3.83159 2.13436 1.03917 0 0 0 0.083133 0.663337 0.133743 
49 0.76942 1.87246 1.59107 0.41737 0 0 0 -0.388046 1.00498 0.294928 
160 0.914953 1.82328 1.54462 0.382719 0 0 0 0.276228 0.470567 0.187867 
207 0.786905 2.75747 2.50756 0.754782 0 0 0 0.726067 0.142255 -0.116924 
208 1.03098 2.39114 1.63947 0.518105 0 0 0 -1.29649 -4.15679 -2.32203 
209 0.529459 2.20089 1.58261 0.507846 0 0 0 -0.583191 0.778393 0.0883448 
447 0.197364 2.26425 2.14672 0.63912 0 0 0 0.0857896 1.11294 0.777272 
211 0.711171 3.69218 1.79547 0.943618 0 0 0 0.228618 0.561471 0.152189 
212 0.655028 3.2858 1.83326 0.812309 0 0 0 0.469026 0.508438 0.273224 
213 0.0678189 3.47689 2.25792 0.980738 0 0 0 -0.0321009 0.748333 0.229373 
490 1.46128 1.49805 1.53103 0.253855 0 0 0 1.29261 -0.711465 0.128696 
215 0.794993 3.88391 2.27497 1.06152 0 0 0 0.148998 0.502782 0.0716828 
184 1.5004 1.49456 1.50257 0.251402 0 0 0 -0.121603 0.0573888 0.171737 
55 0.266692 2.26505 1.5319 0.574507 0 0 0 -0.404435 0.671156 0.0856359 
505 0.361121 1.60465 2.26191 0.54876 0 0 0 -0.983748 0.180605 0.294868 
255 1.2108 2.61049 2.17652 0.668965 0 0 0 0.0489928 -2.31918 -1.57545 
479 0.0168456 2.36861 2.04038 0.686485 0 0 0 -0.170012 0.920339 0.58307 
173 -0.124526 1.91621 1.83532 0.659827 0 0 0 -0.837771 -0.402894 -0.215157 
318 0.349878 1.78872 2.07953 0.53486 0 0 0 -0.899072 0.413725 0.360451 
54 0.430624 1.94053 1.8001 0.502878 0 0 0 -0.875978 0.602261 0.284624 
34 0.259994 2.18276 1.85537 0.577329 0 0 0 -0.275853 0.84515 0.514601 
172 0.165969 2.12749 1.58858 0.582571 0 0 0 -0.604325 0.13145 -0.0734983 
229 1.0813 2.33349 2.5338 0.66171 0 0 0 0.497533 -1.05237 -1.40598 
234 1.04409 1.64646 1.67795 0.345828 0 0 0 0.744737 0.277146 0.135736 
252 1.1575 1.61768 1.62227 0.318149 0 0 0 1.06404 -0.250307 0.524564 
235 1.04832 1.62 1.71022 0.345715 0 0 0 0.625894 0.289095 0.162281 
29 0.843075 1.72178 1.74556 0.396693 0 0 0 -0.258908 0.877922 0.216108 
513 0.660701 1.56778 2.09004 0.460311 0 0 0 -1.20293 0.513731 0.742847 
241 1.06009 1.60521 1.72045 0.343451 0 0 0 0.600524 0.255475 0.207038 
38 0.320521 1.7588 2.2745 0.566247 0 0 0 -0.693108 0.511561 0.47137 
35 0.252088 1.76159 2.40264 0.603924 0 0 0 -0.543945 0.556802 0.510699 
30 0.500216 1.66022 2.12088 0.499529 0 0 0 -1.1077 0.440831 0.496613 
239 -0.586848 2.64441 2.57886 0.974137 0 0 0 -0.57718 0.458324 0.298062 
233 0.904611 1.60662 1.8497 0.38676 0 0 0 -0.399396 0.669488 0.256661 
75 0.829569 1.66228 1.83747 0.403137 0 0 0 -0.56423 0.867621 0.365809 
219 1.50021 1.49439 1.50297 0.251406 0 0 0 -0.118424 0.0579468 0.168335 
167 1.5004 1.49455 1.50259 0.251402 0 0 0 -0.121465 0.0574129 0.171589 
466 1.5002 1.49437 1.503 0.251406 0 0 0 -0.118196 0.0579872 0.16809 
471 1.50021 1.49439 1.50297 0.251406 0 0 0 -0.118468 0.0579391 0.168382 
36 1.50029 1.49445 1.50282 0.251404 0 0 0 -0.119643 0.0577325 0.16964 
278 1.50195 1.4959 1.49935 0.251391 0 0 0 -0.146752 0.0532153 0.198305 
37 1.50089 1.49497 1.50157 0.251396 0 0 0 -0.129518 0.0560942 0.180073 
58 1.50159 1.49559 1.5001 0.251391 0 0 0 -0.141007 0.0542218 0.192164 
47 1.07811 1.75571 1.49969 0.343428 0 0 0 1.02035 -0.136295 0.347788 
477 1.50167 1.49566 1.49993 0.251391 0 0 0 -0.142227 0.0539325 0.193573 
355 1.50134 1.49537 1.50062 0.251392 0 0 0 -0.136836 0.0548073 0.187906 
334 1.50104 1.49511 1.50125 0.251394 0 0 0 -0.131933 0.0556212 0.182726 
476 1.50097 1.49505 1.50139 0.251395 0 0 0 -0.130861 0.0558014 0.18159 
179 1.50089 1.49498 1.50157 0.251396 0 0 0 -0.129454 0.0560391 0.180097 
222 1.50059 1.49472 1.50218 0.251399 0 0 0 -0.124615 0.0568664 0.17495 
302 1.50066 1.49478 1.50205 0.251398 0 0 0 -0.125702 0.0566792 0.176108 
176 1.50066 1.49478 1.50204 0.251398 0 0 0 -0.125762 0.0566688 0.176173 
225 0.922807 2.39725 3.41234 0.888287 0 0 0 0.373677 0.377009 0.311792 
106 0.302738 2.02714 3.35323 0.857239 0 0 0 0.120781 0.569721 0.780079 
249 -0.498558 2.47087 2.81671 0.959171 0 0 0 -0.536697 0.431532 0.394127 
228 -0.108656 3.23446 3.60257 1.22453 0 0 0 -0.281626 0.494536 0.57948 
254 -0.486117 2.76307 3.5122 1.1744 0 0 0 -0.471144 0.38543 0.584946 
230 0.506969 3.71141 2.9996 1.13779 0 0 0 0.0269034 0.555009 0.264726 
231 0.569901 2.2762 3.57917 0.935087 0 0 0 0.214647 0.457915 0.686145 
242 0.544174 2.40527 3.25163 0.856901 0 0 0 0.388554 0.605934 0.516844 
246 -0.356551 2.01124 3.52011 1.04153 0 0 0 -0.460428 0.227393 0.669544 
464 0.277935 1.66566 2.73314 0.660816 0 0 0 -0.253225 0.600729 0.673408 
205 0.789503 1.62297 3.04756 0.674936 0 0 0 0.588786 0.903102 0.639753 
251 0.368725 3.45847 3.03809 1.07462 0 0 0 0.0473257 0.574827 0.331758 
105 -0.172732 1.52945 3.72936 1.04181 0 0 0 -0.383884 0.0755034 0.777716 
250 0.796413 3.13054 3.3993 1.05192 0 0 0 0.168005 0.346693 0.318552 
244 1.25516 2.37352 3.45388 0.901675 0 0 0 0.225143 0.194185 0.0630292 
240 -0.316576 3.69298 3.4091 1.33894 0 0 0 -0.39857 0.574289 0.443186 
257 3.62637 1.21803 -0.278448 1.02737 0 0 0 0.662289 -0.0959352 -0.447612 
441 1.86626 1.15928 0.029388 0.661003 0 0 0 -0.67539 -0.369674 0.601545 
288 3.67371 0.857922 0.0530732 0.991891 0 0 0 0.717089 -0.235554 -0.334331 
260 3.1323 0.827985 -0.609111 1.0191 0 0 0 0.33384 -0.274313 -0.675073 
261 3.52398 -0.100123 0.154681 1.093 0 0 0 0.502731 -0.634773 -0.330557 
276 2.55308 0.7802 -0.320847 0.838314 0 0 0 -0.251421 -0.566759 -0.547736 
427 2.22869 1.08024 0.20878 0.632711 0 0 0 -0.822425 -0.713989 -0.101804 
285 1.77615 0.218844 -0.0315123 0.864556 0 0 0 -0.185614 0.145301 0.517838 
436 2.35116 1.42219 -0.0512661 0.678326 0 0 0 -0.406539 -0.673953 -0.73415 
266 2.66025 0.936352 -0.843421 1.00718 0 0 0 0.0635739 -0.22377 -0.783957 
267 3.03037 0.608855 -0.039807 0.86518 0 0 0 0.159059 -0.643753 -0.506132 
293 2.10191 1.07615 -0.870523 0.957153 0 0 0 -0.174108 -0.223624 -0.718733 
269 2.55512 0.9497 -0.706881 0.943088 0 0 0 -0.0495117 -0.288851 -0.743546 
270 2.46766 0.612225 -0.432209 0.891627 0 0 0 -0.223505 -0.523985 -0.496714 
271 3.23129 -0.579428 -0.176077 1.23192 0 0 0 0.360719 -0.692757 -0.376334 
272 1.6467 0.823013 0.128497 0.702439 0 0 0 -0.205706 0.701035 1.55322 
284 2.04211 0.324121 -0.432477 0.93621 0 0 0 -0.243782 -0.335186 -0.149028 
290 2.38962 -0.690835 -0.214172 1.17656 0 0 0 0.065282 -0.54744 -0.230049 
291 3.16121 0.334525 -0.492721 1.06555 0 0 0 0.325713 -0.499014 -0.575625 
294 3.06872 0.327588 0.682213 0.794008 0 0 0 0.101738 -0.942258 -0.433146 
23 1.96012 1.40534 1.23483 0.34908 0 0 0 -0.599566 -0.217186 0.0857736 
453 2.93383 0.913308 1.3622 0.602812 0 0 0 0.732845 -0.10056 0.13245 
18 1.90808 1.36094 1.34067 0.333036 0 0 0 -1.25071 0.0130665 0.295392 
298 2.04666 1.34271 1.25147 0.36717 0 0 0 -0.540405 -0.421642 0.0781931 
299 2.9192 0.965586 1.15319 0.600933 0 0 0 0.695804 -0.293995 -0.119142 
451 2.12579 1.28905 1.26587 0.385298 0 0 0 -0.254695 -0.637371 -0.074663 
301 3.70182 0.535436 1.4268 0.90041 0 0 0 0.879139 -0.217165 0.0446014 
264 2.45149 0.855534 0.620128 0.597321 0 0 0 -0.523686 -0.843215 -0.416916 
445 2.28053 1.21986 1.24788 0.42347 0 0 0 0.555513 -0.751872 -0.307281 
304 2.19732 1.11983 1.14348 0.431071 0 0 0 2.2766 2.78711 2.37253 
41 2.8642 0.991065 0.872285 0.609243 0 0 0 0.493116 -0.669886 -0.497227 
306 1.9942 1.20525 1.4957 0.358719 0 0 0 -1.55159 -0.175261 0.0555625 
307 2.07213 1.04496 1.19275 0.425492 0 0 0 3.78026 7.11451 5.71607 
277 2.64746 1.39933 0.721808 0.548758 0 0 0 0.848655 -0.164891 -0.410678 
309 3.42367 0.409369 1.28612 0.825453 0 0 0 0.70541 -0.507591 -0.10807 
310 2.04762 -0.00926099 1.06794 0.725923 0 0 0 -0.566284 0.412276 0.0785054 
311 2.88347 1.04323 0.92548 0.602774 0 0 0 0.627633 -0.456701 -0.367869 
341 2.75568 1.06758 0.733259 0.594094 0 0 0 0.363319 -0.793562 -0.668191 
432 2.74185 1.44695 0.883124 0.554669 0 0 0 0.863031 0.249312 0.0388678 
161 2.00056 1.43223 1.16426 0.363504 0 0 0 -0.0699779 -0.33864 -0.117096 
182 2.69528 1.32605 0.523283 0.596684 0 0 0 0.459728 -0.519083 -0.622898 
316 2.92723 -0.308182 0.756849 0.924409 0 0 0 0.0547605 -0.866021 -0.307163 
317 3.34937 0.0147972 0.768079 0.924396 0 0 0 0.394661 -0.767697 -0.282422 
275 3.40929 -0.820403 0.709983 1.195 0 0 0 0.43001 -0.788074 -0.184208 
33 2.6597 0.845098 1.48871 0.53787 0 0 0 0.731282 -0.58473 0.0577062 
320 1.86541 0.0375229 0.931896 0.734206 0 0 0 -0.348817 1.04576 0.599285 
72 2.19326 1.16819 1.39319 0.403132 0 0 0 -0.136034 -0.769876 -0.0247523 
265 1.93826 -0.369082 0.732909 0.882172 0 0 0 -0.204928 0.053302 0.157724 
501 2.42645 1.15685 1.21413 0.460775 0 0 0 0.925139 -0.612854 -0.32606 
56 2.5703 0.702995 0.532529 0.656287 0 0 0 -0.587875 -1.04466 -0.472252 
325 2.33715 1.10413 1.34222 0.44066 0 0 0 0.761437 -0.601176 0.0305491 
287 2.41139 -0.366532 0.55564 0.915703 0 0 0 -0.190789 -0.554724 -0.138698 
327 3.3612 1.24899 1.48976 0.72928 0 0 0 0.602878 0.610935 0.465248 
329 1.95982 0.20886 1.14449 0.655288 0 0 0 -0.514456 1.3613 0.567939 
428 2.78132 0.813918 1.48194 0.571735 0 0 0 0.696743 -0.434563 0.0856733 
31 2.45657 0.720514 0.487635 0.649593 0 0 0 -0.729155 -0.862221 -0.283697 
283 1.78567 0.844249 0.902916 0.529949 0 0 0 2.21403 7.11614 5.72855 
326 2.4987 1.10644 1.22629 0.479725 0 0 0 0.917764 -0.587047 -0.275419 
470 3.20794 1.21786 1.38465 0.675378 0 0 0 0.604951 0.650656 0.479888 
313 2.78303 0.837264 1.4233 0.569371 0 0 0 0.688854 -0.469747 0.0305103 
457 1.88295 1.3176 1.42381 0.328057 0 0 0 -1.575 0.173194 0.325326 
455 2.09929 1.46729 1.04026 0.396736 0 0 0 0.737338 -0.566972 -0.644781 
422 2.35313 1.29626 1.08161 0.446571 0 0 0 1.03424 -0.563847 -0.623589 
456 2.55983 0.341738 1.38463 0.628052 0 0 0 -0.349842 -1.08265 -0.530427 
474 1.85407 1.41999 1.30336 0.322766 0 0 0 -0.756393 0.168592 0.00895062 
300 3.62897 -0.222314 1.47508 1.02441 0 0 0 0.628928 -0.628303 -0.0936765 
478 2.35707 1.45326 0.86721 0.466212 0 0 0 1.20531 -0.344429 -0.812683 
340 1.70264 1.43604 1.41147 0.286352 0 0 0 -0.968895 0.606989 -0.388353 
281 1.70783 0.0068396 0.31421 0.851726 0 0 0 -0.0686841 0.525067 0.736437 
333 2.95213 0.625802 2.57619 0.753147 0 0 0 0.713181 0.39876 0.502306 
323 1.96024 1.06257 1.74773 0.38267 0 0 0 -0.574134 -0.518609 -0.531187 
335 2.66602 0.847272 2.44811 0.646092 0 0 0 0.592457 0.832702 0.530767 
491 1.78687 1.17972 1.7055 0.338069 0 0 0 -0.880264 0.102035 -0.515884 
337 2.05362 -0.945718 1.91696 0.993526 0 0 0 -0.0302137 -0.872244 -0.198423 
338 3.03182 0.240149 2.16305 0.772453 0 0 0 0.621384 -0.400482 0.185027 
339 1.79311 0.243015 1.69179 0.598 0 0 0 -0.162326 1.31184 -0.0847373 
370 1.65925 -0.976645 2.59511 1.0346 0 0 0 -0.00371721 -0.913977 -0.00498333 
452 2.42607 0.244135 1.74989 0.624613 0 0 0 -0.262871 -1.04639 -0.489035 
295 2.09994 0.574216 2.39618 0.55971 0 0 0 0.422661 -0.554888 0.449809 
296 2.19624 1.05237 1.56909 0.416345 0 0 0 0.0525326 -0.767529 0.00173281 
344 2.37282 0.960806 1.94511 0.493171 0 0 0 0.0946719 -0.747965 -0.194959 
345 3.40708 1.06476 2.12277 0.795707 0 0 0 0.617724 0.513872 0.408952 
346 2.01393 0.960277 1.86444 0.415939 0 0 0 0.21257 -0.860703 0.00200921 
364 1.68475 1.12266 1.87406 0.355485 0 0 0 0.033749 -0.643025 -0.441188 
348 3.88722 1.46542 2.1892 0.984172 0 0 0 0.623115 0.145073 0.180692 
331 2.11756 0.995951 1.72374 0.415841 0 0 0 0.0795663 -0.764311 -0.0601185 
350 2.36019 -0.0945992 1.6119 0.719202 0 0 0 -0.47642 -0.847102 -0.61107 
351 1.77259 1.23309 1.64011 0.323702 0 0 0 -1.06183 0.264723 -0.192694 
352 2.46184 0.668521 2.26259 0.582331 0 0 0 0.676369 0.0572966 0.58256 
363 2.55574 -0.637616 2.03573 0.923297 0 0 0 0.0626237 -0.993189 -0.189397 
45 1.68419 1.14929 1.83489 0.346042 0 0 0 -0.0692454 -0.451768 -0.38757 
365 1.6938 0.222907 2.3901 0.619914 0 0 0 -0.246737 -1.20419 -0.522436 
356 3.26093 1.43479 2.49167 0.819986 0 0 0 0.0772243 0.4428 0.108642 
357 2.16287 1.08651 2.24833 0.502368 0 0 0 -1.19519 -1.26627 -1.34785 
358 2.14802 0.666399 2.60498 0.595297 0 0 0 0.560596 0.181442 0.638789 
359 3.56757 -0.600345 2.21029 1.1353 0 0 0 0.571197 -0.671617 0.026332 
360 1.95003 0.186199 2.18312 0.617076 0 0 0 -0.299114 -1.06729 -0.548388 
361 2.06205 -0.717425 1.53364 0.916866 0 0 0 -0.165974 -0.667974 -0.288181 
362 2.41713 0.274356 1.96776 0.62137 0 0 0 -0.0196183 -1.05122 -0.266852 
460 1.97019 1.14592 1.60674 0.364136 0 0 0 -1.3318 -0.186414 -0.368065 
303 2.32215 1.05425 1.64056 0.44636 0 0 0 -0.243846 -1.64993 -0.782126 
393 1.97008 -0.328914 2.07153 0.770047 0 0 0 -0.341789 -0.895126 -0.52335 
324 2.45377 0.691632 1.9828 0.539927 0 0 0 0.65896 -0.44721 0.39986 
312 3.14154 1.31987 1.96637 0.699457 0 0 0 -0.0356174 0.799503 0.32617 
375 1.7987 0.918468 2.0944 0.426673 0 0 0 0.572556 -1.16246 0.509449 
459 2.65914 0.457164 1.80806 0.612562 0 0 0 0.369616 -0.819326 -0.0486449 
62 1.74291 1.05769 1.9291 0.377705 0 0 0 0.103618 -0.931164 -0.414988 
380 2.33975 0.664182 2.34272 0.573092 0 0 0 0.614353 -0.00928128 0.600966 
485 1.68786 1.16813 1.80446 0.339539 0 0 0 -0.171962 -0.322505 -0.330703 
510 2.07899 0.979141 1.78211 0.415851 0 0 0 0.124269 -0.791886 -0.0554668 
497 1.81804 0.609488 2.48231 0.542849 0 0 0 0.301679 -0.771574 0.40945 
347 1.77136 -0.881256 1.97401 0.962731 0 0 0 -0.0895688 -0.786554 -0.247522 
377 3.60723 1.30346 2.56839 0.933678 0 0 0 0.514256 0.27203 0.238898 
314 2.7149 0.746783 1.7233 0.570733 0 0 0 0.739718 -0.292761 0.267032 
388 1.7547 1.18522 1.72428 0.334977 0 0 0 -0.686837 0.0360467 -0.442209 
315 2.63579 0.314015 1.72366 0.638917 0 0 0 0.0537957 -1.04205 -0.326269 
472 2.09293 0.870496 1.94172 0.448091 0 0 0 0.491744 -0.963427 0.346292 
483 1.82858 0.756602 2.34806 0.493682 0 0 0 0.439441 -0.869992 0.607168 
481 2.18418 0.92272 1.7832 0.441242 0 0 0 0.450475 -0.865609 0.161357 
53 1.96945 0.837131 2.09145 0.454926 0 0 0 0.523633 -1.05334 0.546349 
484 1.59689 0.907447 2.2591 0.443745 0 0 0 0.520786 -1.21089 0.880284 
384 3.3199 -0.642175 2.68997 1.13434 0 0 0 0.468075 -0.689848 0.149533 
79 1.6855 1.09274 1.92023 0.366689 0 0 0 0.137779 -0.883172 -0.419532 
492 1.57913 1.14676 1.92413 0.353494 0 0 0 0.285146 -0.824068 -0.0688329 
102 1.57313 0.883418 2.31386 0.456288 0 0 0 0.432823 -1.15591 0.886138 
353 2.07856 1.26353 2.64019 0.588625 0 0 0 -0.784872 0.43547 -1.26503 
462 2.05823 1.16867 1.5 0.374843 0 0 0 -1.12476 -0.441514 -0.00752481 
366 3.1868 0.394559 3.69955 1.11941 0 0 0 0.427857 -0.0589646 0.661262 
89 1.72107 0.843357 2.90213 0.612808 0 0 0 0.3337 0.563374 0.677292 
368 3.28497 -0.261774 3.55747 1.21014 0 0 0 0.427472 -0.424275 0.520482 
369 3.64678 0.246239 3.45704 1.1909 0 0 0 0.608273 -0.163267 0.482322 
378 2.68147 0.577426 2.86987 0.75739 0 0 0 0.589618 0.356551 0.599848 
389 2.14752 0.922799 3.36327 0.790331 0 0 0 0.301173 0.639924 0.697754 
95 1.59937 0.244863 3.84568 0.991724 0 0 0 0.0259997 -0.174656 0.844428 
373 1.65834 -0.0884532 2.8068 0.767132 0 0 0 -0.127093 -0.983983 -0.0238895 
390 2.59699 1.19522 3.71532 0.975795 0 0 0 0.204651 0.33411 0.633329 
86 1.82023 1.15322 3.19896 0.705229 0 0 0 0.23858 0.999368 0.374353 
376 2.3167 1.03751 3.19032 0.758192 0 0 0 0.302545 0.831216 0.474061 
391 3.65085 0.025405 3.455 1.22491 0 0 0 0.591526 -0.276208 0.462939 
236 1.54662 0.573474 2.76919 0.603727 0 0 0 0.00799913 -0.614123 0.469221 
379 2.2848 0.0643939 2.74732 0.757381 0 0 0 0.197688 -0.711349 0.263052 
392 3.16306 0.164083 2.91473 0.933107 0 0 0 0.561887 -0.181142 0.368107 
381 3.3365 -0.184163 3.45156 1.17626 0 0 0 0.468467 -0.388439 0.486807 
115 1.62185 0.856724 2.99927 0.635536 0 0 0 0.269748 0.566742 0.738456 
386 3.19115 1.2429 3.66152 1.08251 0 0 0 0.343948 0.202028 0.542288 
97 1.83971 0.614677 2.73121 0.599047 0 0 0 0.34177 -0.192314 0.590664 
385 2.36353 -0.0875394 3.34842 0.945011 0 0 0 0.184317 -0.438183 0.551913 
413 2.04561 3.55203 0.25629 0.937592 0 0 0 0.0167868 0.826884 0.106742 
396 3.29248 3.22369 0.0353801 1.0748 0 0 0 0.396762 0.490325 -0.151136 
417 1.86394 3.11944 -0.421516 0.938945 0 0 0 0.0259752 0.635535 -0.497438 
398 3.25695 2.67494 0.143852 0.92157 0 0 0 0.465736 0.363358 -0.0248113 
418 3.60252 2.06813 -0.0315374 0.979933 0 0 0 0.668191 0.103288 -0.26778 
400 3.51106 2.53616 -0.0693569 1.01263 0 0 0 0.566677 0.207834 -0.261322 
420 1.73365 2.37769 -0.45836 0.802556 0 0 0 0.0173845 0.149973 -0.821993 
414 2.021 2.40555 -0.00567195 0.688314 0 0 0 0.194044 0.74761 -0.386244 
416 2.84933 3.42506 -0.151608 1.0695 0 0 0 0.207374 0.61323 -0.261573 
404 3.3127 3.00275 -0.201167 1.07257 0 0 0 0.424784 0.366717 -0.332243 
415 3.39604 3.43407 0.0890919 1.15433 0 0 0 0.404622 0.538803 -0.151417 
322 1.89507 1.81396 -0.137578 0.663461 0 0 0 -0.322292 -0.680436 -0.73659 
407 3.49973 1.68272 -0.386588 1.01346 0 0 0 0.577614 0.0301455 -0.502842 
408 2.0203 1.93863 -0.607177 0.832003 0 0 0 -0.024961 -0.176075 -0.869681 
202 2.56613 1.60662 0.174907 0.644141 0 0 0 0.242811 -0.252895 -0.704199 
410 3.59069 2.9862 -0.00985013 1.11004 0 0 0 0.546406 0.338199 -0.221807 
411 1.93646 3.67859 -0.355089 1.08848 0 0 0 -0.0202915 0.765229 -0.418142 
289 2.40056 1.93837 0.244714 0.614262 0 0 0 0.514128 0.450151 -0.39014 
262 1.74618 2.1512 0.2798 0.555165 0 0 0 0.0127523 0.577673 -0.81055 
12 2.05402 1.71887 0.758048 0.438053 0 0 0 1.01317 -0.0353052 -1.31536 
419 2.13205 2.72408 0.899578 0.661815 0 0 0 -0.34287 -0.253283 0.907377 
406 2.42478 3.61753 0.659939 0.970485 0 0 0 -0.0178923 0.633409 0.325804 
5 1.83386 1.60258 1.06899 0.350518 0 0 0 0.518262 -0.00483288 -0.43935 
282 2.10938 1.7138 0.72521 0.451014 0 0 0 1.02967 -0.00762275 -1.22512 
332 2.94218 1.87249 1.48281 0.658019 0 0 0 -1.34654 0.0500806 0.272354 
273 1.97812 2.02246 0.498351 0.505725 0 0 0 0.41822 0.715738 -0.889768 
465 1.55316 1.80293 1.02061 0.35275 0 0 0 0.42362 0.413183 0.116619 
473 2.46734 1.59649 0.666436 0.518459 0 0 0 0.967307 0.00928642 -0.462028 
431 2.32608 2.05446 0.519979 0.560177 0 0 0 0.724092 0.993828 0.163058 
14 1.55419 1.93328 0.828393 0.405064 0 0 0 0.0452459 0.830622 -0.972395 
292 1.85024 1.93215 0.623209 0.458609 0 0 0 0.520286 0.633281 -1.45578 
434 2.75645 2.12253 0.776653 0.64035 0 0 0 0.27597 0.828492 0.976963 
435 2.27549 2.78876 1.36395 0.724158 0 0 0 -1.28367 -1.59753 0.0353295 
449 1.78491 1.65285 1.04032 0.351592 0 0 0 0.620126 0.0966964 -0.444111 
397 2.83484 3.18348 0.751306 0.89463 0 0 0 -0.0118824 0.462725 0.500415 
503 1.69432 1.53292 1.28279 0.296975 0 0 0 0.0870823 0.668213 -1.1753 
439 2.23607 1.68881 0.721622 0.47007 0 0 0 0.997495 -0.149413 -1.01179 
440 3.40613 2.58476 1.18372 0.890002 0 0 0 0.0148205 0.225988 0.341527 
321 3.75634 1.95026 1.30416 0.908665 0 0 0 0.522752 0.204474 0.235076 
442 2.01407 1.55506 0.987744 0.389566 0 0 0 0.846783 -0.376351 -0.68073 
280 3.36552 1.9208 0.844516 0.776134 0 0 0 0.563177 0.495325 0.46095 
409 2.06939 2.09251 1.00964 0.487096 0 0 0 -3.00219 -4.83818 -2.5089 
132 1.60202 2.67402 1.23181 0.597762 0 0 0 -0.896721 -2.878 -0.340769 
412 3.37692 2.95078 0.915981 0.958066 0 0 0 0.185455 0.354267 0.329062 
467 2.39565 1.7078 0.607565 0.518875 0 0 0 0.911707 0.184917 -0.454123 
475 1.63585 1.75674 1.01821 0.35108 0 0 0 0.571987 0.320031 -0.170042 
297 1.88583 2.11884 0.468272 0.516634 0 0 0 0.269617 0.900478 -0.810973 
258 1.88163 2.07849 0.49009 0.5058 0 0 0 0.292719 0.81914 -0.95934 
21 1.95024 1.79309 0.736998 0.433783 0 0 0 0.834998 0.192473 -1.45176 
155 1.57048 2.57305 1.0308 0.556282 0 0 0 -0.9307 -1.97377 -0.34621 
152 1.64318 3.26844 0.896393 0.775455 0 0 0 0.145052 0.320249 0.57704 
330 3.25835 2.11222 1.26292 0.765142 0 0 0 -0.227378 0.346554 0.517381 
50 2.10971 2.0188 0.461299 0.528911 0 0 0 0.523334 0.76078 -0.524152 
11 1.82699 1.65768 0.998592 0.364156 0 0 0 0.726099 0.0561205 -0.479202 
221 3.06292 2.07823 0.893004 0.704357 0 0 0 0.191741 0.675895 0.805535 
74 3.04859 1.89687 0.613137 0.697118 0 0 0 0.733952 0.698619 0.481366 
446 2.36993 1.57697 0.416042 0.551071 0 0 0 0.338401 -0.381211 -0.777631 
395 2.2081 3.17315 0.332805 0.823202 0 0 0 0.0906803 0.789285 0.380106 
259 2.6154 1.55377 0.447526 0.589885 0 0 0 0.615114 -0.13496 -0.484158 
421 3.45212 3.42163 0.54613 1.11866 0 0 0 0.35677 0.514225 0.0955131 
454 1.56662 1.58654 1.3165 0.280869 0 0 0 0.559447 0.530523 -1.02808 
46 1.85723 1.59487 1.06019 0.354939 0 0 0 0.539143 -0.0521596 -0.419169 
342 1.94864 1.51663 1.09143 0.362943 0 0 0 0.365611 -0.248071 -0.311623 
468 1.84502 1.61503 1.04262 0.356899 0 0 0 0.605107 -0.0199454 -0.435488 
3 1.71464 1.71188 1.01634 0.352865 0 0 0 0.641927 0.223076 -0.361594 
305 1.96778 2.68475 0.388913 0.661756 0 0 0 0.243353 1.21751 0.507525 
197 2.25482 2.31209 0.348899 0.622 0 0 0 0.537146 1.21492 0.278921 
405 2.37908 2.7423 0.38157 0.727044 0 0 0 0.265662 0.92239 0.602301 
401 2.75364 3.61332 0.332401 1.03903 0 0 0 0.115529 0.715405 0.107312 
13 1.5531 1.67704 1.20138 0.307974 0 0 0 0.785638 0.49179 -0.794341 
387 2.43192 1.68888 2.17912 0.610128 0 0 0 -3.3324 -1.7771 -2.95734 
482 2.51489 2.75822 2.0488 0.826888 0 0 0 -1.56771 -1.33387 -0.988767 
463 2.97196 2.60117 1.62743 0.818334 0 0 0 -1.07675 -0.446853 -0.0860611 
394 2.64218 1.6578 2.44454 0.691172 0 0 0 -1.51701 -0.0734039 -1.27243 
319 3.26548 1.82336 1.59356 0.744788 0 0 0 -0.412085 0.388321 0.342382 
500 3.11264 2.32838 2.11934 0.848985 0 0 0 -0.956527 -0.383039 -0.424586 
487 2.72996 2.14153 2.33657 0.768567 0 0 0 -1.7382 -0.88312 -1.23835 
502 2.94168 3.12339 2.45848 1.05466 0 0 0 -0.570316 -0.288448 -0.38816 
499 3.04774 2.90835 2.592 1.0427 0 0 0 -0.532278 -0.292082 -0.370329 
429 3.27854 2.24372 1.5145 0.807218 0 0 0 -0.4959 0.0821246 0.239963 
504 1.83959 1.98454 2.30364 0.597575 0 0 0 -3.80694 -5.33979 -5.67582 
383 3.18367 1.5004 2.61693 0.827666 0 0 0 -0.0343742 0.389495 0.0164117 
99 1.58531 1.59036 3.49473 0.813436 0 0 0 0.149989 0.619334 0.28384 
382 2.94579 1.66321 3.32611 0.956234 0 0 0 0.0216884 0.231198 0.173936 
374 2.17945 1.70018 3.15937 0.782232 0 0 0 -0.408967 0.359902 -0.575181 
367 2.15103 1.73257 3.16272 0.783981 0 0 0 -0.427391 0.31547 -0.617711 
512 1.68195 3.18105 2.91329 0.986988 0 0 0 -0.181806 -0.379617 -0.491418 
498 3.03601 3.15207 3.07829 1.20085 0 0 0 -0.264334 -0.140555 -0.154733 
508 2.36177 2.26392 2.93278 0.848657 0 0 0 -1.00139 -0.57209 -1.04112 
488 2.76679 3.03525 3.02365 1.10813 0 0 0 -0.447049 -0.241942 -0.294053 
100 1.61345 1.74365 3.65537 0.88614 0 0 0 0.0867501 0.432654 0.364274 
245 1.53524 1.87342 3.55191 0.862725 0 0 0 0.113813 0.405946 0.174803 
ITEM: TIMESTEP
740911
ITEM: NUMBER OF ATOMS
512
ITEM: BOX BOUNDS ss ss ss
-8.1988304040437454e-01 3.8875120101141034e+00
-9.7693552394909078e-01 3.9476017366228966e+00
-9.1281994132074906e-01 3.9096273972560476e+00
ITEM: ATOMS id x y z width_SPH x_COM y_COM z_COM vx vy vz 
263 1.46291 0.88658 -0.255341 0.797053 0 0 0 -0.184398 0.0652872 0.617644 
403 1.47176 1.28214 -0.572764 0.836227 0 0 0 -0.296156 -0.417886 -0.28162 
25 0.482322 0.121028 0.00277087 1.02263 0 0 0 0.431038 0.529145 0.569933 
279 1.31897 1.03444 -0.485 0.850874 0 0 0 -0.189062 -0.165793 0.106874 
402 1.48864 1.3275 -0.648024 0.856459 0 0 0 -0.281504 -0.409923 -0.421833 
16 0.283965 0.665579 0.148014 0.902205 0 0 0 0.586558 0.592037 0.780357 
8 0.548844 0.85156 0.116513 0.825731 0 0 0 0.734449 0.682653 1.15148 
131 1.20619 1.40826 0.666013 0.517618 0 0 0 4.80085 6.68452 7.38404 
217 -0.458205 1.32447 1.07566 0.827557 0 0 0 -0.140242 -0.412281 -0.139903 
2 -0.191096 0.578915 0.378223 0.976755 0 0 0 0.269445 0.355318 0.381142 
24 0.947302 0.538055 0.655891 0.732039 0 0 0 1.68993 2.78517 2.58759 
129 -0.0272426 1.21936 0.471864 0.809152 0 0 0 0.464926 -0.111326 0.504353 
224 -0.038181 1.2323 1.09789 0.718727 0 0 0 1.00086 -0.0777567 0.267212 
78 0.717472 0.416264 1.44599 0.684312 0 0 0 2.08597 2.94734 0.725804 
67 0.0566749 0.170701 1.35969 0.867434 0 0 0 0.646836 0.692231 0.00584228 
22 1.1096 0.782238 0.476516 0.689896 0 0 0 1.54607 2.71436 3.19755 
125 0.0919179 1.14992 0.334144 0.817638 0 0 0 0.528997 0.0431993 0.639725 
10 0.362726 0.340201 0.337049 0.920794 0 0 0 0.74322 0.865778 0.897108 
68 -0.629254 1.10997 1.49534 0.872299 0 0 0 -0.401505 -0.268311 -0.303194 
116 -0.467658 -0.224834 2.43602 1.06883 0 0 0 -0.510457 -0.413941 -0.0581853 
39 1.33122 1.26246 1.96203 0.349426 0 0 0 -0.248337 -0.393087 0.561848 
57 -0.136591 -0.184234 1.60661 0.978297 0 0 0 0.0862912 0.0850687 -0.19688 
111 1.47856 0.661582 1.94947 0.479317 0 0 0 3.0605 4.58011 2.61067 
59 0.83624 1.31492 2.27396 0.459126 0 0 0 -1.05535 -0.0553315 0.985116 
183 0.48432 1.33661 2.61271 0.586943 0 0 0 -0.675452 -0.0649952 0.479692 
80 1.06798 1.32418 2.08947 0.394888 0 0 0 -0.907441 0.0277455 0.821337 
103 -0.666445 -0.192847 2.21681 1.11079 0 0 0 -0.541731 -0.319406 -0.0821387 
63 -0.481044 0.335769 1.67077 0.939105 0 0 0 -0.201782 0.0269411 -0.274246 
64 0.692261 1.25098 1.95539 0.468147 0 0 0 1.81283 3.52176 2.44696 
65 1.41229 1.12563 2.09167 0.384751 0 0 0 0.113562 -1.07865 0.468896 
66 0.536319 -0.153302 1.5622 0.84528 0 0 0 0.649428 0.683616 -0.164179 
27 1.41507 1.3286 1.80371 0.309626 0 0 0 -0.4117 -0.394027 1.39353 
343 1.489 1.48456 1.52633 0.252367 0 0 0 0.0620391 0.0890328 -0.0237322 
69 0.578516 1.29327 2.42893 0.533071 0 0 0 -0.970048 -0.283479 0.404209 
82 0.155992 0.760114 1.618 0.699976 0 0 0 1.16224 0.799971 -0.325296 
71 0.31932 -0.0268648 1.59758 0.843495 0 0 0 0.61821 0.613293 -0.223034 
509 1.47935 1.4766 1.54574 0.254225 0 0 0 0.182461 0.0866522 -0.118279 
226 0.739726 1.28996 2.43124 0.504117 0 0 0 -0.86034 -0.174969 0.698 
511 1.41956 1.17052 2.0196 0.366042 0 0 0 0.0941454 -0.909001 0.297132 
118 0.96894 0.167098 2.50852 0.690235 0 0 0 -0.380092 -0.897092 -0.669395 
26 1.04233 1.47276 1.9123 0.366374 0 0 0 -0.425843 0.305168 0.348 
77 0.568465 0.474339 2.28659 0.658594 0 0 0 -0.193281 -0.487508 -0.8835 
92 0.62797 -0.707371 2.33072 0.983499 0 0 0 -0.0562684 -0.633959 -0.231831 
107 0.249774 0.442637 2.19695 0.724249 0 0 0 -0.0884854 -0.275271 -0.803407 
122 1.04947 0.384902 2.37967 0.613126 0 0 0 -0.286984 -0.858497 -0.736327 
94 1.18309 0.612669 2.42577 0.545582 0 0 0 -0.17297 -1.0125 -0.0157435 
247 0.952669 1.10213 2.48173 0.497486 0 0 0 -0.611975 -0.52293 0.847388 
73 1.44161 0.794434 2.54928 0.516405 0 0 0 0.060424 -0.778602 0.685163 
87 0.756023 0.283344 2.07374 0.669736 0 0 0 0.352326 0.32872 -0.886049 
84 -0.667101 1.05545 2.40897 0.902826 0 0 0 -0.847667 -0.26715 -0.18099 
507 1.18215 1.13119 2.24889 0.425769 0 0 0 -0.485938 -0.575623 1.24129 
169 1.39493 0.991801 2.28373 0.436525 0 0 0 0.175032 -1.07741 1.11092 
85 0.770573 -0.606564 1.99598 0.927263 0 0 0 0.0904869 -0.341422 -0.356415 
371 1.36018 0.868791 2.51444 0.500146 0 0 0 -0.0253401 -0.821006 0.806192 
448 0.609028 1.28907 1.89855 0.483827 0 0 0 1.71748 3.1673 1.99169 
328 0.993107 0.774306 2.21876 0.511074 0 0 0 0.604126 0.591851 0.631531 
112 0.973457 1.266 2.22439 0.433458 0 0 0 -0.947495 -0.0536067 1.19692 
40 0.542473 1.29074 2.42961 0.540918 0 0 0 -0.994525 -0.331604 0.322539 
496 1.48485 1.48105 1.5348 0.253068 0 0 0 0.119667 0.0927069 -0.0759674 
42 1.22246 1.29781 2.00115 0.36285 0 0 0 -0.557285 -0.188941 0.501095 
237 1.11561 1.25582 2.14125 0.402221 0 0 0 -0.810575 -0.184011 0.983566 
494 1.38749 1.19011 2.01749 0.364347 0 0 0 -0.0150808 -0.801495 0.35723 
181 0.316505 1.14153 2.56082 0.627435 0 0 0 -0.957852 -0.73206 -0.085485 
81 -0.121094 -0.621642 2.09638 1.08733 0 0 0 -0.197001 -0.422685 -0.131278 
83 1.18469 -0.506682 2.52988 0.870694 0 0 0 -0.142374 -0.821279 -0.30991 
232 0.998009 1.0124 2.54916 0.515984 0 0 0 -0.467546 -0.616716 0.771123 
93 -0.50815 0.84491 2.0297 0.851663 0 0 0 -0.540531 -0.298774 -0.444178 
61 1.51203 0.359923 1.94817 0.566534 0 0 0 0.589517 1.39729 -0.113202 
349 1.50386 -0.381651 1.57127 0.808644 0 0 0 -0.129204 0.234026 -0.291415 
253 1.16405 1.08586 2.3957 0.460848 0 0 0 -0.611594 -0.907085 0.937612 
193 -0.727527 1.42163 1.5528 0.877435 0 0 0 -0.696349 -0.372888 -0.303494 
506 1.46209 1.27675 1.83871 0.320016 0 0 0 -0.221629 -0.637796 0.942455 
44 -0.248203 1.37176 1.89732 0.712932 0 0 0 -0.599136 -0.717586 -0.652018 
32 1.23784 1.37168 1.88978 0.336998 0 0 0 -0.418143 -0.0104507 0.780271 
493 1.20601 1.42553 1.84333 0.331297 0 0 0 -0.251696 0.0106904 0.833575 
9 1.40198 1.32545 1.82112 0.313665 0 0 0 -0.524621 -0.595553 1.18538 
218 1.31593 1.40023 1.78917 0.309641 0 0 0 -0.538568 -0.471013 1.28606 
200 -0.243768 1.45154 1.90837 0.706229 0 0 0 -0.689982 -0.735858 -0.61424 
486 1.31685 1.26322 1.98199 0.354056 0 0 0 0.425178 0.778882 1.35037 
98 0.192043 0.50597 2.67418 0.762682 0 0 0 -0.547798 -0.679276 -0.319398 
113 1.36474 -0.767752 2.84603 0.993318 0 0 0 -0.0519127 -0.87764 0.0551761 
114 -0.662816 0.667393 3.0988 1.0467 0 0 0 -0.730338 -0.208072 0.292162 
108 0.827866 -0.375045 3.19939 0.967028 0 0 0 -0.179656 -0.683321 0.269365 
163 0.568721 0.925252 2.79803 0.645967 0 0 0 -0.629 -0.71472 0.303392 
60 0.824458 1.36372 3.15257 0.691633 0 0 0 0.333307 0.629415 0.835943 
117 0.983524 0.117898 3.70191 0.978818 0 0 0 -0.129096 -0.308783 0.718554 
51 0.407866 1.42257 2.78812 0.642071 0 0 0 -0.346609 0.249815 0.656781 
88 1.42973 0.53892 3.6292 0.869877 0 0 0 0.00638535 0.0152741 0.894947 
109 -0.521006 -0.195164 3.25587 1.19582 0 0 0 -0.57524 -0.438261 0.393265 
90 -0.819592 0.596006 2.78624 1.05283 0 0 0 -0.798717 -0.216511 0.112031 
91 0.794654 1.1685 3.90934 0.962242 0 0 0 -0.00640092 0.133374 0.95155 
227 1.33614 1.35544 2.76354 0.562285 0 0 0 -0.093667 0.239758 -0.63791 
438 0.692843 1.45414 3.02107 0.665648 0 0 0 0.310292 0.681403 0.831899 
119 0.719813 0.0526597 3.43824 0.932509 0 0 0 -0.230063 -0.438123 0.511974 
430 1.20337 0.667932 2.80486 0.606694 0 0 0 -0.284874 -0.688801 0.484977 
96 1.21336 -0.443184 3.49593 1.03711 0 0 0 -0.058092 -0.627555 0.49801 
121 -0.478879 0.852546 3.15732 0.981831 0 0 0 -0.686125 -0.196809 0.337562 
110 0.000529055 -0.178567 2.91004 0.989031 0 0 0 -0.41565 -0.545738 0.0950886 
120 -0.757145 1.33216 2.86286 0.982957 0 0 0 -0.855546 -0.0638513 0.192641 
104 0.101179 -0.598303 3.21263 1.14763 0 0 0 -0.345983 -0.642432 0.341686 
101 0.537347 0.503479 3.11842 0.786337 0 0 0 -0.405484 -0.525514 0.336952 
238 1.23272 1.23413 2.83499 0.574662 0 0 0 0.182204 0.586739 0.304318 
123 -0.316982 2.86792 -0.6917 1.18977 0 0 0 -0.540351 0.329792 -0.659826 
159 0.397832 3.05213 -0.625381 1.0548 0 0 0 -0.285729 0.503082 -0.690787 
142 1.18785 3.80509 -0.0596158 1.05791 0 0 0 -0.10636 0.892016 -0.316703 
126 -0.54127 3.21741 0.184412 1.10843 0 0 0 -0.644984 0.551742 -0.319699 
127 0.805512 2.06304 -0.832079 0.949852 0 0 0 -0.270566 -0.262301 -0.886202 
158 0.896477 2.14782 -0.502454 0.82535 0 0 0 -0.343758 -0.410895 -0.87408 
143 -0.162421 2.51389 -0.788984 1.13562 0 0 0 -0.507485 0.116802 -0.735193 
149 1.11663 2.1868 -0.91253 0.958566 0 0 0 -0.152838 -0.115958 -0.939894 
151 1.36321 3.3662 0.288898 0.844522 0 0 0 0.030216 0.959221 0.0450203 
274 1.33477 2.01645 -0.0268026 0.636669 0 0 0 -0.366981 -0.743714 -0.66389 
157 0.013444 1.643 0.128941 0.821068 0 0 0 -0.211145 -0.666845 -0.103409 
156 -0.609023 1.93331 -0.650122 1.19061 0 0 0 -0.599162 -0.0660175 -0.549866 
130 0.986176 2.15088 0.267696 0.593013 0 0 0 -0.524973 -0.340118 -0.635055 
148 0.698616 1.49459 -0.232561 0.79159 0 0 0 -0.0750522 -0.610819 0.0774036 
137 -0.708155 2.86987 0.246401 1.07807 0 0 0 -0.787231 0.323151 -0.310883 
138 0.424978 2.62752 -0.593775 0.963029 0 0 0 -0.356608 0.182125 -0.803853 
141 0.160033 1.99701 -0.415253 0.914396 0 0 0 -0.476575 -0.434296 -0.672664 
140 0.862151 2.60215 -0.809078 0.979755 0 0 0 -0.192278 0.196979 -0.875625 
443 1.31898 2.08521 0.116082 0.599074 0 0 0 -0.363285 -0.42817 -0.737849 
444 1.48154 2.23981 0.0627886 0.620899 0 0 0 -0.259584 0.134151 -0.78708 
136 1.03226 1.8917 0.22151 0.597169 0 0 0 -0.149026 -0.793356 0.0686946 
268 1.46276 2.00807 0.113338 0.589759 0 0 0 -0.280082 -0.513155 -0.711824 
146 0.824177 2.05114 0.253744 0.615592 0 0 0 -0.451221 -0.790402 -0.379418 
180 0.816325 2.50705 0.789624 0.565311 0 0 0 -0.422057 1.23142 -0.299282 
190 0.821829 3.2916 1.17401 0.773672 0 0 0 0.338229 0.751392 0.367135 
178 -0.546731 3.08541 1.13917 0.974058 0 0 0 -0.646031 0.581693 -0.0204873 
220 0.899085 2.23259 1.45457 0.460911 0 0 0 -1.92838 -2.57327 -1.96292 
189 1.01702 2.26103 0.8146 0.487549 0 0 0 -0.947691 1.11266 -0.606404 
165 1.0488 2.30437 0.745471 0.502532 0 0 0 -0.824679 1.15659 -0.661836 
128 1.38576 3.34334 1.2518 0.793523 0 0 0 0.238323 -0.0104507 0.379254 
185 0.700685 3.36967 1.30718 0.807796 0 0 0 0.306444 0.749872 0.317375 
168 0.779368 2.05424 1.00595 0.471616 0 0 0 -0.205852 1.53652 0.706506 
186 -0.767692 1.72337 0.481583 0.983527 0 0 0 -0.740663 -0.285031 -0.211636 
170 0.556745 2.28227 0.547184 0.609204 0 0 0 -0.639468 -0.127175 -0.555097 
171 0.284592 3.56152 0.91582 0.929534 0 0 0 -0.124108 0.922013 0.0251781 
175 -0.673985 2.64647 1.34235 0.922312 0 0 0 -0.83817 0.285623 -0.0589407 
124 0.94652 2.13444 1.0301 0.448057 0 0 0 -1.03379 1.02045 -0.156162 
187 -0.34197 2.06188 0.38116 0.853129 0 0 0 -0.732667 -0.502039 -0.361229 
134 1.44029 2.99975 0.715257 0.686524 0 0 0 0.237596 0.772266 0.575619 
198 1.10454 2.48527 1.32489 0.519697 0 0 0 -1.07308 -2.5253 -1.23745 
426 1.5256 1.8097 1.03414 0.350827 0 0 0 0.374486 0.399532 0.236672 
147 1.22189 1.9207 1.15986 0.365564 0 0 0 -0.681838 -0.612797 0.427562 
133 1.04449 2.31189 0.324247 0.5881 0 0 0 -0.518671 0.365604 -0.734297 
188 0.398834 2.22613 0.467433 0.652191 0 0 0 -0.608941 -0.528035 -0.525449 
20 1.4012 1.64926 1.36986 0.284344 0 0 0 1.58825 -0.491116 -0.210206 
216 -0.0737762 2.3515 1.33666 0.682756 0 0 0 -0.676886 0.162995 -0.232997 
206 -0.717433 1.91108 1.19379 0.87957 0 0 0 -0.88094 -0.367044 -0.250326 
154 -0.280087 3.2078 0.526567 0.978397 0 0 0 -0.533206 0.672512 -0.188911 
144 1.30247 2.01087 0.912943 0.407616 0 0 0 -0.672947 1.05411 -0.238524 
423 1.18173 2.03443 0.97732 0.411239 0 0 0 -0.851502 1.06105 0.0833859 
135 -0.226251 3.12139 0.410253 0.958208 0 0 0 -0.535676 0.632118 -0.247139 
192 0.529697 2.18854 0.465838 0.623393 0 0 0 -0.590023 -0.541609 -0.501834 
194 0.171582 2.21543 0.651671 0.670489 0 0 0 -0.636137 -0.56828 -0.480125 
196 0.990078 2.89059 1.10309 0.6406 0 0 0 0.388183 0.633297 0.41903 
203 0.532328 2.55461 0.541053 0.655193 0 0 0 -0.461121 0.623908 -0.448616 
150 1.41057 1.88552 0.988739 0.370978 0 0 0 2.87512 5.46749 3.79381 
214 -0.071102 1.80496 0.791841 0.711167 0 0 0 -0.190307 -1.00773 -0.172944 
425 1.42104 1.95118 0.905406 0.394388 0 0 0 -0.268508 0.944258 -0.302391 
48 0.228426 2.29404 0.623424 0.667389 0 0 0 -0.652878 -0.340603 -0.50961 
162 1.52738 1.51565 1.44982 0.254791 0 0 0 -0.400388 0.113611 0.320325 
177 0.870217 1.99606 1.31465 0.416624 0 0 0 -0.428206 0.917048 0.359036 
139 0.901011 3.94731 0.7486 1.02061 0 0 0 -0.0239488 0.90877 -0.0296511 
461 1.38948 1.75363 1.23162 0.316837 0 0 0 0.78889 0.0388586 0.353697 
210 0.261614 2.17599 0.847567 0.615998 0 0 0 -0.594655 -0.510674 -0.434905 
480 1.02344 2.02373 1.13292 0.409867 0 0 0 -0.664224 0.947478 0.473148 
28 1.05076 1.83854 1.404 0.360318 0 0 0 0.745287 0.12265 0.746474 
489 0.558856 2.27472 1.21427 0.519892 0 0 0 -0.640119 0.853602 -0.177991 
4 1.22244 1.72084 1.42292 0.315215 0 0 0 1.31361 -0.333605 0.539245 
19 1.14084 2.47426 0.428796 0.585357 0 0 0 -0.345456 1.10185 -0.529103 
336 0.479588 2.37429 1.18931 0.555285 0 0 0 -0.451995 0.940821 -0.147877 
469 1.0405 2.01731 1.12835 0.406967 0 0 0 -0.641776 0.936093 0.520251 
308 0.417196 2.38388 1.20765 0.568906 0 0 0 -0.422058 0.883012 -0.1444 
15 1.22459 1.8628 1.21612 0.350381 0 0 0 0.329908 0.109507 1.24238 
424 1.33272 2.62683 0.397188 0.618367 0 0 0 -0.0725473 1.29742 -0.162128 
7 1.3725 2.12814 0.709271 0.457158 0 0 0 -0.584523 1.11292 -1.1671 
174 1.2968 1.80757 1.23498 0.332179 0 0 0 0.57349 -0.124919 0.946687 
6 1.09485 1.81937 1.39359 0.350538 0 0 0 0.88593 -0.0217631 0.820565 
458 0.509355 2.15863 1.40969 0.503689 0 0 0 -0.692751 0.732863 -0.0556144 
433 1.53014 1.83936 0.985042 0.363363 0 0 0 0.317861 0.587869 0.0928318 
437 1.46749 2.04176 0.748706 0.434919 0 0 0 -0.336986 1.01704 -1.23245 
153 1.27972 1.81894 1.23333 0.335818 0 0 0 0.531867 -0.101142 1.03876 
286 1.4825 2.02989 0.753379 0.432209 0 0 0 -0.289569 0.996483 -1.23878 
195 0.960329 1.93964 1.32812 0.392722 0 0 0 -0.00427951 0.669687 0.653972 
399 1.51635 1.93623 0.866645 0.397931 0 0 0 -0.429842 0.21916 -1.13925 
354 0.503416 2.10105 1.49637 0.495891 0 0 0 -0.74104 0.714507 0.0203479 
372 1.50625 1.49957 1.49052 0.251512 0 0 0 -0.213086 0.0451114 0.264241 
164 0.232474 1.81997 1.47903 0.555412 0 0 0 -0.187136 -0.251035 -0.150817 
17 1.50459 1.49817 1.49392 0.25144 0 0 0 -0.18817 0.0475388 0.240354 
52 0.953886 1.86576 1.44846 0.38025 0 0 0 0.395438 0.462935 0.490561 
145 0.944092 3.68323 0.319779 0.962026 0 0 0 -0.0697383 0.942565 -0.136533 
256 0.558352 2.11604 1.73864 0.496381 0 0 0 -0.760185 0.519722 0.0905704 
495 1.04309 1.64388 1.68229 0.346148 0 0 0 0.726302 0.284256 0.134206 
248 0.868784 1.5629 1.93386 0.401682 0 0 0 -0.73418 0.724742 0.574574 
43 0.14892 2.31439 1.81883 0.623841 0 0 0 -0.186923 0.906593 0.49135 
76 0.906802 1.57911 1.88405 0.389079 0 0 0 -0.518136 0.64649 0.347124 
450 0.85448 1.64817 1.83468 0.397155 0 0 0 -0.471573 0.832892 0.328217 
166 1.19151 3.39112 1.71318 0.833435 0 0 0 0.311556 -0.187266 0.0847979 
70 0.975127 2.32045 2.30292 0.608759 0 0 0 0.374728 -1.55697 -1.46658 
199 -0.16399 2.48213 2.51655 0.815893 0 0 0 -0.221973 0.751755 0.499417 
223 -0.31371 3.51998 2.20263 1.0656 0 0 0 -0.343003 0.730765 0.185291 
201 -0.0322998 3.01379 1.68138 0.815638 0 0 0 -0.0812829 0.978494 0.267414 
243 0.900445 2.03173 2.39423 0.562182 0 0 0 0.102913 -1.11851 -1.3564 
191 0.402003 2.14628 2.61254 0.667709 0 0 0 0.537583 1.16209 0.686816 
204 0.494255 3.83159 2.13436 1.03917 0 0 0 0.0831336 0.663338 0.133744 
49 0.76942 1.87246 1.59107 0.41737 0 0 0 -0.388034 1.00498 0.294929 
160 0.914954 1.82328 1.54462 0.382719 0 0 0 0.276251 0.470579 0.187879 
207 0.786905 2.75747 2.50756 0.754782 0 0 0 0.726067 0.142257 -0.116923 
208 1.03098 2.39113 1.63947 0.518104 0 0 0 -1.29654 -4.15682 -2.32206 
209 0.529458 2.20089 1.58261 0.507846 0 0 0 -0.583183 0.778395 0.0883496 
447 0.197364 2.26425 2.14673 0.63912 0 0 0 0.0857933 1.11294 0.777275 
211 0.711172 3.69218 1.79547 0.943618 0 0 0 0.228619 0.561472 0.152191 
212 0.655029 3.2858 1.83326 0.812309 0 0 0 0.469027 0.508439 0.273225 
213 0.0678189 3.4769 2.25792 0.980739 0 0 0 -0.0320997 0.748334 0.229374 
490 1.46128 1.49805 1.53103 0.253855 0 0 0 1.29257 -0.711428 0.128685 
215 0.794993 3.88391 2.27497 1.06152 0 0 0 0.148998 0.502783 0.0716841 
184 1.5004 1.49456 1.50257 0.251402 0 0 0 -0.1216 0.0573912 0.171731 
55 0.266691 2.26505 1.5319 0.574507 0 0 0 -0.404432 0.671155 0.0856372 
505 0.36112 1.60465 2.26191 0.54876 0 0 0 -0.983742 0.180603 0.294866 
255 1.2108 2.61049 2.17652 0.668964 0 0 0 0.0489829 -2.31919 -1.57546 
479 0.0168454 2.36861 2.04038 0.686485 0 0 0 -0.170009 0.92034 0.583071 
173 -0.124527 1.91621 1.83532 0.659827 0 0 0 -0.837768 -0.402897 -0.215159 
318 0.349877 1.78872 2.07953 0.53486 0 0 0 -0.899065 0.413724 0.36045 
54 0.430623 1.94053 1.8001 0.502878 0 0 0 -0.875968 0.60226 0.284625 
34 0.259994 2.18276 1.85537 0.577329 0 0 0 -0.275849 0.845152 0.514604 
172 0.165968 2.12749 1.58858 0.582572 0 0 0 -0.604322 0.131446 -0.0734989 
229 1.0813 2.33349 2.5338 0.661709 0 0 0 0.497527 -1.05238 -1.40598 
234 1.04409 1.64646 1.67795 0.345828 0 0 0 0.744755 0.277149 0.135752 
252 1.1575 1.61768 1.62227 0.318148 0 0 0 1.06403 -0.250317 0.524574 
235 1.04832 1.62 1.71022 0.345715 0 0 0 0.625915 0.2891 0.162299 
29 0.843075 1.72178 1.74556 0.396693 0 0 0 -0.258894 0.877915 0.21611 
513 0.6607 1.56778 2.09004 0.460311 0 0 0 -1.20291 0.513732 0.742844 
241 1.06009 1.60521 1.72045 0.343451 0 0 0 0.600543 0.255479 0.207056 
38 0.320521 1.7588 2.2745 0.566247 0 0 0 -0.693102 0.511561 0.471371 
35 0.252087 1.76159 2.40264 0.603925 0 0 0 -0.543941 0.556803 0.510701 
30 0.500215 1.66022 2.12088 0.499529 0 0 0 -1.10768 0.440831 0.496611 
239 -0.586849 2.64441 2.57886 0.974137 0 0 0 -0.577179 0.458324 0.298063 
233 0.904611 1.60662 1.8497 0.38676 0 0 0 -0.399376 0.669487 0.256666 
75 0.829569 1.66228 1.83747 0.403137 0 0 0 -0.564218 0.86761 0.365806 
219 1.50021 1.49439 1.50297 0.251406 0 0 0 -0.118421 0.0579493 0.16833 
167 1.5004 1.49455 1.50259 0.251402 0 0 0 -0.121462 0.0574153 0.171584 
466 1.5002 1.49437 1.503 0.251406 0 0 0 -0.118193 0.0579896 0.168085 
471 1.50021 1.49439 1.50297 0.251406 0 0 0 -0.118465 0.0579415 0.168377 
36 1.50029 1.49445 1.50282 0.251404 0 0 0 -0.11964 0.0577349 0.169635 
278 1.50195 1.4959 1.49935 0.251391 0 0 0 -0.146748 0.0532172 0.1983 
37 1.50089 1.49497 1.50157 0.251396 0 0 0 -0.129514 0.0560965 0.180068 
58 1.50159 1.49559 1.5001 0.251391 0 0 0 -0.141003 0.0542238 0.192158 
47 1.07811 1.75571 1.49969 0.343428 0 0 0 1.02035 -0.136293 0.347786 
477 1.50167 1.49566 1.49993 0.251391 0 0 0 -0.142223 0.0539345 0.193568 
355 1.50134 1.49537 1.50062 0.251392 0 0 0 -0.136833 0.0548094 0.187901 
334 1.50104 1.49511 1.50125 0.251394 0 0 0 -0.13193 0.0556234 0.182721 
476 1.50097 1.49505 1.50139 0.251395 0 0 0 -0.130858 0.0558036 0.181585 
179 1.50089 1.49498 1.50157 0.251396 0 0 0 -0.12945 0.0560413 0.180092 
222 1.50059 1.49472 1.50218 0.251399 0 0 0 -0.124611 0.0568687 0.174945 
302 1.50066 1.49478 1.50205 0.251398 0 0 0 -0.125699 0.0566815 0.176103 
176 1.50066 1.49478 1.50204 0.251398 0 0 0 -0.125759 0.0566711 0.176168 
225 0.922808 2.39725 3.41234 0.888287 0 0 0 0.373678 0.377011 0.311793 
106 0.302738 2.02714 3.35323 0.857239 0 0 0 0.120782 0.569722 0.780079 
249 -0.498559 2.47087 2.81671 0.959171 0 0 0 -0.536696 0.431532 0.394128 
228 -0.108656 3.23446 3.60257 1.22453 0 0 0 -0.281625 0.494537 0.579481 
254 -0.486118 2.76307 3.5122 1.1744 0 0 0 -0.471143 0.385431 0.584946 
230 0.506969 3.71141 2.9996 1.13779 0 0 0 0.0269038 0.555011 0.264727 
231 0.569902 2.2762 3.57917 0.935087 0 0 0 0.214648 0.457917 0.686146 
242 0.544175 2.40527 3.25163 0.856902 0 0 0 0.388555 0.605936 0.516845 
246 -0.356551 2.01124 3.52011 1.04153 0 0 0 -0.460427 0.227393 0.669544 
464 0.277935 1.66566 2.73314 0.660816 0 0 0 -0.253221 0.60073 0.67341 
205 0.789504 1.62297 3.04756 0.674937 0 0 0 0.588788 0.903105 0.639754 
251 0.368726 3.45847 3.03809 1.07462 0 0 0 0.0473264 0.574828 0.33176 
105 -0.172733 1.52945 3.72936 1.04181 0 0 0 -0.383883 0.0755033 0.777716 
250 0.796414 3.13054 3.39931 1.05192 0 0 0 0.168005 0.346696 0.318553 
244 1.25516 2.37352 3.45388 0.901675 0 0 0 0.225143 0.194188 0.0630299 
240 -0.316576 3.69298 3.4091 1.33894 0 0 0 -0.398569 0.57429 0.443187 
257 3.62637 1.21803 -0.278448 1.02737 0 0 0 0.662288 -0.0959361 -0.447612 
441 1.86626 1.15928 0.0293886 0.661003 0 0 0 -0.675388 -0.369673 0.60155 
288 3.67371 0.857922 0.0530729 0.991892 0 0 0 0.717088 -0.235555 -0.334331 
260 3.1323 0.827984 -0.609112 1.0191 0 0 0 0.33384 -0.274314 -0.675073 
261 3.52398 -0.100124 0.154681 1.093 0 0 0 0.502731 -0.634773 -0.330557 
276 2.55308 0.780199 -0.320847 0.838314 0 0 0 -0.251421 -0.56676 -0.547735 
427 2.22869 1.08024 0.20878 0.632711 0 0 0 -0.822424 -0.713988 -0.1018 
285 1.77615 0.218844 -0.0315118 0.864556 0 0 0 -0.185613 0.1453 0.517839 
436 2.35116 1.42219 -0.0512668 0.678326 0 0 0 -0.406541 -0.673955 -0.734149 
266 2.66025 0.936351 -0.843422 1.00718 0 0 0 0.0635739 -0.22377 -0.783957 
267 3.03037 0.608854 -0.0398075 0.865181 0 0 0 0.159059 -0.643754 -0.506132 
293 2.10191 1.07615 -0.870523 0.957153 0 0 0 -0.174108 -0.223625 -0.718732 
269 2.55512 0.9497 -0.706882 0.943088 0 0 0 -0.0495117 -0.288852 -0.743546 
270 2.46766 0.612225 -0.432209 0.891627 0 0 0 -0.223505 -0.523986 -0.496714 
271 3.23129 -0.579428 -0.176077 1.23192 0 0 0 0.360719 -0.692757 -0.376335 
272 1.6467 0.823013 0.128499 0.702439 0 0 0 -0.205701 0.701039 1.55322 
284 2.04211 0.324121 -0.432477 0.93621 0 0 0 -0.243782 -0.335187 -0.149028 
290 2.38962 -0.690835 -0.214172 1.17656 0 0 0 0.0652828 -0.547441 -0.230049 
291 3.16121 0.334525 -0.492721 1.06555 0 0 0 0.325713 -0.499015 -0.575625 
294 3.06872 0.327587 0.682212 0.794008 0 0 0 0.101738 -0.942259 -0.433147 
23 1.96012 1.40534 1.23483 0.34908 0 0 0 -0.599574 -0.217169 0.0857742 
453 2.93383 0.913308 1.3622 0.602812 0 0 0 0.732844 -0.100562 0.132449 
18 1.90808 1.36094 1.34067 0.333036 0 0 0 -1.25071 0.0130964 0.295401 
298 2.04666 1.34271 1.25147 0.36717 0 0 0 -0.540409 -0.421629 0.0781932 
299 2.9192 0.965586 1.15319 0.600933 0 0 0 0.695803 -0.293998 -0.119144 
451 2.12579 1.28905 1.26587 0.385298 0 0 0 -0.254694 -0.637363 -0.0746647 
301 3.70182 0.535436 1.4268 0.90041 0 0 0 0.879138 -0.217166 0.0446003 
264 2.45149 0.855533 0.620128 0.597321 0 0 0 -0.523684 -0.843215 -0.416916 
445 2.28053 1.21986 1.24788 0.423471 0 0 0 0.555512 -0.751877 -0.30729 
304 2.19732 1.11983 1.14348 0.431071 0 0 0 2.27658 2.78703 2.37246 
41 2.8642 0.991064 0.872285 0.609243 0 0 0 0.493115 -0.66989 -0.497229 
306 1.9942 1.20525 1.4957 0.358719 0 0 0 -1.55158 -0.175238 0.0555734 
307 2.07213 1.04497 1.19276 0.42549 0 0 0 3.78029 7.11443 5.71602 
277 2.64746 1.39933 0.721808 0.548758 0 0 0 0.848652 -0.164894 -0.410679 
309 3.42367 0.409368 1.28612 0.825453 0 0 0 0.70541 -0.507593 -0.108071 
310 2.04762 -0.00926058 1.06794 0.725923 0 0 0 -0.566281 0.412278 0.0785036 
311 2.88347 1.04323 0.92548 0.602774 0 0 0 0.627632 -0.456705 -0.367872 
341 2.75568 1.06758 0.733259 0.594094 0 0 0 0.363317 -0.793566 -0.668194 
432 2.74185 1.44695 0.883124 0.554669 0 0 0 0.863027 0.249311 0.0388685 
161 2.00056 1.43223 1.16426 0.363504 0 0 0 -0.069985 -0.338629 -0.117098 
182 2.69528 1.32605 0.523282 0.596684 0 0 0 0.459726 -0.519087 -0.6229 
316 2.92723 -0.308183 0.756849 0.924409 0 0 0 0.0547614 -0.866022 -0.307164 
317 3.34937 0.0147964 0.768078 0.924396 0 0 0 0.394662 -0.767698 -0.282423 
275 3.40929 -0.820404 0.709983 1.195 0 0 0 0.43001 -0.788075 -0.184209 
33 2.6597 0.845097 1.48871 0.537871 0 0 0 0.73128 -0.584734 0.0577025 
320 1.86541 0.037524 0.931897 0.734206 0 0 0 -0.348814 1.04576 0.599284 
72 2.19326 1.16819 1.39318 0.403132 0 0 0 -0.136035 -0.769882 -0.0247589 
265 1.93826 -0.369082 0.732909 0.882172 0 0 0 -0.204926 0.0533011 0.157722 
501 2.42645 1.15684 1.21413 0.460775 0 0 0 0.925134 -0.612861 -0.326067 
56 2.5703 0.702994 0.532528 0.656287 0 0 0 -0.587875 -1.04466 -0.472251 
325 2.33715 1.10413 1.34222 0.44066 0 0 0 0.761433 -0.60119 0.0305368 
287 2.41139 -0.366533 0.55564 0.915703 0 0 0 -0.190788 -0.554725 -0.138699 
327 3.3612 1.24899 1.48976 0.729281 0 0 0 0.602875 0.610933 0.465248 
329 1.95982 0.208861 1.14449 0.655287 0 0 0 -0.514449 1.36131 0.567941 
428 2.78132 0.813918 1.48194 0.571735 0 0 0 0.696742 -0.434566 0.0856707 
31 2.45657 0.720513 0.487635 0.649594 0 0 0 -0.729154 -0.86222 -0.283695 
283 1.78567 0.844256 0.902922 0.529946 0 0 0 2.21415 7.11631 5.72867 
326 2.4987 1.10644 1.22629 0.479725 0 0 0 0.91776 -0.587053 -0.275425 
470 3.20794 1.21786 1.38465 0.675378 0 0 0 0.604948 0.650655 0.479887 
313 2.78303 0.837263 1.4233 0.569371 0 0 0 0.688852 -0.46975 0.0305077 
457 1.88295 1.3176 1.42382 0.328056 0 0 0 -1.575 0.173228 0.32534 
455 2.09929 1.46729 1.04026 0.396736 0 0 0 0.737338 -0.566961 -0.644782 
422 2.35313 1.29626 1.08161 0.446572 0 0 0 1.03423 -0.563851 -0.623596 
456 2.55983 0.341737 1.38463 0.628052 0 0 0 -0.349841 -1.08265 -0.530431 
474 1.85407 1.41999 1.30336 0.322766 0 0 0 -0.756399 0.168617 0.00895454 
300 3.62897 -0.222315 1.47508 1.02441 0 0 0 0.628927 -0.628304 -0.0936774 
478 2.35707 1.45326 0.867209 0.466213 0 0 0 1.20531 -0.344432 -0.812685 
340 1.70263 1.43604 1.41147 0.286352 0 0 0 -0.96891 0.607019 -0.388347 
281 1.70783 0.00684012 0.314211 0.851726 0 0 0 -0.0686817 0.525067 0.736437 
333 2.95213 0.625803 2.57619 0.753147 0 0 0 0.713179 0.39876 0.502304 
323 1.96024 1.06257 1.74773 0.38267 0 0 0 -0.574142 -0.518607 -0.531189 
335 2.66602 0.847272 2.44811 0.646092 0 0 0 0.592454 0.832704 0.530764 
491 1.78687 1.17972 1.7055 0.338069 0 0 0 -0.880257 0.102079 -0.515847 
337 2.05362 -0.945719 1.91696 0.993527 0 0 0 -0.0302134 -0.872246 -0.198424 
338 3.03182 0.240148 2.16305 0.772453 0 0 0 0.621383 -0.400483 0.185026 
339 1.79311 0.243016 1.69179 0.597999 0 0 0 -0.162318 1.31184 -0.0847344 
370 1.65925 -0.976646 2.59511 1.0346 0 0 0 -0.00371761 -0.913977 -0.0049838 
452 2.42607 0.244134 1.74989 0.624613 0 0 0 -0.262871 -1.0464 -0.48904 
295 2.09994 0.574216 2.39619 0.55971 0 0 0 0.422659 -0.554889 0.449804 
296 2.19624 1.05237 1.56909 0.416345 0 0 0 0.0525296 -0.767542 0.00172282 
344 2.37282 0.960805 1.94511 0.493171 0 0 0 0.0946676 -0.747962 -0.194965 
345 3.40708 1.06476 2.12277 0.795708 0 0 0 0.617722 0.51387 0.408951 
346 2.01393 0.960276 1.86444 0.415939 0 0 0 0.21256 -0.860715 0.00199702 
364 1.68475 1.12266 1.87406 0.355485 0 0 0 0.0337466 -0.642977 -0.441161 
348 3.88722 1.46542 2.1892 0.984172 0 0 0 0.623113 0.145073 0.180692 
331 2.11756 0.99595 1.72374 0.415841 0 0 0 0.0795606 -0.764325 -0.06013 
350 2.36019 -0.0946 1.6119 0.719203 0 0 0 -0.476419 -0.847103 -0.611072 
351 1.77259 1.23309 1.64011 0.323702 0 0 0 -1.06183 0.264752 -0.192664 
352 2.46184 0.668521 2.2626 0.582331 0 0 0 0.676368 0.0572988 0.582556 
363 2.55574 -0.637617 2.03573 0.923297 0 0 0 0.0626239 -0.99319 -0.189398 
45 1.68419 1.14929 1.83489 0.346042 0 0 0 -0.0692465 -0.451718 -0.387537 
365 1.6938 0.222906 2.39009 0.619914 0 0 0 -0.246741 -1.20419 -0.52244 
356 3.26093 1.43479 2.49167 0.819986 0 0 0 0.0772219 0.442799 0.108642 
357 2.16287 1.08651 2.24832 0.502368 0 0 0 -1.19519 -1.26627 -1.34786 
358 2.14802 0.666399 2.60498 0.595297 0 0 0 0.560594 0.181446 0.638788 
359 3.56757 -0.600346 2.21029 1.1353 0 0 0 0.571197 -0.671617 0.0263313 
360 1.95003 0.186198 2.18312 0.617076 0 0 0 -0.299116 -1.06729 -0.548392 
361 2.06205 -0.717426 1.53364 0.916867 0 0 0 -0.165973 -0.667975 -0.288182 
362 2.41713 0.274355 1.96776 0.62137 0 0 0 -0.0196183 -1.05123 -0.266857 
460 1.97019 1.14592 1.60674 0.364136 0 0 0 -1.3318 -0.186394 -0.368054 
303 2.32215 1.05424 1.64056 0.44636 0 0 0 -0.24384 -1.64992 -0.782119 
393 1.97008 -0.328915 2.07153 0.770047 0 0 0 -0.341789 -0.895128 -0.523351 
324 2.45377 0.691631 1.9828 0.539928 0 0 0 0.658959 -0.44721 0.399854 
312 3.14154 1.31987 1.96637 0.699457 0 0 0 -0.0356219 0.799501 0.326169 
375 1.7987 0.918467 2.0944 0.426673 0 0 0 0.572537 -1.16246 0.509437 
459 2.65914 0.457163 1.80806 0.612562 0 0 0 0.369616 -0.819329 -0.0486492 
62 1.74291 1.05769 1.9291 0.377705 0 0 0 0.103605 -0.931143 -0.414981 
380 2.33975 0.664182 2.34272 0.573092 0 0 0 0.614352 -0.00927875 0.600962 
485 1.68786 1.16813 1.80446 0.339539 0 0 0 -0.171964 -0.322458 -0.330669 
510 2.07899 0.97914 1.78211 0.415851 0 0 0 0.124262 -0.791899 -0.0554787 
497 1.81804 0.609487 2.48231 0.542849 0 0 0 0.301672 -0.771575 0.409446 
347 1.77136 -0.881257 1.97401 0.962732 0 0 0 -0.0895687 -0.786555 -0.247522 
377 3.60723 1.30346 2.56839 0.933679 0 0 0 0.514255 0.27203 0.238897 
314 2.7149 0.746782 1.7233 0.570734 0 0 0 0.739716 -0.292762 0.267029 
388 1.7547 1.18522 1.72428 0.334977 0 0 0 -0.686833 0.0360892 -0.442172 
315 2.63579 0.314014 1.72366 0.638917 0 0 0 0.0537959 -1.04205 -0.326273 
472 2.09293 0.870495 1.94172 0.448091 0 0 0 0.491736 -0.963435 0.346279 
483 1.82858 0.756601 2.34806 0.493682 0 0 0 0.439431 -0.869989 0.60716 
481 2.18418 0.922719 1.7832 0.441242 0 0 0 0.45047 -0.86562 0.161345 
53 1.96945 0.83713 2.09145 0.454926 0 0 0 0.523622 -1.05334 0.546337 
484 1.5969 0.907446 2.2591 0.443745 0 0 0 0.520768 -1.21089 0.880273 
384 3.3199 -0.642176 2.68997 1.13434 0 0 0 0.468074 -0.689849 0.149533 
79 1.6855 1.09273 1.92023 0.36669 0 0 0 0.13777 -0.883136 -0.419517 
492 1.57913 1.14676 1.92413 0.353494 0 0 0 0.285144 -0.824017 -0.0688068 
102 1.57313 0.883417 2.31386 0.456288 0 0 0 0.432808 -1.15591 0.886127 
353 2.07856 1.26353 2.64019 0.588625 0 0 0 -0.784882 0.43547 -1.26504 
462 2.05823 1.16867 1.5 0.374843 0 0 0 -1.12476 -0.441506 -0.00752261 
366 3.1868 0.394559 3.69955 1.11941 0 0 0 0.427856 -0.0589645 0.661261 
89 1.72107 0.843358 2.90213 0.612808 0 0 0 0.333697 0.56338 0.677291 
368 3.28497 -0.261774 3.55747 1.21014 0 0 0 0.427472 -0.424275 0.520482 
369 3.64678 0.246239 3.45704 1.1909 0 0 0 0.608273 -0.163267 0.482321 
378 2.68147 0.577426 2.86987 0.75739 0 0 0 0.589617 0.356552 0.599847 
389 2.14752 0.9228 3.36327 0.790331 0 0 0 0.301172 0.639925 0.697753 
95 1.59937 0.244863 3.84568 0.991724 0 0 0 0.0259991 -0.174656 0.844428 
373 1.65834 -0.0884542 2.8068 0.767132 0 0 0 -0.127095 -0.983984 -0.023891 
390 2.59699 1.19522 3.71533 0.975795 0 0 0 0.20465 0.334111 0.633328 
86 1.82023 1.15322 3.19896 0.705229 0 0 0 0.238579 0.99937 0.374352 
376 2.3167 1.03751 3.19032 0.758192 0 0 0 0.302544 0.831217 0.47406 
391 3.65085 0.0254048 3.455 1.22491 0 0 0 0.591525 -0.276208 0.462938 
236 1.54662 0.573474 2.76919 0.603727 0 0 0 0.00799454 -0.614123 0.469219 
379 2.2848 0.0643931 2.74732 0.757382 0 0 0 0.197686 -0.71135 0.26305 
392 3.16306 0.164082 2.91473 0.933107 0 0 0 0.561886 -0.181142 0.368106 
381 3.3365 -0.184163 3.45156 1.17626 0 0 0 0.468466 -0.38844 0.486806 
115 1.62185 0.856725 2.99927 0.635536 0 0 0 0.269746 0.566746 0.738455 
386 3.19115 1.2429 3.66152 1.08251 0 0 0 0.343947 0.202029 0.542288 
97 1.83971 0.614676 2.73121 0.599047 0 0 0 0.341767 -0.192312 0.590664 
385 2.36353 -0.0875398 3.34842 0.945011 0 0 0 0.184316 -0.438183 0.551912 
413 2.04561 3.55203 0.25629 0.937592 0 0 0 0.0167864 0.826884 0.106743 
396 3.29248 3.22369 0.03538 1.0748 0 0 0 0.396762 0.490324 -0.151135 
417 1.86394 3.11944 -0.421517 0.938946 0 0 0 0.0259749 0.635534 -0.497436 
398 3.25696 2.67494 0.143852 0.92157 0 0 0 0.465735 0.363357 -0.0248109 
418 3.60252 2.06813 -0.0315377 0.979933 0 0 0 0.66819 0.103287 -0.26778 
400 3.51106 2.53616 -0.0693572 1.01263 0 0 0 0.566676 0.207833 -0.261321 
420 1.73365 2.37769 -0.458361 0.802557 0 0 0 0.0173836 0.149972 -0.821991 
414 2.021 2.40555 -0.00567233 0.688314 0 0 0 0.194042 0.747608 -0.386241 
416 2.84934 3.42506 -0.151609 1.0695 0 0 0 0.207374 0.613229 -0.261573 
404 3.3127 3.00276 -0.201167 1.07257 0 0 0 0.424783 0.366716 -0.332243 
415 3.39604 3.43407 0.0890917 1.15433 0 0 0 0.404621 0.538803 -0.151417 
322 1.89507 1.81396 -0.137579 0.663461 0 0 0 -0.322295 -0.680438 -0.736588 
407 3.49973 1.68272 -0.386589 1.01346 0 0 0 0.577613 0.0301446 -0.502842 
408 2.0203 1.93863 -0.607178 0.832003 0 0 0 -0.024962 -0.176076 -0.869679 
202 2.56613 1.60662 0.174906 0.644142 0 0 0 0.242809 -0.252898 -0.704199 
410 3.59069 2.9862 -0.00985036 1.11004 0 0 0 0.546405 0.338199 -0.221807 
411 1.93646 3.67859 -0.35509 1.08848 0 0 0 -0.0202915 0.765228 -0.418141 
289 2.40056 1.93837 0.244713 0.614262 0 0 0 0.514125 0.450149 -0.390138 
262 1.74618 2.1512 0.279799 0.555166 0 0 0 0.0127479 0.577669 -0.810544 
12 2.05402 1.71887 0.758047 0.438053 0 0 0 1.01316 -0.0353016 -1.31535 
419 2.13205 2.72408 0.899579 0.661815 0 0 0 -0.342875 -0.253287 0.907375 
406 2.42478 3.61753 0.659939 0.970485 0 0 0 -0.0178932 0.633409 0.325804 
5 1.83387 1.60258 1.06899 0.350518 0 0 0 0.518243 -0.00483168 -0.439355 
282 2.10938 1.7138 0.725209 0.451014 0 0 0 1.02966 -0.00762244 -1.22511 
332 2.94218 1.87249 1.48281 0.658019 0 0 0 -1.34655 0.0500769 0.272351 
273 1.97812 2.02246 0.49835 0.505725 0 0 0 0.418212 0.715736 -0.889759 
465 1.55316 1.80293 1.02061 0.35275 0 0 0 0.423597 0.413178 0.116605 
473 2.46734 1.59649 0.666435 0.51846 0 0 0 0.967302 0.00928397 -0.462026 
431 2.32608 2.05446 0.51998 0.560177 0 0 0 0.724086 0.993827 0.163064 
14 1.55419 1.93328 0.828392 0.405064 0 0 0 0.0452462 0.83064 -0.972379 
292 1.85024 1.93215 0.623207 0.458609 0 0 0 0.520276 0.63328 -1.45577 
434 2.75645 2.12253 0.776654 0.64035 0 0 0 0.275964 0.828489 0.976965 
435 2.27549 2.78876 1.36395 0.724158 0 0 0 -1.28368 -1.59753 0.0353266 
449 1.78491 1.65285 1.04032 0.351593 0 0 0 0.620104 0.0966951 -0.444117 
397 2.83484 3.18348 0.751307 0.89463 0 0 0 -0.0118841 0.462726 0.500416 
503 1.69432 1.53292 1.28278 0.296975 0 0 0 0.0870616 0.668211 -1.17531 
439 2.23607 1.68881 0.721621 0.47007 0 0 0 0.997485 -0.149412 -1.01179 
440 3.40613 2.58476 1.18372 0.890002 0 0 0 0.0148184 0.225988 0.341527 
321 3.75634 1.95026 1.30416 0.908665 0 0 0 0.52275 0.204473 0.235075 
442 2.01407 1.55506 0.987743 0.389567 0 0 0 0.846779 -0.376338 -0.680729 
280 3.36552 1.9208 0.844516 0.776134 0 0 0 0.563174 0.495323 0.460949 
409 2.06938 2.0925 1.00964 0.487094 0 0 0 -3.00222 -4.83822 -2.50895 
132 1.60202 2.67402 1.23181 0.597761 0 0 0 -0.89674 -2.87802 -0.340786 
412 3.37692 2.95078 0.915982 0.958066 0 0 0 0.185453 0.354267 0.329062 
467 2.39565 1.7078 0.607565 0.518875 0 0 0 0.911701 0.184914 -0.45412 
475 1.63585 1.75674 1.01821 0.351081 0 0 0 0.571962 0.320027 -0.170054 
297 1.88583 2.11885 0.468271 0.516634 0 0 0 0.269611 0.900475 -0.810964 
258 1.88163 2.07849 0.490089 0.505801 0 0 0 0.292712 0.819138 -0.95933 
21 1.95024 1.79309 0.736997 0.433783 0 0 0 0.834989 0.192479 -1.45175 
155 1.57048 2.57305 1.0308 0.556281 0 0 0 -0.930715 -1.97377 -0.346225 
152 1.64318 3.26844 0.896393 0.775455 0 0 0 0.145051 0.320248 0.577041 
330 3.25835 2.11222 1.26292 0.765142 0 0 0 -0.227382 0.346553 0.517381 
50 2.10971 2.0188 0.461298 0.528911 0 0 0 0.523328 0.760779 -0.524145 
11 1.82699 1.65768 0.998592 0.364156 0 0 0 0.726081 0.0561227 -0.479206 
221 3.06292 2.07823 0.893004 0.704357 0 0 0 0.191736 0.675893 0.805535 
74 3.04859 1.89687 0.613138 0.697119 0 0 0 0.733949 0.698618 0.481367 
446 2.36993 1.57697 0.416041 0.551071 0 0 0 0.338395 -0.381216 -0.777632 
395 2.2081 3.17316 0.332805 0.823202 0 0 0 0.0906793 0.789285 0.380108 
259 2.6154 1.55377 0.447525 0.589886 0 0 0 0.615111 -0.134963 -0.484158 
421 3.45212 3.42163 0.54613 1.11866 0 0 0 0.356769 0.514225 0.0955132 
454 1.56662 1.58654 1.3165 0.28087 0 0 0 0.559429 0.530526 -1.02811 
46 1.85723 1.59487 1.06019 0.35494 0 0 0 0.539125 -0.0521578 -0.419174 
342 1.94864 1.51663 1.09143 0.362943 0 0 0 0.365599 -0.248064 -0.311627 
468 1.84502 1.61503 1.04262 0.3569 0 0 0 0.605089 -0.0199443 -0.435493 
3 1.71464 1.71188 1.01634 0.352865 0 0 0 0.641902 0.223073 -0.361603 
305 1.96778 2.68475 0.388913 0.661756 0 0 0 0.243351 1.21751 0.507528 
197 2.25482 2.31209 0.3489 0.622 0 0 0 0.537142 1.21492 0.278925 
405 2.37908 2.7423 0.381571 0.727044 0 0 0 0.26566 0.922388 0.602303 
401 2.75364 3.61332 0.332401 1.03903 0 0 0 0.115528 0.715405 0.107312 
13 1.5531 1.67704 1.20138 0.307974 0 0 0 0.78559 0.491756 -0.794385 
387 2.43191 1.68888 2.17912 0.610127 0 0 0 -3.33244 -1.77713 -2.95737 
482 2.51488 2.75822 2.0488 0.826887 0 0 0 -1.56772 -1.33388 -0.98877 
463 2.97196 2.60117 1.62743 0.818333 0 0 0 -1.07676 -0.446853 -0.0860616 
394 2.64218 1.6578 2.44454 0.691172 0 0 0 -1.51702 -0.073406 -1.27243 
319 3.26548 1.82336 1.59356 0.744788 0 0 0 -0.412089 0.38832 0.342381 
500 3.11264 2.32838 2.11934 0.848984 0 0 0 -0.956532 -0.383038 -0.424586 
487 2.72996 2.14152 2.33657 0.768566 0 0 0 -1.73821 -0.883122 -1.23835 
502 2.94168 3.12339 2.45848 1.05466 0 0 0 -0.570318 -0.288446 -0.38816 
499 3.04774 2.90835 2.592 1.0427 0 0 0 -0.532281 -0.29208 -0.370328 
429 3.27854 2.24372 1.5145 0.807218 0 0 0 -0.495904 0.0821246 0.239963 
504 1.83959 1.98453 2.30364 0.597572 0 0 0 -3.80703 -5.33991 -5.67593 
383 3.18367 1.5004 2.61693 0.827666 0 0 0 -0.0343766 0.389495 0.0164116 
99 1.58531 1.59037 3.49474 0.813436 0 0 0 0.149989 0.619336 0.28384 
382 2.94579 1.66321 3.32611 0.956235 0 0 0 0.0216873 0.231199 0.173936 
374 2.17945 1.70018 3.15937 0.782232 0 0 0 -0.408969 0.359904 -0.575182 
367 2.15103 1.73257 3.16272 0.783981 0 0 0 -0.427392 0.315473 -0.617712 
512 1.68195 3.18105 2.91329 0.986987 0 0 0 -0.181807 -0.379614 -0.491417 
498 3.03601 3.15207 3.07829 1.20085 0 0 0 -0.264335 -0.140553 -0.154733 
508 2.36176 2.26392 2.93278 0.848656 0 0 0 -1.00139 -0.572088 -1.04112 
488 2.76679 3.03525 3.02365 1.10813 0 0 0 -0.447051 -0.24194 -0.294053 
100 1.61345 1.74365 3.65537 0.886141 0 0 0 0.0867501 0.432656 0.364274 
245 1.53524 1.87342 3.55191 0.862726 0 0 0 0.113813 0.405949 0.174804 
ITEM: TIMESTEP
740912
ITEM: NUMBER OF ATOMS
512
ITEM: BOX BOUNDS ss ss ss
-8.1988304040437454e-01 3.8875120101141034e+00
-9.7693552394909078e-01 3.9476017366228966e+00
-9.1281994132074906e-01 3.9096273972560476e+00
ITEM: ATOMS id x y z width_SPH x_COM y_COM z_COM vx vy vz 
263 1.46291 0.88658 -0.25534 0.797053 0 0 0 -0.184396 0.0652869 0.617647 
403 1.47176 1.28214 -0.572764 0.836227 0 0 0 -0.296155 -0.417887 -0.281618 
25 0.482322 0.121028 0.00277144 1.02263 0 0 0 0.431042 0.529145 0.569934 
279 1.31897 1.03444 -0.485 0.850874 0 0 0 -0.189061 -0.165794 0.106876 
402 1.48864 1.3275 -0.648024 0.856459 0 0 0 -0.281503 -0.409923 -0.421831 
16 0.283966 0.665579 0.148014 0.902205 0 0 0 0.586564 0.592038 0.780359 
8 0.548845 0.851561 0.116514 0.825731 0 0 0 0.734456 0.682654 1.15148 
131 1.20619 1.40827 0.66602 0.517615 0 0 0 4.801 6.68477 7.38421 
217 -0.458205 1.32447 1.07566 0.827557 0 0 0 -0.140237 -0.41228 -0.139902 
2 -0.191095 0.578915 0.378223 0.976755 0 0 0 0.26945 0.355318 0.381143 
24 0.947304 0.538058 0.655893 0.732038 0 0 0 1.68995 2.78519 2.5876 
129 -0.0272421 1.21936 0.471864 0.809152 0 0 0 0.464933 -0.111325 0.504355 
224 -0.03818 1.2323 1.09789 0.718727 0 0 0 1.00087 -0.0777547 0.267215 
78 0.717474 0.416267 1.446 0.684311 0 0 0 2.08598 2.94736 0.725814 
67 0.0566756 0.170702 1.35969 0.867434 0 0 0 0.64684 0.692232 0.005844 
22 1.1096 0.782241 0.476519 0.689894 0 0 0 1.54609 2.71439 3.19757 
125 0.0919184 1.14992 0.334144 0.817638 0 0 0 0.529004 0.0432 0.639728 
10 0.362727 0.340202 0.33705 0.920793 0 0 0 0.743226 0.865779 0.89711 
68 -0.629255 1.10997 1.49534 0.872299 0 0 0 -0.401501 -0.26831 -0.303193 
116 -0.467659 -0.224834 2.43602 1.06883 0 0 0 -0.510456 -0.413941 -0.0581851 
39 1.33122 1.26246 1.96203 0.349426 0 0 0 -0.248322 -0.393047 0.561871 
57 -0.136591 -0.184234 1.60661 0.978297 0 0 0 0.0862936 0.0850684 -0.19688 
111 1.47857 0.661586 1.94947 0.479316 0 0 0 3.06052 4.58009 2.61071 
59 0.836239 1.31492 2.27396 0.459127 0 0 0 -1.05534 -0.0553303 0.98511 
183 0.484319 1.33661 2.61271 0.586943 0 0 0 -0.675449 -0.064997 0.479692 
80 1.06798 1.32418 2.08947 0.394888 0 0 0 -0.907428 0.0277494 0.821333 
103 -0.666446 -0.192847 2.21681 1.11079 0 0 0 -0.541729 -0.319406 -0.0821382 
63 -0.481044 0.335769 1.67077 0.939105 0 0 0 -0.201779 0.0269409 -0.274245 
64 0.692263 1.25098 1.95539 0.468146 0 0 0 1.81281 3.52173 2.44696 
65 1.41229 1.12563 2.09167 0.384751 0 0 0 0.113555 -1.07863 0.468896 
66 0.53632 -0.153301 1.5622 0.845279 0 0 0 0.649431 0.683616 -0.164178 
27 1.41507 1.3286 1.80371 0.309626 0 0 0 -0.411681 -0.39398 1.39358 
343 1.489 1.48456 1.52633 0.252367 0 0 0 0.0620386 0.0890378 -0.0237344 
69 0.578515 1.29327 2.42893 0.533071 0 0 0 -0.970041 -0.283483 0.404205 
82 0.155993 0.760115 1.618 0.699976 0 0 0 1.16225 0.799974 -0.325293 
71 0.319321 -0.0268641 1.59758 0.843495 0 0 0 0.618213 0.613294 -0.223032 
509 1.47935 1.4766 1.54574 0.254225 0 0 0 0.182458 0.0866588 -0.118278 
226 0.739725 1.28996 2.43124 0.504118 0 0 0 -0.86033 -0.174969 0.697997 
511 1.41956 1.17052 2.0196 0.366043 0 0 0 0.0941509 -0.908958 0.29715 
118 0.968939 0.167098 2.50852 0.690235 0 0 0 -0.380093 -0.897092 -0.669397 
26 1.04233 1.47276 1.9123 0.366374 0 0 0 -0.425811 0.305188 0.348017 
77 0.568464 0.474339 2.28659 0.658594 0 0 0 -0.193278 -0.487507 -0.883502 
92 0.62797 -0.707372 2.33072 0.9835 0 0 0 -0.0562685 -0.633959 -0.231831 
107 0.249774 0.442637 2.19695 0.724249 0 0 0 -0.0884826 -0.27527 -0.803408 
122 1.04947 0.384901 2.37967 0.613127 0 0 0 -0.286987 -0.858498 -0.73633 
94 1.18309 0.612668 2.42577 0.545582 0 0 0 -0.172976 -1.01251 -0.0157504 
247 0.952669 1.10213 2.48173 0.497486 0 0 0 -0.61197 -0.522929 0.847382 
73 1.44161 0.794433 2.54928 0.516405 0 0 0 0.0604157 -0.778599 0.685157 
87 0.756023 0.283344 2.07374 0.669736 0 0 0 0.352329 0.328722 -0.886049 
84 -0.667102 1.05545 2.40897 0.902827 0 0 0 -0.847665 -0.267151 -0.18099 
507 1.18214 1.13119 2.24889 0.425769 0 0 0 -0.48594 -0.575621 1.24128 
169 1.39493 0.9918 2.28373 0.436525 0 0 0 0.175018 -1.07741 1.11091 
85 0.770573 -0.606564 1.99598 0.927263 0 0 0 0.0904871 -0.341423 -0.356415 
371 1.36018 0.86879 2.51444 0.500147 0 0 0 -0.0253478 -0.821001 0.806186 
448 0.60903 1.28908 1.89856 0.483826 0 0 0 1.71748 3.1673 1.9917 
328 0.993107 0.774307 2.21876 0.511074 0 0 0 0.604122 0.591843 0.63153 
112 0.973457 1.266 2.22439 0.433459 0 0 0 -0.947484 -0.053607 1.19691 
40 0.542472 1.29074 2.42961 0.540919 0 0 0 -0.994519 -0.331608 0.322535 
496 1.48485 1.48105 1.5348 0.253068 0 0 0 0.119666 0.0927127 -0.0759682 
42 1.22246 1.29781 2.00115 0.36285 0 0 0 -0.557261 -0.188904 0.501114 
237 1.11561 1.25582 2.14125 0.402221 0 0 0 -0.810569 -0.184009 0.983558 
494 1.38749 1.19011 2.01749 0.364347 0 0 0 -0.015072 -0.801452 0.357248 
181 0.316504 1.14153 2.56082 0.627436 0 0 0 -0.957849 -0.732063 -0.0854882 
81 -0.121094 -0.621642 2.09638 1.08733 0 0 0 -0.197 -0.422685 -0.131278 
83 1.18469 -0.506683 2.52988 0.870695 0 0 0 -0.142374 -0.82128 -0.30991 
232 0.998008 1.0124 2.54917 0.515984 0 0 0 -0.467545 -0.616715 0.771118 
93 -0.50815 0.84491 2.0297 0.851663 0 0 0 -0.540528 -0.298774 -0.444178 
61 1.51203 0.359925 1.94817 0.566533 0 0 0 0.589522 1.39729 -0.113195 
349 1.50386 -0.38165 1.57127 0.808644 0 0 0 -0.129204 0.234025 -0.291416 
253 1.16405 1.08586 2.3957 0.460849 0 0 0 -0.611591 -0.907073 0.937608 
193 -0.727527 1.42163 1.5528 0.877435 0 0 0 -0.696346 -0.372888 -0.303493 
506 1.46209 1.27675 1.83871 0.320017 0 0 0 -0.221644 -0.637793 0.942466 
44 -0.248204 1.37176 1.89731 0.712932 0 0 0 -0.59913 -0.717586 -0.652018 
32 1.23784 1.37168 1.88978 0.336999 0 0 0 -0.418126 -0.0104302 0.780292 
493 1.20601 1.42553 1.84333 0.331297 0 0 0 -0.251683 0.010699 0.833594 
9 1.40198 1.32545 1.82112 0.313666 0 0 0 -0.524629 -0.595551 1.1854 
218 1.31593 1.40023 1.78917 0.309641 0 0 0 -0.53857 -0.471012 1.28608 
200 -0.243768 1.45154 1.90837 0.70623 0 0 0 -0.689976 -0.735859 -0.614241 
486 1.31685 1.26323 1.982 0.354056 0 0 0 0.424999 0.778605 1.35017 
98 0.192042 0.505969 2.67417 0.762682 0 0 0 -0.547796 -0.679277 -0.319399 
113 1.36474 -0.767753 2.84603 0.993318 0 0 0 -0.0519133 -0.87764 0.0551757 
114 -0.662817 0.667393 3.0988 1.0467 0 0 0 -0.730336 -0.208072 0.292162 
108 0.827865 -0.375046 3.19939 0.967028 0 0 0 -0.179657 -0.683321 0.269365 
163 0.56872 0.925251 2.79803 0.645967 0 0 0 -0.628999 -0.714722 0.30339 
60 0.824459 1.36372 3.15257 0.691633 0 0 0 0.333309 0.629417 0.835943 
117 0.983524 0.117897 3.70191 0.978819 0 0 0 -0.129097 -0.308783 0.718553 
51 0.407866 1.42257 2.78812 0.642071 0 0 0 -0.346606 0.249815 0.656783 
88 1.42973 0.53892 3.6292 0.869877 0 0 0 0.00638465 0.0152745 0.894946 
109 -0.521007 -0.195164 3.25587 1.19582 0 0 0 -0.57524 -0.438261 0.393265 
90 -0.819593 0.596006 2.78624 1.05283 0 0 0 -0.798715 -0.216511 0.112031 
91 0.794654 1.1685 3.90934 0.962242 0 0 0 -0.00640092 0.133374 0.951549 
227 1.33614 1.35544 2.76354 0.562285 0 0 0 -0.0936702 0.239761 -0.637911 
438 0.692844 1.45414 3.02107 0.665648 0 0 0 0.310295 0.681405 0.8319 
119 0.719813 0.0526593 3.43824 0.93251 0 0 0 -0.230063 -0.438123 0.511973 
430 1.20337 0.667932 2.80486 0.606694 0 0 0 -0.284878 -0.688802 0.484975 
96 1.21336 -0.443185 3.49593 1.03711 0 0 0 -0.0580926 -0.627555 0.498009 
121 -0.47888 0.852546 3.15732 0.981831 0 0 0 -0.686124 -0.196809 0.337562 
110 0.00052864 -0.178567 2.91004 0.989032 0 0 0 -0.41565 -0.545738 0.0950884 
120 -0.757146 1.33216 2.86286 0.982957 0 0 0 -0.855544 -0.0638516 0.192641 
104 0.101179 -0.598303 3.21263 1.14763 0 0 0 -0.345983 -0.642432 0.341686 
101 0.537346 0.503478 3.11842 0.786337 0 0 0 -0.405484 -0.525515 0.33695 
238 1.23272 1.23413 2.83499 0.574662 0 0 0 0.182204 0.586745 0.304317 
123 -0.316983 2.86792 -0.691701 1.18977 0 0 0 -0.540349 0.329792 -0.659825 
159 0.397831 3.05213 -0.625382 1.0548 0 0 0 -0.285728 0.503082 -0.690785 
142 1.18785 3.80509 -0.0596161 1.05791 0 0 0 -0.10636 0.892015 -0.316703 
126 -0.54127 3.21741 0.184411 1.10843 0 0 0 -0.644982 0.551742 -0.319698 
127 0.805512 2.06303 -0.83208 0.949852 0 0 0 -0.270565 -0.262301 -0.8862 
158 0.896477 2.14782 -0.502455 0.825351 0 0 0 -0.343756 -0.410896 -0.874077 
143 -0.162421 2.51389 -0.788984 1.13562 0 0 0 -0.507483 0.116802 -0.735192 
149 1.11663 2.1868 -0.912531 0.958567 0 0 0 -0.152837 -0.115958 -0.939891 
151 1.36321 3.3662 0.288898 0.844522 0 0 0 0.0302162 0.959219 0.0450213 
274 1.33477 2.01645 -0.0268033 0.636669 0 0 0 -0.366981 -0.743717 -0.663885 
157 0.0134437 1.643 0.128941 0.821069 0 0 0 -0.21114 -0.666844 -0.103407 
156 -0.609024 1.93331 -0.650122 1.19061 0 0 0 -0.599159 -0.0660174 -0.549865 
130 0.986175 2.15088 0.267695 0.593013 0 0 0 -0.524969 -0.340124 -0.635049 
148 0.698616 1.49459 -0.23256 0.79159 0 0 0 -0.0750483 -0.610818 0.0774071 
137 -0.708156 2.86987 0.246401 1.07807 0 0 0 -0.787229 0.323151 -0.310882 
138 0.424978 2.62752 -0.593775 0.96303 0 0 0 -0.356606 0.182124 -0.803851 
141 0.160032 1.99701 -0.415254 0.914396 0 0 0 -0.476572 -0.434295 -0.672662 
140 0.862151 2.60215 -0.809079 0.979756 0 0 0 -0.192277 0.196978 -0.875623 
443 1.31898 2.0852 0.116081 0.599074 0 0 0 -0.363285 -0.428175 -0.737843 
444 1.48154 2.23981 0.0627878 0.620899 0 0 0 -0.259585 0.134147 -0.787076 
136 1.03226 1.8917 0.22151 0.597169 0 0 0 -0.149021 -0.793357 0.0687048 
268 1.46276 2.00807 0.113337 0.589759 0 0 0 -0.280084 -0.51316 -0.711817 
146 0.824177 2.05114 0.253744 0.615592 0 0 0 -0.451214 -0.790406 -0.379412 
180 0.816324 2.50705 0.789624 0.565311 0 0 0 -0.422048 1.23141 -0.299282 
190 0.821829 3.2916 1.17401 0.773672 0 0 0 0.33823 0.751391 0.367136 
178 -0.546731 3.08541 1.13917 0.974058 0 0 0 -0.646029 0.581692 -0.020487 
220 0.899083 2.23259 1.45457 0.46091 0 0 0 -1.92837 -2.57322 -1.9629 
189 1.01702 2.26104 0.814599 0.487549 0 0 0 -0.947675 1.11265 -0.606399 
165 1.0488 2.30437 0.74547 0.502532 0 0 0 -0.824666 1.15659 -0.66183 
128 1.38576 3.34334 1.2518 0.793523 0 0 0 0.238321 -0.0104506 0.379255 
185 0.700686 3.36967 1.30718 0.807796 0 0 0 0.306445 0.749872 0.317376 
168 0.779368 2.05424 1.00595 0.471616 0 0 0 -0.205837 1.5365 0.706495 
186 -0.767693 1.72337 0.481583 0.983528 0 0 0 -0.740659 -0.28503 -0.211634 
170 0.556745 2.28227 0.547183 0.609204 0 0 0 -0.639461 -0.12718 -0.555096 
171 0.284592 3.56152 0.91582 0.929534 0 0 0 -0.124107 0.922012 0.0251787 
175 -0.673986 2.64647 1.34235 0.922313 0 0 0 -0.838167 0.285622 -0.0589404 
124 0.946519 2.13444 1.0301 0.448058 0 0 0 -1.03376 1.02045 -0.156161 
187 -0.34197 2.06188 0.381159 0.85313 0 0 0 -0.732663 -0.502039 -0.361227 
134 1.44029 2.99975 0.715258 0.686524 0 0 0 0.237595 0.772264 0.57562 
198 1.10454 2.48527 1.32488 0.519696 0 0 0 -1.0731 -2.5253 -1.23746 
426 1.5256 1.8097 1.03414 0.350827 0 0 0 0.374463 0.399525 0.236655 
147 1.22188 1.9207 1.15986 0.365564 0 0 0 -0.681874 -0.612872 0.427494 
133 1.04449 2.31189 0.324246 0.588101 0 0 0 -0.518667 0.365598 -0.734293 
188 0.398833 2.22613 0.467432 0.652191 0 0 0 -0.608935 -0.528039 -0.525448 
20 1.4012 1.64926 1.36986 0.284344 0 0 0 1.58824 -0.491099 -0.210235 
216 -0.0737769 2.3515 1.33666 0.682756 0 0 0 -0.676883 0.162993 -0.232997 
206 -0.717434 1.91108 1.19378 0.87957 0 0 0 -0.880936 -0.367044 -0.250325 
154 -0.280087 3.2078 0.526567 0.978398 0 0 0 -0.533204 0.672511 -0.18891 
144 1.30247 2.01087 0.912943 0.407616 0 0 0 -0.672935 1.05413 -0.238511 
423 1.18173 2.03443 0.97732 0.411239 0 0 0 -0.851484 1.06107 0.0833925 
135 -0.226251 3.12139 0.410253 0.958209 0 0 0 -0.535674 0.632117 -0.247138 
192 0.529696 2.18854 0.465838 0.623393 0 0 0 -0.590016 -0.541614 -0.501832 
194 0.171581 2.21543 0.651671 0.670489 0 0 0 -0.636132 -0.568283 -0.480125 
196 0.990078 2.89059 1.10309 0.6406 0 0 0 0.388184 0.633297 0.419029 
203 0.532328 2.55461 0.541053 0.655193 0 0 0 -0.461117 0.623905 -0.448616 
150 1.41057 1.88553 0.988743 0.370978 0 0 0 2.87471 5.46685 3.79334 
214 -0.0711022 1.80496 0.791841 0.711167 0 0 0 -0.1903 -1.00773 -0.172942 
425 1.42104 1.95118 0.905406 0.394389 0 0 0 -0.268504 0.944275 -0.302378 
48 0.228426 2.29404 0.623424 0.667389 0 0 0 -0.652873 -0.340606 -0.50961 
162 1.52738 1.51565 1.44983 0.254791 0 0 0 -0.400388 0.113606 0.320323 
177 0.870217 1.99606 1.31465 0.416625 0 0 0 -0.428186 0.91705 0.359032 
139 0.901011 3.94731 0.7486 1.02061 0 0 0 -0.0239484 0.90877 -0.0296504 
461 1.38948 1.75363 1.23162 0.316837 0 0 0 0.788874 0.0388659 0.353655 
210 0.261614 2.17599 0.847566 0.615998 0 0 0 -0.594647 -0.51068 -0.434905 
480 1.02344 2.02373 1.13292 0.409868 0 0 0 -0.6642 0.947485 0.473144 
28 1.05076 1.83854 1.404 0.360318 0 0 0 0.745299 0.122649 0.746462 
489 0.558856 2.27473 1.21427 0.519892 0 0 0 -0.640108 0.853599 -0.177992 
4 1.22245 1.72084 1.42292 0.315215 0 0 0 1.3136 -0.333604 0.539216 
19 1.14084 2.47426 0.428795 0.585358 0 0 0 -0.345453 1.10184 -0.529099 
336 0.479588 2.37429 1.18931 0.555285 0 0 0 -0.451988 0.940819 -0.147877 
469 1.0405 2.01731 1.12835 0.406967 0 0 0 -0.641752 0.9361 0.520247 
308 0.417196 2.38389 1.20765 0.568906 0 0 0 -0.422053 0.88301 -0.1444 
15 1.22459 1.8628 1.21612 0.350381 0 0 0 0.329908 0.109496 1.24235 
424 1.33272 2.62683 0.397188 0.618368 0 0 0 -0.0725461 1.29742 -0.162125 
7 1.3725 2.12815 0.70927 0.457158 0 0 0 -0.584517 1.11293 -1.16709 
174 1.2968 1.80757 1.23498 0.332179 0 0 0 0.573481 -0.124924 0.946643 
6 1.09486 1.81937 1.39359 0.350537 0 0 0 0.885937 -0.0217673 0.820545 
458 0.509355 2.15863 1.40969 0.503689 0 0 0 -0.69274 0.732859 -0.0556132 
433 1.53014 1.83936 0.985042 0.363363 0 0 0 0.317844 0.58787 0.0928259 
437 1.46749 2.04176 0.748705 0.43492 0 0 0 -0.336983 1.01705 -1.23243 
153 1.27972 1.81894 1.23333 0.335818 0 0 0 0.531859 -0.10115 1.03871 
286 1.4825 2.02989 0.753378 0.432209 0 0 0 -0.289566 0.996492 -1.23876 
195 0.960329 1.93964 1.32812 0.392722 0 0 0 -0.00426169 0.669687 0.653964 
399 1.51635 1.93623 0.866644 0.397931 0 0 0 -0.429802 0.219244 -1.1392 
354 0.503416 2.10105 1.49637 0.495892 0 0 0 -0.741029 0.714504 0.0203497 
372 1.50625 1.49957 1.49052 0.251512 0 0 0 -0.213082 0.045112 0.264235 
164 0.232474 1.81997 1.47903 0.555412 0 0 0 -0.187126 -0.251038 -0.150818 
17 1.50459 1.49817 1.49392 0.25144 0 0 0 -0.188166 0.0475399 0.240349 
52 0.953886 1.86576 1.44846 0.38025 0 0 0 0.395452 0.462933 0.490556 
145 0.944092 3.68323 0.319779 0.962027 0 0 0 -0.0697377 0.942564 -0.136532 
256 0.558351 2.11604 1.73864 0.496381 0 0 0 -0.760176 0.519728 0.0905781 
495 1.04309 1.64388 1.68229 0.346148 0 0 0 0.726321 0.284259 0.134223 
248 0.868783 1.5629 1.93386 0.401682 0 0 0 -0.734164 0.724737 0.574571 
43 0.14892 2.31439 1.81883 0.623842 0 0 0 -0.18692 0.906595 0.491353 
76 0.906801 1.57911 1.88405 0.38908 0 0 0 -0.518116 0.646489 0.347127 
450 0.854479 1.64817 1.83468 0.397155 0 0 0 -0.471558 0.832886 0.328217 
166 1.19151 3.39112 1.71318 0.833435 0 0 0 0.311555 -0.187266 0.0847991 
70 0.975128 2.32045 2.30291 0.608758 0 0 0 0.374717 -1.55698 -1.46659 
199 -0.16399 2.48213 2.51655 0.815893 0 0 0 -0.221971 0.751755 0.499418 
223 -0.31371 3.51999 2.20263 1.0656 0 0 0 -0.343002 0.730766 0.185291 
201 -0.0322999 3.01379 1.68138 0.815639 0 0 0 -0.0812805 0.978494 0.267415 
243 0.900445 2.03173 2.39423 0.562181 0 0 0 0.102903 -1.11851 -1.3564 
191 0.402003 2.14628 2.61254 0.667709 0 0 0 0.537587 1.1621 0.686819 
204 0.494255 3.83159 2.13436 1.03917 0 0 0 0.0831341 0.663339 0.133745 
49 0.769419 1.87246 1.59107 0.417371 0 0 0 -0.388022 1.00497 0.29493 
160 0.914954 1.82328 1.54462 0.382719 0 0 0 0.276274 0.470592 0.187891 
207 0.786906 2.75747 2.50756 0.754782 0 0 0 0.726067 0.14226 -0.116922 
208 1.03098 2.39113 1.63947 0.518102 0 0 0 -1.29658 -4.15684 -2.32209 
209 0.529458 2.20089 1.58261 0.507846 0 0 0 -0.583175 0.778397 0.0883545 
447 0.197364 2.26425 2.14673 0.63912 0 0 0 0.085797 1.11294 0.777277 
211 0.711172 3.69218 1.79547 0.943618 0 0 0 0.228619 0.561472 0.152192 
212 0.655029 3.2858 1.83326 0.81231 0 0 0 0.469029 0.508439 0.273226 
213 0.0678189 3.4769 2.25792 0.980739 0 0 0 -0.0320985 0.748335 0.229375 
490 1.46128 1.49805 1.53103 0.253855 0 0 0 1.29253 -0.711392 0.128674 
215 0.794993 3.88391 2.27497 1.06152 0 0 0 0.148998 0.502785 0.0716854 
184 1.5004 1.49456 1.50257 0.251402 0 0 0 -0.121597 0.0573935 0.171726 
55 0.266691 2.26505 1.5319 0.574508 0 0 0 -0.404428 0.671154 0.0856386 
505 0.361119 1.60465 2.26191 0.54876 0 0 0 -0.983736 0.180601 0.294864 
255 1.2108 2.61048 2.17652 0.668963 0 0 0 0.048973 -2.3192 -1.57547 
479 0.0168453 2.36861 2.04038 0.686485 0 0 0 -0.170006 0.920342 0.583073 
173 -0.124528 1.91621 1.83532 0.659828 0 0 0 -0.837765 -0.4029 -0.215161 
318 0.349876 1.78872 2.07953 0.534861 0 0 0 -0.899057 0.413724 0.360449 
54 0.430622 1.94053 1.8001 0.502879 0 0 0 -0.875958 0.602258 0.284626 
34 0.259994 2.18276 1.85537 0.577329 0 0 0 -0.275845 0.845154 0.514606 
172 0.165968 2.12749 1.58858 0.582572 0 0 0 -0.604319 0.131442 -0.0734994 
229 1.0813 2.33349 2.5338 0.661709 0 0 0 0.497522 -1.05238 -1.40599 
234 1.04409 1.64646 1.67795 0.345828 0 0 0 0.744773 0.277152 0.135768 
252 1.1575 1.61768 1.62227 0.318148 0 0 0 1.06403 -0.250327 0.524585 
235 1.04832 1.62 1.71022 0.345715 0 0 0 0.625935 0.289104 0.162317 
29 0.843075 1.72178 1.74556 0.396693 0 0 0 -0.25888 0.877908 0.216111 
513 0.660698 1.56778 2.09004 0.460312 0 0 0 -1.2029 0.513732 0.742841 
241 1.06009 1.60521 1.72045 0.343451 0 0 0 0.600563 0.255482 0.207075 
38 0.32052 1.7588 2.2745 0.566247 0 0 0 -0.693097 0.511562 0.471372 
35 0.252087 1.76159 2.40264 0.603925 0 0 0 -0.543937 0.556804 0.510703 
30 0.500214 1.66022 2.12088 0.49953 0 0 0 -1.10767 0.440831 0.496609 
239 -0.586849 2.64441 2.57886 0.974138 0 0 0 -0.577177 0.458324 0.298063 
233 0.904611 1.60662 1.8497 0.38676 0 0 0 -0.399355 0.669486 0.25667 
75 0.829568 1.66228 1.83747 0.403138 0 0 0 -0.564205 0.8676 0.365804 
219 1.50021 1.49439 1.50297 0.251406 0 0 0 -0.118418 0.0579517 0.168325 
167 1.5004 1.49455 1.50259 0.251402 0 0 0 -0.121459 0.0574176 0.171579 
466 1.5002 1.49437 1.503 0.251406 0 0 0 -0.11819 0.057992 0.16808 
471 1.50021 1.49439 1.50297 0.251406 0 0 0 -0.118462 0.0579439 0.168371 
36 1.50028 1.49445 1.50282 0.251404 0 0 0 -0.119637 0.0577373 0.16963 
278 1.50195 1.4959 1.49935 0.251391 0 0 0 -0.146745 0.0532191 0.198295 
37 1.50089 1.49497 1.50157 0.251396 0 0 0 -0.129511 0.0560987 0.180063 
58 1.50159 1.49559 1.5001 0.251391 0 0 0 -0.141 0.0542259 0.192153 
47 1.07811 1.75571 1.49969 0.343428 0 0 0 1.02036 -0.13629 0.347784 
477 1.50167 1.49566 1.49993 0.251391 0 0 0 -0.14222 0.0539365 0.193562 
355 1.50134 1.49537 1.50062 0.251392 0 0 0 -0.13683 0.0548115 0.187896 
334 1.50104 1.49511 1.50125 0.251394 0 0 0 -0.131927 0.0556255 0.182716 
476 1.50097 1.49505 1.50139 0.251395 0 0 0 -0.130855 0.0558058 0.18158 
179 1.50089 1.49498 1.50157 0.251396 0 0 0 -0.129447 0.0560436 0.180087 
222 1.50059 1.49472 1.50218 0.251399 0 0 0 -0.124608 0.056871 0.17494 
302 1.50066 1.49478 1.50205 0.251398 0 0 0 -0.125695 0.0566838 0.176098 
176 1.50066 1.49478 1.50204 0.251398 0 0 0 -0.125756 0.0566734 0.176162 
225 0.922808 2.39725 3.41234 0.888287 0 0 0 0.373678 0.377014 0.311794 
106 0.302738 2.02714 3.35323 0.85724 0 0 0 0.120784 0.569723 0.78008 
249 -0.498559 2.47087 2.81671 0.959172 0 0 0 -0.536694 0.431532 0.394128 
228 -0.108657 3.23446 3.60257 1.22453 0 0 0 -0.281625 0.494538 0.579482 
254 -0.486118 2.76307 3.5122 1.1744 0 0 0 -0.471142 0.385431 0.584947 
230 0.506969 3.71141 2.9996 1.13779 0 0 0 0.0269042 0.555012 0.264728 
231 0.569902 2.2762 3.57917 0.935087 0 0 0 0.214648 0.457918 0.686146 
242 0.544175 2.40527 3.25163 0.856902 0 0 0 0.388556 0.605938 0.516846 
246 -0.356552 2.01124 3.52011 1.04153 0 0 0 -0.460425 0.227393 0.669544 
464 0.277934 1.66566 2.73314 0.660816 0 0 0 -0.253218 0.600731 0.673412 
205 0.789505 1.62297 3.04756 0.674937 0 0 0 0.588791 0.903107 0.639755 
251 0.368726 3.45847 3.03809 1.07462 0 0 0 0.0473271 0.57483 0.331761 
105 -0.172733 1.52945 3.72936 1.04181 0 0 0 -0.383883 0.0755033 0.777716 
250 0.796414 3.13054 3.39931 1.05192 0 0 0 0.168006 0.346699 0.318554 
244 1.25516 2.37352 3.45388 0.901675 0 0 0 0.225143 0.194192 0.0630307 
240 -0.316577 3.69298 3.4091 1.33894 0 0 0 -0.398569 0.574291 0.443188 
257 3.62637 1.21803 -0.278449 1.02737 0 0 0 0.662287 -0.095937 -0.447612 
441 1.86625 1.15928 0.0293892 0.661003 0 0 0 -0.675386 -0.369671 0.601554 
288 3.67371 0.857922 0.0530726 0.991892 0 0 0 0.717088 -0.235555 -0.334332 
260 3.1323 0.827984 -0.609113 1.0191 0 0 0 0.33384 -0.274314 -0.675073 
261 3.52398 -0.100125 0.154681 1.093 0 0 0 0.502731 -0.634774 -0.330558 
276 2.55308 0.780199 -0.320848 0.838314 0 0 0 -0.251421 -0.566761 -0.547735 
427 2.22869 1.08024 0.20878 0.632711 0 0 0 -0.822424 -0.713988 -0.101797 
285 1.77615 0.218844 -0.0315113 0.864555 0 0 0 -0.185611 0.1453 0.51784 
436 2.35116 1.42219 -0.0512675 0.678327 0 0 0 -0.406543 -0.673957 -0.734148 
266 2.66025 0.936351 -0.843423 1.00718 0 0 0 0.0635738 -0.223771 -0.783956 
267 3.03037 0.608854 -0.039808 0.865181 0 0 0 0.159059 -0.643755 -0.506133 
293 2.10191 1.07615 -0.870524 0.957154 0 0 0 -0.174107 -0.223626 -0.718731 
269 2.55512 0.9497 -0.706882 0.943089 0 0 0 -0.0495118 -0.288852 -0.743545 
270 2.46766 0.612224 -0.43221 0.891627 0 0 0 -0.223504 -0.523987 -0.496714 
271 3.23129 -0.579429 -0.176077 1.23192 0 0 0 0.36072 -0.692758 -0.376335 
272 1.6467 0.823014 0.1285 0.702438 0 0 0 -0.205696 0.701043 1.55323 
284 2.0421 0.32412 -0.432477 0.93621 0 0 0 -0.243781 -0.335188 -0.149027 
290 2.38962 -0.690836 -0.214172 1.17656 0 0 0 0.0652836 -0.547442 -0.23005 
291 3.16121 0.334524 -0.492722 1.06555 0 0 0 0.325713 -0.499015 -0.575625 
294 3.06872 0.327586 0.682212 0.794008 0 0 0 0.101738 -0.942259 -0.433148 
23 1.96012 1.40534 1.23483 0.34908 0 0 0 -0.599582 -0.217152 0.0857748 
453 2.93383 0.913308 1.3622 0.602813 0 0 0 0.732843 -0.100564 0.132448 
18 1.90808 1.36094 1.34067 0.333036 0 0 0 -1.25071 0.0131264 0.295409 
298 2.04666 1.34271 1.25147 0.367169 0 0 0 -0.540413 -0.421615 0.0781934 
299 2.9192 0.965585 1.15319 0.600933 0 0 0 0.695802 -0.294001 -0.119146 
451 2.12579 1.28905 1.26587 0.385298 0 0 0 -0.254694 -0.637355 -0.0746664 
301 3.70182 0.535436 1.4268 0.90041 0 0 0 0.879138 -0.217167 0.0445992 
264 2.45148 0.855532 0.620128 0.597321 0 0 0 -0.523683 -0.843215 -0.416915 
445 2.28053 1.21986 1.24788 0.423471 0 0 0 0.55551 -0.751883 -0.307299 
304 2.19732 1.11983 1.14348 0.43107 0 0 0 2.27656 2.78694 2.37239 
41 2.8642 0.991063 0.872284 0.609244 0 0 0 0.493114 -0.669893 -0.497232 
306 1.9942 1.20525 1.4957 0.358719 0 0 0 -1.55158 -0.175216 0.0555842 
307 2.07214 1.04498 1.19277 0.425488 0 0 0 3.78031 7.11435 5.71596 
277 2.64746 1.39933 0.721808 0.548758 0 0 0 0.848649 -0.164897 -0.41068 
309 3.42367 0.409368 1.28612 0.825454 0 0 0 0.70541 -0.507594 -0.108073 
310 2.04762 -0.00926017 1.06794 0.725923 0 0 0 -0.566278 0.412279 0.0785019 
311 2.88347 1.04323 0.925479 0.602775 0 0 0 0.627631 -0.456708 -0.367874 
341 2.75568 1.06758 0.733258 0.594094 0 0 0 0.363315 -0.79357 -0.668196 
432 2.74185 1.44695 0.883124 0.55467 0 0 0 0.863022 0.24931 0.0388693 
161 2.00056 1.43223 1.16426 0.363505 0 0 0 -0.0699922 -0.338618 -0.117101 
182 2.69528 1.32605 0.523282 0.596685 0 0 0 0.459723 -0.519091 -0.622902 
316 2.92723 -0.308184 0.756848 0.924409 0 0 0 0.0547622 -0.866023 -0.307165 
317 3.34937 0.0147956 0.768078 0.924396 0 0 0 0.394662 -0.767699 -0.282424 
275 3.4093 -0.820405 0.709983 1.195 0 0 0 0.43001 -0.788075 -0.18421 
33 2.6597 0.845097 1.48871 0.537871 0 0 0 0.731278 -0.584738 0.0576989 
320 1.86541 0.037525 0.931897 0.734205 0 0 0 -0.34881 1.04576 0.599284 
72 2.19326 1.16818 1.39318 0.403132 0 0 0 -0.136036 -0.769887 -0.0247655 
265 1.93826 -0.369082 0.73291 0.882172 0 0 0 -0.204924 0.0533003 0.157721 
501 2.42645 1.15684 1.21412 0.460775 0 0 0 0.92513 -0.612868 -0.326075 
56 2.5703 0.702993 0.532528 0.656287 0 0 0 -0.587875 -1.04466 -0.47225 
325 2.33715 1.10413 1.34222 0.44066 0 0 0 0.761428 -0.601204 0.0305244 
287 2.41139 -0.366534 0.55564 0.915703 0 0 0 -0.190787 -0.554726 -0.138701 
327 3.3612 1.24899 1.48976 0.729281 0 0 0 0.602873 0.610931 0.465247 
329 1.95982 0.208863 1.14449 0.655287 0 0 0 -0.514442 1.36132 0.567942 
428 2.78133 0.813918 1.48194 0.571735 0 0 0 0.696741 -0.434569 0.0856681 
31 2.45657 0.720512 0.487635 0.649594 0 0 0 -0.729153 -0.862219 -0.283693 
283 1.78567 0.844263 0.902927 0.529943 0 0 0 2.21428 7.11648 5.7288 
326 2.4987 1.10644 1.22629 0.479725 0 0 0 0.917756 -0.587059 -0.275431 
470 3.20794 1.21786 1.38465 0.675378 0 0 0 0.604945 0.650653 0.479887 
313 2.78303 0.837263 1.4233 0.569371 0 0 0 0.688851 -0.469754 0.030505 
457 1.88295 1.3176 1.42382 0.328056 0 0 0 -1.57499 0.173262 0.325354 
455 2.09929 1.46729 1.04026 0.396737 0 0 0 0.737338 -0.56695 -0.644783 
422 2.35313 1.29626 1.0816 0.446572 0 0 0 1.03423 -0.563855 -0.623604 
456 2.55983 0.341736 1.38463 0.628052 0 0 0 -0.349841 -1.08265 -0.530435 
474 1.85407 1.41999 1.30336 0.322766 0 0 0 -0.756406 0.168643 0.00895846 
300 3.62897 -0.222315 1.47508 1.02441 0 0 0 0.628927 -0.628305 -0.0936783 
478 2.35707 1.45326 0.867208 0.466213 0 0 0 1.2053 -0.344435 -0.812687 
340 1.70263 1.43604 1.41147 0.286352 0 0 0 -0.968925 0.607049 -0.388341 
281 1.70783 0.00684065 0.314212 0.851725 0 0 0 -0.0686794 0.525068 0.736437 
333 2.95213 0.625803 2.57619 0.753147 0 0 0 0.713178 0.39876 0.502303 
323 1.96024 1.06257 1.74773 0.38267 0 0 0 -0.574149 -0.518605 -0.531191 
335 2.66602 0.847273 2.44812 0.646093 0 0 0 0.592451 0.832707 0.530761 
491 1.78687 1.17972 1.7055 0.338069 0 0 0 -0.880249 0.102122 -0.51581 
337 2.05362 -0.94572 1.91696 0.993527 0 0 0 -0.0302132 -0.872247 -0.198425 
338 3.03182 0.240148 2.16305 0.772454 0 0 0 0.621383 -0.400484 0.185024 
339 1.79311 0.243018 1.69179 0.597999 0 0 0 -0.162311 1.31185 -0.0847316 
370 1.65925 -0.976646 2.59511 1.0346 0 0 0 -0.003718 -0.913978 -0.00498427 
452 2.42607 0.244133 1.74989 0.624613 0 0 0 -0.26287 -1.0464 -0.489044 
295 2.09994 0.574215 2.39619 0.55971 0 0 0 0.422656 -0.554889 0.4498 
296 2.19624 1.05237 1.56909 0.416345 0 0 0 0.0525267 -0.767554 0.00171283 
344 2.37282 0.960804 1.94511 0.493171 0 0 0 0.0946632 -0.74796 -0.194971 
345 3.40708 1.06476 2.12277 0.795708 0 0 0 0.61772 0.513869 0.40895 
346 2.01393 0.960275 1.86444 0.415939 0 0 0 0.21255 -0.860726 0.00198483 
364 1.68475 1.12266 1.87406 0.355485 0 0 0 0.0337443 -0.642929 -0.441133 
348 3.88722 1.46542 2.1892 0.984173 0 0 0 0.623112 0.145072 0.180691 
331 2.11756 0.995949 1.72374 0.415841 0 0 0 0.0795549 -0.764338 -0.0601414 
350 2.36019 -0.0946009 1.6119 0.719203 0 0 0 -0.476419 -0.847104 -0.611075 
351 1.77259 1.23309 1.64011 0.323702 0 0 0 -1.06183 0.264781 -0.192634 
352 2.46184 0.668521 2.2626 0.582331 0 0 0 0.676367 0.057301 0.582552 
363 2.55574 -0.637618 2.03573 0.923297 0 0 0 0.0626241 -0.993191 -0.189398 
45 1.68419 1.14929 1.83489 0.346042 0 0 0 -0.0692476 -0.451669 -0.387505 
365 1.6938 0.222904 2.39009 0.619914 0 0 0 -0.246746 -1.2042 -0.522444 
356 3.26093 1.43479 2.49167 0.819986 0 0 0 0.0772194 0.442799 0.108642 
357 2.16287 1.08651 2.24832 0.502367 0 0 0 -1.1952 -1.26627 -1.34786 
358 2.14802 0.666399 2.60498 0.595298 0 0 0 0.560592 0.181449 0.638786 
359 3.56757 -0.600347 2.21029 1.1353 0 0 0 0.571196 -0.671618 0.0263305 
360 1.95003 0.186197 2.18312 0.617076 0 0 0 -0.299118 -1.0673 -0.548397 
361 2.06205 -0.717427 1.53364 0.916867 0 0 0 -0.165972 -0.667977 -0.288183 
362 2.41713 0.274354 1.96776 0.62137 0 0 0 -0.0196183 -1.05123 -0.266862 
460 1.97018 1.14592 1.60674 0.364136 0 0 0 -1.3318 -0.186374 -0.368042 
303 2.32215 1.05424 1.64056 0.44636 0 0 0 -0.243833 -1.64991 -0.782112 
393 1.97008 -0.328916 2.07153 0.770047 0 0 0 -0.341789 -0.895129 -0.523352 
324 2.45377 0.691631 1.9828 0.539928 0 0 0 0.658958 -0.447211 0.399847 
312 3.14154 1.31987 1.96638 0.699457 0 0 0 -0.0356264 0.7995 0.326168 
375 1.7987 0.918465 2.0944 0.426674 0 0 0 0.572518 -1.16246 0.509425 
459 2.65914 0.457162 1.80806 0.612563 0 0 0 0.369617 -0.819333 -0.0486534 
62 1.74291 1.05769 1.9291 0.377705 0 0 0 0.103592 -0.931121 -0.414974 
380 2.33975 0.664182 2.34272 0.573092 0 0 0 0.614351 -0.00927621 0.600958 
485 1.68786 1.16813 1.80446 0.339539 0 0 0 -0.171965 -0.322411 -0.330634 
510 2.07899 0.979139 1.78211 0.415851 0 0 0 0.124254 -0.791912 -0.0554906 
497 1.81804 0.609487 2.48231 0.542849 0 0 0 0.301666 -0.771576 0.409442 
347 1.77136 -0.881257 1.97401 0.962732 0 0 0 -0.0895687 -0.786557 -0.247523 
377 3.60723 1.30346 2.56839 0.933679 0 0 0 0.514253 0.27203 0.238897 
314 2.7149 0.746782 1.7233 0.570734 0 0 0 0.739715 -0.292764 0.267026 
388 1.7547 1.18522 1.72428 0.334977 0 0 0 -0.686828 0.0361316 -0.442135 
315 2.63579 0.314013 1.72366 0.638917 0 0 0 0.0537962 -1.04205 -0.326277 
472 2.09293 0.870494 1.94172 0.448091 0 0 0 0.491729 -0.963442 0.346267 
483 1.82858 0.7566 2.34806 0.493682 0 0 0 0.439422 -0.869987 0.607152 
481 2.18418 0.922718 1.7832 0.441242 0 0 0 0.450465 -0.865631 0.161333 
53 1.96945 0.837129 2.09145 0.454926 0 0 0 0.523611 -1.05334 0.546325 
484 1.5969 0.907445 2.2591 0.443746 0 0 0 0.52075 -1.21088 0.880261 
384 3.3199 -0.642176 2.68997 1.13434 0 0 0 0.468074 -0.68985 0.149532 
79 1.6855 1.09273 1.92023 0.36669 0 0 0 0.137761 -0.8831 -0.419501 
492 1.57913 1.14675 1.92413 0.353494 0 0 0 0.285142 -0.823967 -0.0687806 
102 1.57313 0.883416 2.31386 0.456288 0 0 0 0.432792 -1.1559 0.886116 
353 2.07856 1.26353 2.64019 0.588624 0 0 0 -0.784892 0.435469 -1.26505 
462 2.05823 1.16867 1.5 0.374843 0 0 0 -1.12476 -0.441498 -0.0075204 
366 3.1868 0.394559 3.69955 1.11941 0 0 0 0.427855 -0.0589643 0.66126 
89 1.72107 0.843358 2.90213 0.612808 0 0 0 0.333695 0.563385 0.67729 
368 3.28497 -0.261775 3.55747 1.21014 0 0 0 0.427471 -0.424276 0.520481 
369 3.64678 0.246239 3.45704 1.1909 0 0 0 0.608272 -0.163268 0.482321 
378 2.68147 0.577426 2.86987 0.757391 0 0 0 0.589616 0.356552 0.599845 
389 2.14752 0.922801 3.36327 0.790331 0 0 0 0.30117 0.639926 0.697752 
95 1.59937 0.244863 3.84568 0.991724 0 0 0 0.0259984 -0.174656 0.844427 
373 1.65834 -0.0884552 2.8068 0.767132 0 0 0 -0.127096 -0.983984 -0.0238925 
390 2.59699 1.19522 3.71533 0.975795 0 0 0 0.20465 0.334112 0.633328 
86 1.82023 1.15322 3.19896 0.70523 0 0 0 0.238577 0.999373 0.37435 
376 2.3167 1.03751 3.19032 0.758192 0 0 0 0.302542 0.831219 0.474058 
391 3.65085 0.0254045 3.455 1.22491 0 0 0 0.591525 -0.276208 0.462937 
236 1.54662 0.573473 2.76919 0.603727 0 0 0 0.00798995 -0.614123 0.469218 
379 2.2848 0.0643924 2.74732 0.757382 0 0 0 0.197685 -0.711351 0.263049 
392 3.16306 0.164082 2.91473 0.933107 0 0 0 0.561885 -0.181143 0.368105 
381 3.3365 -0.184163 3.45156 1.17626 0 0 0 0.468466 -0.38844 0.486805 
115 1.62185 0.856725 2.99927 0.635536 0 0 0 0.269744 0.566751 0.738454 
386 3.19115 1.2429 3.66152 1.08251 0 0 0 0.343947 0.202029 0.542287 
97 1.83971 0.614676 2.73121 0.599047 0 0 0 0.341764 -0.19231 0.590663 
385 2.36353 -0.0875403 3.34842 0.945011 0 0 0 0.184315 -0.438183 0.551911 
413 2.04561 3.55203 0.25629 0.937592 0 0 0 0.0167861 0.826883 0.106744 
396 3.29248 3.22369 0.0353798 1.0748 0 0 0 0.396761 0.490324 -0.151135 
417 1.86394 3.11944 -0.421517 0.938946 0 0 0 0.0259745 0.635532 -0.497435 
398 3.25696 2.67494 0.143852 0.92157 0 0 0 0.465734 0.363356 -0.0248105 
418 3.60252 2.06813 -0.0315379 0.979933 0 0 0 0.668189 0.103286 -0.26778 
400 3.51106 2.53616 -0.0693574 1.01263 0 0 0 0.566675 0.207832 -0.261321 
420 1.73365 2.37769 -0.458361 0.802557 0 0 0 0.0173827 0.149971 -0.821989 
414 2.02101 2.40555 -0.00567272 0.688314 0 0 0 0.19404 0.747606 -0.386239 
416 2.84934 3.42506 -0.151609 1.0695 0 0 0 0.207373 0.613229 -0.261572 
404 3.3127 3.00276 -0.201167 1.07257 0 0 0 0.424782 0.366715 -0.332242 
415 3.39604 3.43407 0.0890916 1.15433 0 0 0 0.40462 0.538802 -0.151417 
322 1.89507 1.81396 -0.137579 0.663461 0 0 0 -0.322297 -0.68044 -0.736585 
407 3.49973 1.68272 -0.386589 1.01346 0 0 0 0.577612 0.0301436 -0.502842 
408 2.0203 1.93863 -0.607179 0.832004 0 0 0 -0.0249629 -0.176076 -0.869677 
202 2.56613 1.60662 0.174906 0.644142 0 0 0 0.242806 -0.252902 -0.7042 
410 3.59069 2.9862 -0.00985058 1.11004 0 0 0 0.546404 0.338198 -0.221807 
411 1.93646 3.67859 -0.35509 1.08848 0 0 0 -0.0202915 0.765227 -0.41814 
289 2.40056 1.93837 0.244713 0.614262 0 0 0 0.514122 0.450147 -0.390135 
262 1.74618 2.1512 0.279798 0.555166 0 0 0 0.0127436 0.577665 -0.810538 
12 2.05402 1.71887 0.758045 0.438054 0 0 0 1.01315 -0.035298 -1.31535 
419 2.13205 2.72408 0.89958 0.661815 0 0 0 -0.342881 -0.253291 0.907373 
406 2.42478 3.61753 0.65994 0.970485 0 0 0 -0.017894 0.633409 0.325805 
5 1.83387 1.60258 1.06899 0.350518 0 0 0 0.518223 -0.00483048 -0.43936 
282 2.10938 1.7138 0.725207 0.451014 0 0 0 1.02965 -0.00762213 -1.22511 
332 2.94217 1.87249 1.48281 0.658018 0 0 0 -1.34656 0.0500732 0.272348 
273 1.97812 2.02246 0.498349 0.505725 0 0 0 0.418204 0.715734 -0.889751 
465 1.55316 1.80293 1.02061 0.35275 0 0 0 0.423573 0.413172 0.11659 
473 2.46734 1.59649 0.666435 0.51846 0 0 0 0.967296 0.00928152 -0.462024 
431 2.32608 2.05446 0.51998 0.560178 0 0 0 0.724081 0.993826 0.16307 
14 1.55419 1.93329 0.828391 0.405065 0 0 0 0.0452465 0.830658 -0.972363 
292 1.85024 1.93215 0.623206 0.458609 0 0 0 0.520266 0.63328 -1.45576 
434 2.75645 2.12253 0.776655 0.64035 0 0 0 0.275957 0.828486 0.976966 
435 2.27549 2.78876 1.36395 0.724157 0 0 0 -1.28369 -1.59754 0.0353237 
449 1.78491 1.65285 1.04032 0.351593 0 0 0 0.620082 0.0966938 -0.444124 
397 2.83484 3.18348 0.751307 0.89463 0 0 0 -0.0118857 0.462726 0.500416 
503 1.69432 1.53292 1.28278 0.296976 0 0 0 0.0870409 0.66821 -1.17532 
439 2.23607 1.68881 0.72162 0.47007 0 0 0 0.997476 -0.149412 -1.01178 
440 3.40613 2.58476 1.18372 0.890002 0 0 0 0.0148162 0.225988 0.341527 
321 3.75634 1.95026 1.30416 0.908665 0 0 0 0.522749 0.204472 0.235074 
442 2.01407 1.55506 0.987743 0.389567 0 0 0 0.846775 -0.376326 -0.680728 
280 3.36552 1.9208 0.844516 0.776134 0 0 0 0.563172 0.495322 0.460949 
409 2.06938 2.0925 1.00963 0.487093 0 0 0 -3.00224 -4.83825 -2.50901 
132 1.60202 2.67402 1.23181 0.59776 0 0 0 -0.89676 -2.87803 -0.340803 
412 3.37692 2.95078 0.915982 0.958067 0 0 0 0.185452 0.354268 0.329062 
467 2.39566 1.7078 0.607564 0.518875 0 0 0 0.911695 0.184912 -0.454117 
475 1.63585 1.75674 1.01821 0.351081 0 0 0 0.571937 0.320022 -0.170067 
297 1.88583 2.11885 0.46827 0.516635 0 0 0 0.269604 0.900473 -0.810954 
258 1.88163 2.07849 0.490088 0.505801 0 0 0 0.292705 0.819135 -0.95932 
21 1.95024 1.79309 0.736995 0.433784 0 0 0 0.834979 0.192485 -1.45174 
155 1.57048 2.57304 1.0308 0.55628 0 0 0 -0.930729 -1.97378 -0.346241 
152 1.64318 3.26844 0.896394 0.775455 0 0 0 0.14505 0.320247 0.577042 
330 3.25835 2.11222 1.26292 0.765142 0 0 0 -0.227385 0.346552 0.51738 
50 2.10971 2.0188 0.461297 0.528911 0 0 0 0.523322 0.760777 -0.524139 
11 1.82699 1.65768 0.998591 0.364156 0 0 0 0.726063 0.056125 -0.47921 
221 3.06292 2.07823 0.893005 0.704357 0 0 0 0.191732 0.675892 0.805535 
74 3.04859 1.89687 0.613138 0.697119 0 0 0 0.733946 0.698616 0.481368 
446 2.36993 1.57697 0.416041 0.551071 0 0 0 0.33839 -0.38122 -0.777632 
395 2.2081 3.17316 0.332806 0.823203 0 0 0 0.0906783 0.789284 0.380109 
259 2.6154 1.55377 0.447525 0.589886 0 0 0 0.615108 -0.134966 -0.484158 
421 3.45212 3.42163 0.54613 1.11866 0 0 0 0.356768 0.514225 0.0955134 
454 1.56662 1.58654 1.31649 0.28087 0 0 0 0.55941 0.530529 -1.02813 
46 1.85723 1.59487 1.06019 0.35494 0 0 0 0.539106 -0.0521559 -0.419179 
342 1.94864 1.51663 1.09143 0.362943 0 0 0 0.365588 -0.248057 -0.311631 
468 1.84502 1.61503 1.04262 0.3569 0 0 0 0.60507 -0.0199431 -0.435498 
3 1.71464 1.71188 1.01634 0.352866 0 0 0 0.641878 0.22307 -0.361613 
305 1.96778 2.68475 0.388914 0.661757 0 0 0 0.243349 1.21751 0.507531 
197 2.25482 2.31209 0.3489 0.622 0 0 0 0.537139 1.21491 0.27893 
405 2.37908 2.7423 0.381571 0.727044 0 0 0 0.265658 0.922387 0.602305 
401 2.75364 3.61332 0.332401 1.03903 0 0 0 0.115527 0.715405 0.107313 
13 1.5531 1.67704 1.20138 0.307974 0 0 0 0.785542 0.491722 -0.79443 
387 2.43191 1.68888 2.17911 0.610126 0 0 0 -3.33247 -1.77716 -2.9574 
482 2.51488 2.75822 2.0488 0.826887 0 0 0 -1.56773 -1.33388 -0.988772 
463 2.97196 2.60117 1.62743 0.818333 0 0 0 -1.07676 -0.446853 -0.0860621 
394 2.64218 1.6578 2.44454 0.691171 0 0 0 -1.51703 -0.0734081 -1.27244 
319 3.26548 1.82336 1.59356 0.744788 0 0 0 -0.412093 0.388319 0.34238 
500 3.11263 2.32838 2.11933 0.848984 0 0 0 -0.956537 -0.383038 -0.424587 
487 2.72996 2.14152 2.33656 0.768566 0 0 0 -1.73821 -0.883125 -1.23836 
502 2.94168 3.12339 2.45848 1.05466 0 0 0 -0.570321 -0.288444 -0.388159 
499 3.04774 2.90835 2.592 1.0427 0 0 0 -0.532284 -0.292078 -0.370328 
429 3.27854 2.24372 1.5145 0.807218 0 0 0 -0.495907 0.0821245 0.239963 
504 1.83959 1.98452 2.30363 0.597569 0 0 0 -3.80711 -5.34004 -5.67604 
383 3.18367 1.5004 2.61693 0.827666 0 0 0 -0.0343791 0.389495 0.0164114 
99 1.58531 1.59037 3.49474 0.813437 0 0 0 0.149989 0.619338 0.28384 
382 2.94579 1.66321 3.32611 0.956235 0 0 0 0.0216861 0.231201 0.173936 
374 2.17945 1.70019 3.15937 0.782232 0 0 0 -0.40897 0.359906 -0.575184 
367 2.15103 1.73257 3.16272 0.78398 0 0 0 -0.427394 0.315475 -0.617714 
512 1.68195 3.18105 2.91329 0.986987 0 0 0 -0.181808 -0.379611 -0.491417 
498 3.03601 3.15207 3.07829 1.20085 0 0 0 -0.264337 -0.140551 -0.154732 
508 2.36176 2.26392 2.93278 0.848656 0 0 0 -1.00139 -0.572087 -1.04112 
488 2.76679 3.03525 3.02365 1.10813 0 0 0 -0.447052 -0.241937 -0.294052 
100 1.61345 1.74365 3.65537 0.886141 0 0 0 0.0867502 0.432658 0.364274 
245 1.53524 1.87342 3.55191 0.862726 0 0 0 0.113813 0.405952 0.174804 
ITEM: TIMESTEP
740913
ITEM: NUMBER OF ATOMS
512
ITEM: BOX BOUNDS ss ss ss
-8.1988304040437454e-01 3.8875120101141034e+00
-9.7693552394909078e-01 3.9476017366228966e+00
-9.1281994132074906e-01 3.9096273972560476e+00
ITEM: ATOMS id x y z width_SPH x_COM y_COM z_COM vx vy vz 
263 1.46291 0.88658 -0.25534 0.797053 0 0 0 -0.184394 0.0652865 0.617649 
403 1.47176 1.28214 -0.572764 0.836227 0 0 0 -0.296155 -0.417887 -0.281616 
25 0.482323 0.121029 0.00277201 1.02263 0 0 0 0.431046 0.529145 0.569935 
279 1.31897 1.03444 -0.485 0.850874 0 0 0 -0.18906 -0.165795 0.106878 
402 1.48864 1.3275 -0.648025 0.85646 0 0 0 -0.281503 -0.409924 -0.421829 
16 0.283966 0.66558 0.148015 0.902205 0 0 0 0.58657 0.592038 0.780361 
8 0.548845 0.851562 0.116515 0.825731 0 0 0 0.734463 0.682655 1.15149 
131 1.2062 1.40827 0.666028 0.517611 0 0 0 4.80116 6.68501 7.38438 
217 -0.458206 1.32447 1.07566 0.827557 0 0 0 -0.140233 -0.412279 -0.1399 
2 -0.191095 0.578915 0.378223 0.976755 0 0 0 0.269455 0.355318 0.381144 
24 0.947306 0.538061 0.655896 0.732037 0 0 0 1.68997 2.78521 2.58762 
129 -0.0272417 1.21936 0.471865 0.809151 0 0 0 0.46494 -0.111324 0.504357 
224 -0.038179 1.2323 1.09789 0.718727 0 0 0 1.00088 -0.0777528 0.267218 
78 0.717476 0.41627 1.446 0.68431 0 0 0 2.086 2.94738 0.725825 
67 0.0566762 0.170703 1.35969 0.867434 0 0 0 0.646845 0.692233 0.00584573 
22 1.10961 0.782244 0.476522 0.689893 0 0 0 1.54611 2.71441 3.1976 
125 0.0919189 1.14992 0.334145 0.817638 0 0 0 0.529011 0.0432006 0.63973 
10 0.362727 0.340202 0.33705 0.920793 0 0 0 0.743232 0.86578 0.897113 
68 -0.629255 1.10997 1.49534 0.872299 0 0 0 -0.401498 -0.26831 -0.303191 
116 -0.467659 -0.224835 2.43602 1.06883 0 0 0 -0.510455 -0.413941 -0.0581848 
39 1.33122 1.26246 1.96203 0.349427 0 0 0 -0.248308 -0.393006 0.561895 
57 -0.136591 -0.184234 1.60661 0.978297 0 0 0 0.0862961 0.0850681 -0.196879 
111 1.47857 0.661591 1.94947 0.479314 0 0 0 3.06054 4.58008 2.61074 
59 0.836237 1.31492 2.27397 0.459127 0 0 0 -1.05532 -0.0553292 0.985104 
183 0.484318 1.33661 2.61271 0.586943 0 0 0 -0.675445 -0.0649988 0.479692 
80 1.06798 1.32418 2.08947 0.394888 0 0 0 -0.907415 0.0277533 0.821329 
103 -0.666446 -0.192847 2.21681 1.11079 0 0 0 -0.541728 -0.319407 -0.0821378 
63 -0.481044 0.335769 1.67077 0.939105 0 0 0 -0.201776 0.0269407 -0.274243 
64 0.692265 1.25099 1.95539 0.468145 0 0 0 1.8128 3.52171 2.44696 
65 1.41229 1.12563 2.09167 0.384751 0 0 0 0.113549 -1.07861 0.468896 
66 0.53632 -0.1533 1.5622 0.845279 0 0 0 0.649433 0.683617 -0.164177 
27 1.41507 1.3286 1.80372 0.309626 0 0 0 -0.411663 -0.393934 1.39363 
343 1.489 1.48456 1.52633 0.252367 0 0 0 0.0620382 0.0890428 -0.0237365 
69 0.578514 1.29327 2.42893 0.533072 0 0 0 -0.970034 -0.283487 0.404201 
82 0.155994 0.760116 1.618 0.699976 0 0 0 1.16226 0.799978 -0.32529 
71 0.319322 -0.0268635 1.59758 0.843495 0 0 0 0.618216 0.613295 -0.223031 
509 1.47935 1.4766 1.54574 0.254225 0 0 0 0.182456 0.0866655 -0.118278 
226 0.739724 1.28996 2.43124 0.504118 0 0 0 -0.860321 -0.174969 0.697994 
511 1.41956 1.17052 2.0196 0.366043 0 0 0 0.0941563 -0.908915 0.297167 
118 0.968939 0.167097 2.50852 0.690235 0 0 0 -0.380094 -0.897093 -0.669399 
26 1.04233 1.47276 1.91231 0.366374 0 0 0 -0.425778 0.305208 0.348035 
77 0.568464 0.474338 2.28659 0.658594 0 0 0 -0.193276 -0.487506 -0.883505 
92 0.62797 -0.707372 2.33072 0.9835 0 0 0 -0.0562686 -0.63396 -0.231831 
107 0.249774 0.442637 2.19695 0.724249 0 0 0 -0.0884797 -0.27527 -0.803408 
122 1.04947 0.3849 2.37967 0.613127 0 0 0 -0.286989 -0.858499 -0.736334 
94 1.18309 0.612667 2.42577 0.545582 0 0 0 -0.172983 -1.01251 -0.0157573 
247 0.952668 1.10213 2.48173 0.497486 0 0 0 -0.611965 -0.522927 0.847377 
73 1.44161 0.794433 2.54928 0.516405 0 0 0 0.0604074 -0.778596 0.685152 
87 0.756024 0.283345 2.07374 0.669736 0 0 0 0.352331 0.328724 -0.886049 
84 -0.667103 1.05545 2.40896 0.902827 0 0 0 -0.847662 -0.267151 -0.18099 
507 1.18214 1.13119 2.2489 0.425769 0 0 0 -0.485942 -0.575619 1.24127 
169 1.39493 0.991799 2.28373 0.436526 0 0 0 0.175005 -1.0774 1.1109 
85 0.770573 -0.606564 1.99598 0.927263 0 0 0 0.0904873 -0.341424 -0.356415 
371 1.36018 0.868789 2.51444 0.500147 0 0 0 -0.0253554 -0.820997 0.806179 
448 0.609032 1.28908 1.89856 0.483826 0 0 0 1.71747 3.16729 1.9917 
328 0.993108 0.774308 2.21876 0.511074 0 0 0 0.604118 0.591834 0.63153 
112 0.973456 1.266 2.22439 0.433459 0 0 0 -0.947473 -0.0536074 1.1969 
40 0.542471 1.29074 2.42961 0.540919 0 0 0 -0.994513 -0.331612 0.322531 
496 1.48485 1.48105 1.5348 0.253068 0 0 0 0.119664 0.0927185 -0.0759691 
42 1.22246 1.29781 2.00115 0.362851 0 0 0 -0.557238 -0.188868 0.501133 
237 1.11561 1.25582 2.14125 0.402222 0 0 0 -0.810564 -0.184007 0.98355 
494 1.38749 1.19011 2.01749 0.364347 0 0 0 -0.0150632 -0.801408 0.357267 
181 0.316503 1.14153 2.56082 0.627436 0 0 0 -0.957846 -0.732067 -0.0854915 
81 -0.121094 -0.621642 2.09638 1.08734 0 0 0 -0.196998 -0.422686 -0.131278 
83 1.18469 -0.506684 2.52988 0.870695 0 0 0 -0.142375 -0.82128 -0.309911 
232 0.998008 1.0124 2.54917 0.515985 0 0 0 -0.467544 -0.616714 0.771113 
93 -0.508151 0.844909 2.0297 0.851663 0 0 0 -0.540525 -0.298774 -0.444177 
61 1.51203 0.359926 1.94817 0.566533 0 0 0 0.589527 1.39729 -0.113188 
349 1.50386 -0.38165 1.57127 0.808644 0 0 0 -0.129203 0.234024 -0.291416 
253 1.16405 1.08585 2.3957 0.460849 0 0 0 -0.611587 -0.907062 0.937604 
193 -0.727528 1.42163 1.5528 0.877435 0 0 0 -0.696342 -0.372887 -0.303492 
506 1.46209 1.27675 1.83871 0.320017 0 0 0 -0.221658 -0.637789 0.942478 
44 -0.248205 1.37176 1.89731 0.712933 0 0 0 -0.599125 -0.717587 -0.652019 
32 1.23784 1.37168 1.88979 0.336999 0 0 0 -0.418109 -0.0104096 0.780313 
493 1.20601 1.42553 1.84334 0.331297 0 0 0 -0.251669 0.0107076 0.833613 
9 1.40198 1.32545 1.82112 0.313666 0 0 0 -0.524637 -0.595548 1.18542 
218 1.31593 1.40023 1.78917 0.309642 0 0 0 -0.538572 -0.47101 1.28611 
200 -0.243769 1.45154 1.90837 0.70623 0 0 0 -0.689971 -0.73586 -0.614242 
486 1.31685 1.26323 1.982 0.354056 0 0 0 0.424819 0.778328 1.34996 
98 0.192042 0.505969 2.67417 0.762682 0 0 0 -0.547795 -0.679277 -0.319401 
113 1.36474 -0.767754 2.84603 0.993319 0 0 0 -0.051914 -0.877641 0.0551752 
114 -0.662817 0.667393 3.0988 1.0467 0 0 0 -0.730335 -0.208072 0.292162 
108 0.827865 -0.375046 3.19939 0.967029 0 0 0 -0.179657 -0.683321 0.269364 
163 0.56872 0.925251 2.79803 0.645967 0 0 0 -0.628998 -0.714724 0.303387 
60 0.824459 1.36372 3.15257 0.691633 0 0 0 0.33331 0.629419 0.835943 
117 0.983524 0.117897 3.70191 0.978819 0 0 0 -0.129097 -0.308783 0.718552 
51 0.407865 1.42257 2.78812 0.642071 0 0 0 -0.346603 0.249815 0.656784 
88 1.42973 0.53892 3.6292 0.869878 0 0 0 0.00638396 0.0152748 0.894945 
109 -0.521007 -0.195165 3.25587 1.19582 0 0 0 -0.575239 -0.438261 0.393265 
90 -0.819593 0.596005 2.78624 1.05283 0 0 0 -0.798713 -0.216511 0.112031 
91 0.794654 1.1685 3.90934 0.962243 0 0 0 -0.00640092 0.133374 0.951549 
227 1.33614 1.35544 2.76354 0.562285 0 0 0 -0.0936733 0.239764 -0.637912 
438 0.692844 1.45414 3.02107 0.665649 0 0 0 0.310298 0.681407 0.831901 
119 0.719813 0.0526588 3.43824 0.93251 0 0 0 -0.230064 -0.438123 0.511972 
430 1.20337 0.667931 2.80486 0.606694 0 0 0 -0.284881 -0.688802 0.484972 
96 1.21336 -0.443185 3.49593 1.03711 0 0 0 -0.0580933 -0.627555 0.498008 
121 -0.47888 0.852546 3.15732 0.981832 0 0 0 -0.686122 -0.19681 0.337562 
110 0.000528224 -0.178568 2.91004 0.989032 0 0 0 -0.41565 -0.545738 0.0950882 
120 -0.757146 1.33216 2.86286 0.982957 0 0 0 -0.855542 -0.063852 0.192641 
104 0.101179 -0.598304 3.21263 1.14763 0 0 0 -0.345983 -0.642432 0.341686 
101 0.537346 0.503478 3.11842 0.786338 0 0 0 -0.405484 -0.525515 0.336949 
238 1.23272 1.23413 2.83499 0.574662 0 0 0 0.182204 0.586751 0.304316 
123 -0.316983 2.86792 -0.691701 1.18977 0 0 0 -0.540347 0.329792 -0.659823 
159 0.397831 3.05213 -0.625382 1.0548 0 0 0 -0.285726 0.503081 -0.690784 
142 1.18785 3.80509 -0.0596164 1.05791 0 0 0 -0.10636 0.892014 -0.316702 
126 -0.541271 3.21741 0.184411 1.10843 0 0 0 -0.644979 0.551741 -0.319697 
127 0.805511 2.06303 -0.832081 0.949853 0 0 0 -0.270563 -0.262301 -0.886197 
158 0.896477 2.14782 -0.502456 0.825351 0 0 0 -0.343755 -0.410896 -0.874074 
143 -0.162422 2.51389 -0.788985 1.13562 0 0 0 -0.507481 0.116802 -0.73519 
149 1.11663 2.1868 -0.912532 0.958567 0 0 0 -0.152837 -0.115958 -0.939889 
151 1.36321 3.36621 0.288898 0.844522 0 0 0 0.0302165 0.959218 0.0450222 
274 1.33477 2.01645 -0.0268039 0.63667 0 0 0 -0.366981 -0.74372 -0.663879 
157 0.0134435 1.643 0.128941 0.821069 0 0 0 -0.211135 -0.666843 -0.103405 
156 -0.609024 1.93331 -0.650123 1.19061 0 0 0 -0.599157 -0.0660174 -0.549863 
130 0.986174 2.15088 0.267695 0.593013 0 0 0 -0.524964 -0.34013 -0.635042 
148 0.698616 1.49458 -0.23256 0.79159 0 0 0 -0.0750444 -0.610817 0.0774106 
137 -0.708157 2.86987 0.246401 1.07807 0 0 0 -0.787226 0.32315 -0.310881 
138 0.424977 2.62752 -0.593776 0.96303 0 0 0 -0.356605 0.182124 -0.803849 
141 0.160032 1.99701 -0.415255 0.914396 0 0 0 -0.476569 -0.434295 -0.67266 
140 0.86215 2.60215 -0.80908 0.979756 0 0 0 -0.192276 0.196978 -0.87562 
443 1.31898 2.0852 0.11608 0.599075 0 0 0 -0.363285 -0.428179 -0.737836 
444 1.48154 2.23981 0.0627871 0.6209 0 0 0 -0.259587 0.134144 -0.787072 
136 1.03226 1.8917 0.22151 0.597169 0 0 0 -0.149015 -0.793359 0.0687151 
268 1.46276 2.00807 0.113336 0.589759 0 0 0 -0.280086 -0.513164 -0.711811 
146 0.824176 2.05114 0.253743 0.615592 0 0 0 -0.451208 -0.79041 -0.379405 
180 0.816324 2.50705 0.789623 0.565311 0 0 0 -0.42204 1.23141 -0.299282 
190 0.82183 3.2916 1.17401 0.773672 0 0 0 0.338231 0.75139 0.367137 
178 -0.546732 3.08541 1.13917 0.974058 0 0 0 -0.646027 0.581692 -0.0204866 
220 0.899081 2.23258 1.45457 0.46091 0 0 0 -1.92837 -2.57318 -1.96288 
189 1.01701 2.26104 0.814599 0.48755 0 0 0 -0.947659 1.11265 -0.606393 
165 1.0488 2.30437 0.745469 0.502533 0 0 0 -0.824653 1.15658 -0.661824 
128 1.38577 3.34334 1.2518 0.793523 0 0 0 0.23832 -0.0104505 0.379256 
185 0.700686 3.36967 1.30718 0.807796 0 0 0 0.306446 0.749871 0.317377 
168 0.779368 2.05424 1.00595 0.471616 0 0 0 -0.205822 1.53649 0.706484 
186 -0.767694 1.72337 0.481583 0.983528 0 0 0 -0.740656 -0.285029 -0.211633 
170 0.556744 2.28227 0.547183 0.609205 0 0 0 -0.639454 -0.127185 -0.555096 
171 0.284592 3.56152 0.91582 0.929535 0 0 0 -0.124105 0.922011 0.0251792 
175 -0.673987 2.64647 1.34235 0.922313 0 0 0 -0.838165 0.285621 -0.05894 
124 0.946518 2.13444 1.0301 0.448058 0 0 0 -1.03374 1.02045 -0.15616 
187 -0.341971 2.06188 0.381159 0.85313 0 0 0 -0.732659 -0.502038 -0.361226 
134 1.44029 2.99975 0.715259 0.686524 0 0 0 0.237595 0.772263 0.57562 
198 1.10454 2.48527 1.32488 0.519695 0 0 0 -1.07312 -2.52529 -1.23748 
426 1.5256 1.8097 1.03414 0.350827 0 0 0 0.374439 0.399518 0.236638 
147 1.22188 1.9207 1.15986 0.365564 0 0 0 -0.681909 -0.612948 0.427426 
133 1.04449 2.31189 0.324245 0.588101 0 0 0 -0.518664 0.365593 -0.734288 
188 0.398832 2.22613 0.467432 0.652191 0 0 0 -0.608928 -0.528042 -0.525447 
20 1.40121 1.64926 1.36986 0.284344 0 0 0 1.58824 -0.491082 -0.210264 
216 -0.0737775 2.3515 1.33666 0.682756 0 0 0 -0.676881 0.16299 -0.232997 
206 -0.717435 1.91108 1.19378 0.879571 0 0 0 -0.880933 -0.367043 -0.250324 
154 -0.280088 3.2078 0.526566 0.978398 0 0 0 -0.533202 0.67251 -0.18891 
144 1.30247 2.01087 0.912942 0.407616 0 0 0 -0.672924 1.05414 -0.238498 
423 1.18173 2.03443 0.97732 0.411239 0 0 0 -0.851465 1.06108 0.0833991 
135 -0.226252 3.12139 0.410252 0.958209 0 0 0 -0.535672 0.632116 -0.247137 
192 0.529695 2.18854 0.465837 0.623393 0 0 0 -0.590008 -0.541618 -0.50183 
194 0.171581 2.21543 0.65167 0.670489 0 0 0 -0.636126 -0.568286 -0.480124 
196 0.990079 2.89059 1.10309 0.6406 0 0 0 0.388184 0.633296 0.419029 
203 0.532327 2.55461 0.541052 0.655194 0 0 0 -0.461113 0.623903 -0.448616 
150 1.41057 1.88553 0.988747 0.370978 0 0 0 2.87431 5.46621 3.79287 
214 -0.0711024 1.80496 0.791841 0.711167 0 0 0 -0.190293 -1.00773 -0.17294 
425 1.42104 1.95118 0.905405 0.394389 0 0 0 -0.2685 0.944293 -0.302364 
48 0.228425 2.29404 0.623423 0.667389 0 0 0 -0.652868 -0.340609 -0.50961 
162 1.52738 1.51565 1.44983 0.254791 0 0 0 -0.400388 0.1136 0.32032 
177 0.870216 1.99606 1.31465 0.416625 0 0 0 -0.428167 0.917051 0.359028 
139 0.901011 3.94731 0.7486 1.02061 0 0 0 -0.023948 0.908769 -0.0296497 
461 1.38948 1.75363 1.23162 0.316837 0 0 0 0.788858 0.0388733 0.353613 
210 0.261613 2.17599 0.847566 0.615998 0 0 0 -0.59464 -0.510685 -0.434905 
480 1.02343 2.02373 1.13292 0.409868 0 0 0 -0.664176 0.947492 0.473139 
28 1.05076 1.83854 1.404 0.360318 0 0 0 0.745312 0.122647 0.74645 
489 0.558855 2.27473 1.21427 0.519892 0 0 0 -0.640097 0.853596 -0.177992 
4 1.22245 1.72084 1.42292 0.315214 0 0 0 1.3136 -0.333603 0.539188 
19 1.14084 2.47426 0.428795 0.585358 0 0 0 -0.34545 1.10184 -0.529095 
336 0.479587 2.37429 1.18931 0.555285 0 0 0 -0.451981 0.940817 -0.147877 
469 1.0405 2.01731 1.12835 0.406967 0 0 0 -0.641728 0.936108 0.520242 
308 0.417195 2.38389 1.20765 0.568907 0 0 0 -0.422047 0.883008 -0.1444 
15 1.22459 1.8628 1.21612 0.350381 0 0 0 0.329909 0.109484 1.24231 
424 1.33272 2.62683 0.397188 0.618368 0 0 0 -0.072545 1.29742 -0.162122 
7 1.3725 2.12815 0.709269 0.457159 0 0 0 -0.584512 1.11293 -1.16707 
174 1.2968 1.80757 1.23498 0.332179 0 0 0 0.573472 -0.12493 0.9466 
6 1.09486 1.81937 1.39359 0.350537 0 0 0 0.885944 -0.0217715 0.820526 
458 0.509354 2.15863 1.40969 0.503689 0 0 0 -0.692729 0.732856 -0.055612 
433 1.53014 1.83936 0.985042 0.363364 0 0 0 0.317827 0.58787 0.09282 
437 1.46749 2.04176 0.748704 0.43492 0 0 0 -0.33698 1.01706 -1.23241 
153 1.27972 1.81894 1.23333 0.335818 0 0 0 0.531851 -0.101158 1.03867 
286 1.4825 2.02989 0.753377 0.43221 0 0 0 -0.289564 0.996501 -1.23874 
195 0.960329 1.93964 1.32812 0.392722 0 0 0 -0.00424388 0.669688 0.653955 
399 1.51635 1.93623 0.866643 0.397931 0 0 0 -0.429761 0.219327 -1.13914 
354 0.503415 2.10105 1.49637 0.495892 0 0 0 -0.741017 0.714501 0.0203515 
372 1.50625 1.49957 1.49052 0.251512 0 0 0 -0.213078 0.0451126 0.264229 
164 0.232474 1.81997 1.47903 0.555412 0 0 0 -0.187115 -0.251042 -0.150819 
17 1.50459 1.49817 1.49392 0.25144 0 0 0 -0.188162 0.047541 0.240343 
52 0.953886 1.86576 1.44846 0.38025 0 0 0 0.395467 0.462931 0.490552 
145 0.944092 3.68323 0.319779 0.962027 0 0 0 -0.0697371 0.942563 -0.136531 
256 0.55835 2.11604 1.73864 0.496381 0 0 0 -0.760167 0.519734 0.0905858 
495 1.04309 1.64388 1.68229 0.346147 0 0 0 0.72634 0.284262 0.134239 
248 0.868783 1.5629 1.93386 0.401682 0 0 0 -0.734147 0.724731 0.574569 
43 0.14892 2.31439 1.81883 0.623842 0 0 0 -0.186917 0.906596 0.491355 
76 0.906801 1.57911 1.88405 0.38908 0 0 0 -0.518096 0.646488 0.34713 
450 0.854479 1.64817 1.83468 0.397156 0 0 0 -0.471542 0.83288 0.328218 
166 1.19151 3.39112 1.71318 0.833435 0 0 0 0.311554 -0.187265 0.0848003 
70 0.975128 2.32045 2.30291 0.608757 0 0 0 0.374706 -1.55698 -1.46659 
199 -0.163991 2.48213 2.51655 0.815894 0 0 0 -0.221969 0.751756 0.499419 
223 -0.313711 3.51999 2.20263 1.0656 0 0 0 -0.343001 0.730766 0.185292 
201 -0.0323 3.01379 1.68138 0.815639 0 0 0 -0.0812782 0.978494 0.267415 
243 0.900445 2.03173 2.39423 0.56218 0 0 0 0.102893 -1.11851 -1.3564 
191 0.402004 2.14628 2.61254 0.667709 0 0 0 0.53759 1.1621 0.686821 
204 0.494255 3.83159 2.13436 1.03917 0 0 0 0.0831346 0.66334 0.133746 
49 0.769419 1.87247 1.59107 0.417371 0 0 0 -0.38801 1.00497 0.294931 
160 0.914954 1.82328 1.54462 0.382719 0 0 0 0.276297 0.470604 0.187903 
207 0.786907 2.75747 2.50756 0.754782 0 0 0 0.726067 0.142263 -0.116921 
208 1.03098 2.39112 1.63946 0.518101 0 0 0 -1.29662 -4.15687 -2.32212 
209 0.529457 2.20089 1.58261 0.507846 0 0 0 -0.583166 0.778399 0.0883593 
447 0.197364 2.26425 2.14673 0.63912 0 0 0 0.0858007 1.11295 0.77728 
211 0.711172 3.69218 1.79547 0.943618 0 0 0 0.22862 0.561473 0.152193 
212 0.65503 3.2858 1.83326 0.81231 0 0 0 0.46903 0.50844 0.273227 
213 0.0678188 3.4769 2.25792 0.980739 0 0 0 -0.0320973 0.748336 0.229377 
490 1.46128 1.49805 1.53103 0.253855 0 0 0 1.29248 -0.711355 0.128663 
215 0.794993 3.88391 2.27497 1.06153 0 0 0 0.148998 0.502787 0.0716867 
184 1.5004 1.49456 1.50257 0.251402 0 0 0 -0.121594 0.0573959 0.171721 
55 0.26669 2.26505 1.5319 0.574508 0 0 0 -0.404425 0.671153 0.0856399 
505 0.361118 1.60465 2.26191 0.548761 0 0 0 -0.983729 0.180599 0.294862 
255 1.2108 2.61048 2.17652 0.668962 0 0 0 0.0489631 -2.31921 -1.57548 
479 0.0168451 2.36861 2.04038 0.686486 0 0 0 -0.170003 0.920343 0.583074 
173 -0.124529 1.91621 1.83532 0.659828 0 0 0 -0.837762 -0.402903 -0.215163 
318 0.349875 1.78872 2.07953 0.534861 0 0 0 -0.89905 0.413723 0.360447 
54 0.430621 1.94053 1.8001 0.502879 0 0 0 -0.875947 0.602257 0.284626 
34 0.259994 2.18276 1.85537 0.57733 0 0 0 -0.275841 0.845156 0.514609 
172 0.165967 2.12749 1.58858 0.582572 0 0 0 -0.604316 0.131439 -0.0735 
229 1.0813 2.33349 2.53379 0.661708 0 0 0 0.497516 -1.05238 -1.40599 
234 1.04409 1.64646 1.67795 0.345828 0 0 0 0.744792 0.277155 0.135784 
252 1.1575 1.61768 1.62227 0.318148 0 0 0 1.06403 -0.250338 0.524596 
235 1.04832 1.62 1.71022 0.345715 0 0 0 0.625955 0.289108 0.162335 
29 0.843074 1.72178 1.74556 0.396693 0 0 0 -0.258866 0.877901 0.216113 
513 0.660697 1.56778 2.09004 0.460312 0 0 0 -1.20288 0.513732 0.742838 
241 1.06009 1.60521 1.72045 0.343451 0 0 0 0.600582 0.255486 0.207094 
38 0.320519 1.7588 2.2745 0.566248 0 0 0 -0.693092 0.511563 0.471373 
35 0.252086 1.76159 2.40264 0.603925 0 0 0 -0.543934 0.556805 0.510704 
30 0.500213 1.66022 2.12088 0.49953 0 0 0 -1.10766 0.440831 0.496606 
239 -0.58685 2.64441 2.57886 0.974138 0 0 0 -0.577175 0.458324 0.298064 
233 0.90461 1.60662 1.8497 0.38676 0 0 0 -0.399335 0.669485 0.256674 
75 0.829568 1.66228 1.83747 0.403138 0 0 0 -0.564193 0.86759 0.365801 
219 1.50021 1.49439 1.50297 0.251406 0 0 0 -0.118415 0.0579541 0.168319 
167 1.5004 1.49455 1.50259 0.251402 0 0 0 -0.121456 0.05742 0.171574 
466 1.5002 1.49437 1.503 0.251406 0 0 0 -0.118187 0.0579944 0.168075 
471 1.50021 1.49439 1.50297 0.251406 0 0 0 -0.118459 0.0579463 0.168366 
36 1.50028 1.49445 1.50282 0.251404 0 0 0 -0.119634 0.0577397 0.169625 
278 1.50195 1.4959 1.49935 0.251391 0 0 0 -0.146741 0.053221 0.198289 
37 1.50089 1.49497 1.50157 0.251396 0 0 0 -0.129508 0.0561009 0.180058 
58 1.50159 1.49559 1.5001 0.251391 0 0 0 -0.140997 0.0542279 0.192148 
47 1.07812 1.75571 1.49969 0.343427 0 0 0 1.02037 -0.136288 0.347782 
477 1.50167 1.49566 1.49993 0.251391 0 0 0 -0.142217 0.0539385 0.193557 
355 1.50134 1.49537 1.50062 0.251392 0 0 0 -0.136827 0.0548135 0.187891 
334 1.50104 1.49511 1.50125 0.251394 0 0 0 -0.131924 0.0556277 0.18271 
476 1.50097 1.49505 1.50139 0.251395 0 0 0 -0.130852 0.055808 0.181574 
179 1.50089 1.49498 1.50157 0.251396 0 0 0 -0.129444 0.0560458 0.180082 
222 1.50059 1.49472 1.50218 0.251399 0 0 0 -0.124605 0.0568733 0.174935 
302 1.50066 1.49478 1.50205 0.251398 0 0 0 -0.125692 0.0566861 0.176093 
176 1.50066 1.49478 1.50204 0.251398 0 0 0 -0.125753 0.0566757 0.176157 
225 0.922809 2.39725 3.41234 0.888288 0 0 0 0.373678 0.377017 0.311794 
106 0.302738 2.02714 3.35323 0.85724 0 0 0 0.120785 0.569724 0.780081 
249 -0.49856 2.47087 2.81671 0.959172 0 0 0 -0.536693 0.431532 0.394129 
228 -0.108657 3.23446 3.60257 1.22453 0 0 0 -0.281624 0.494539 0.579483 
254 -0.486119 2.76307 3.5122 1.1744 0 0 0 -0.471141 0.385432 0.584948 
230 0.506969 3.71141 2.9996 1.13779 0 0 0 0.0269045 0.555014 0.264729 
231 0.569902 2.2762 3.57917 0.935087 0 0 0 0.214649 0.45792 0.686147 
242 0.544176 2.40527 3.25163 0.856902 0 0 0 0.388557 0.60594 0.516847 
246 -0.356552 2.01124 3.52011 1.04153 0 0 0 -0.460424 0.227393 0.669544 
464 0.277934 1.66566 2.73314 0.660816 0 0 0 -0.253214 0.600731 0.673414 
205 0.789505 1.62297 3.04756 0.674937 0 0 0 0.588793 0.903109 0.639755 
251 0.368726 3.45847 3.03809 1.07462 0 0 0 0.0473277 0.574832 0.331762 
105 -0.172733 1.52945 3.72936 1.04181 0 0 0 -0.383882 0.0755032 0.777716 
250 0.796414 3.13054 3.39931 1.05192 0 0 0 0.168006 0.346701 0.318555 
244 1.25516 2.37352 3.45388 0.901675 0 0 0 0.225143 0.194195 0.0630314 
240 -0.316577 3.69298 3.4091 1.33894 0 0 0 -0.398568 0.574292 0.443189 
257 3.62637 1.21803 -0.278449 1.02737 0 0 0 0.662287 -0.0959379 -0.447612 
441 1.86625 1.15928 0.0293898 0.661003 0 0 0 -0.675384 -0.36967 0.601559 
288 3.67371 0.857921 0.0530722 0.991892 0 0 0 0.717087 -0.235556 -0.334332 
260 3.1323 0.827984 -0.609113 1.01911 0 0 0 0.333839 -0.274315 -0.675073 
261 3.52398 -0.100125 0.154681 1.093 0 0 0 0.502731 -0.634775 -0.330559 
276 2.55308 0.780198 -0.320848 0.838315 0 0 0 -0.251421 -0.566762 -0.547735 
427 2.22869 1.08024 0.20878 0.632711 0 0 0 -0.822423 -0.713988 -0.101793 
285 1.77615 0.218844 -0.0315107 0.864555 0 0 0 -0.18561 0.145299 0.517841 
436 2.35116 1.42219 -0.0512683 0.678327 0 0 0 -0.406546 -0.673959 -0.734147 
266 2.66025 0.936351 -0.843424 1.00718 0 0 0 0.0635738 -0.223772 -0.783956 
267 3.03037 0.608853 -0.0398085 0.865181 0 0 0 0.159059 -0.643756 -0.506133 
293 2.10191 1.07615 -0.870525 0.957154 0 0 0 -0.174107 -0.223626 -0.71873 
269 2.55512 0.949699 -0.706883 0.943089 0 0 0 -0.0495118 -0.288853 -0.743545 
270 2.46766 0.612224 -0.43221 0.891628 0 0 0 -0.223504 -0.523987 -0.496713 
271 3.23129 -0.57943 -0.176078 1.23192 0 0 0 0.36072 -0.692759 -0.376336 
272 1.6467 0.823015 0.128502 0.702438 0 0 0 -0.205691 0.701047 1.55324 
284 2.0421 0.32412 -0.432477 0.93621 0 0 0 -0.24378 -0.335188 -0.149027 
290 2.38962 -0.690836 -0.214172 1.17656 0 0 0 0.0652845 -0.547443 -0.230051 
291 3.16121 0.334524 -0.492723 1.06555 0 0 0 0.325713 -0.499016 -0.575625 
294 3.06872 0.327585 0.682211 0.794009 0 0 0 0.101738 -0.94226 -0.433149 
23 1.96012 1.40534 1.23483 0.349079 0 0 0 -0.599589 -0.217135 0.0857754 
453 2.93383 0.913308 1.3622 0.602813 0 0 0 0.732842 -0.100566 0.132446 
18 1.90807 1.36094 1.34067 0.333036 0 0 0 -1.25071 0.0131564 0.295418 
298 2.04666 1.34271 1.25147 0.367169 0 0 0 -0.540416 -0.421602 0.0781935 
299 2.9192 0.965585 1.15319 0.600933 0 0 0 0.695802 -0.294003 -0.119148 
451 2.12579 1.28905 1.26587 0.385298 0 0 0 -0.254693 -0.637347 -0.0746681 
301 3.70182 0.535436 1.4268 0.900411 0 0 0 0.879137 -0.217169 0.0445981 
264 2.45148 0.855531 0.620127 0.597321 0 0 0 -0.523682 -0.843215 -0.416914 
445 2.28053 1.21986 1.24788 0.423471 0 0 0 0.555509 -0.751888 -0.307308 
304 2.19732 1.11984 1.14349 0.43107 0 0 0 2.27655 2.78685 2.37232 
41 2.8642 0.991063 0.872284 0.609244 0 0 0 0.493113 -0.669897 -0.497235 
306 1.9942 1.20525 1.4957 0.358719 0 0 0 -1.55158 -0.175193 0.055595 
307 2.07214 1.04499 1.19277 0.425485 0 0 0 3.78033 7.11427 5.71591 
277 2.64747 1.39933 0.721807 0.548759 0 0 0 0.848645 -0.1649 -0.410681 
309 3.42367 0.409367 1.28612 0.825454 0 0 0 0.70541 -0.507596 -0.108074 
310 2.04762 -0.00925976 1.06794 0.725922 0 0 0 -0.566276 0.412281 0.0785001 
311 2.88347 1.04323 0.925479 0.602775 0 0 0 0.62763 -0.456711 -0.367877 
341 2.75568 1.06758 0.733257 0.594094 0 0 0 0.363314 -0.793574 -0.668199 
432 2.74185 1.44695 0.883124 0.55467 0 0 0 0.863018 0.249309 0.0388701 
161 2.00056 1.43223 1.16426 0.363505 0 0 0 -0.0699993 -0.338607 -0.117104 
182 2.69528 1.32605 0.523281 0.596685 0 0 0 0.459721 -0.519095 -0.622903 
316 2.92723 -0.308184 0.756848 0.92441 0 0 0 0.0547631 -0.866023 -0.307166 
317 3.34937 0.0147949 0.768078 0.924397 0 0 0 0.394662 -0.7677 -0.282425 
275 3.4093 -0.820406 0.709983 1.195 0 0 0 0.43001 -0.788076 -0.184211 
33 2.6597 0.845096 1.48871 0.537871 0 0 0 0.731276 -0.584742 0.0576953 
320 1.86541 0.0375261 0.931898 0.734205 0 0 0 -0.348806 1.04577 0.599283 
72 2.19326 1.16818 1.39318 0.403132 0 0 0 -0.136037 -0.769892 -0.024772 
265 1.93826 -0.369082 0.73291 0.882172 0 0 0 -0.204923 0.0532995 0.157719 
501 2.42645 1.15684 1.21412 0.460776 0 0 0 0.925126 -0.612874 -0.326082 
56 2.5703 0.702992 0.532528 0.656287 0 0 0 -0.587875 -1.04466 -0.472249 
325 2.33716 1.10413 1.34222 0.440661 0 0 0 0.761424 -0.601218 0.0305121 
287 2.41139 -0.366534 0.55564 0.915703 0 0 0 -0.190785 -0.554727 -0.138702 
327 3.3612 1.24899 1.48976 0.729281 0 0 0 0.60287 0.610929 0.465246 
329 1.95982 0.208864 1.14449 0.655286 0 0 0 -0.514436 1.36132 0.567943 
428 2.78133 0.813917 1.48194 0.571736 0 0 0 0.69674 -0.434572 0.0856655 
31 2.45657 0.720511 0.487635 0.649594 0 0 0 -0.729153 -0.862218 -0.283691 
283 1.78567 0.84427 0.902933 0.52994 0 0 0 2.2144 7.11666 5.72893 
326 2.4987 1.10644 1.22629 0.479726 0 0 0 0.917751 -0.587065 -0.275436 
470 3.20794 1.21786 1.38465 0.675378 0 0 0 0.604942 0.650652 0.479886 
313 2.78304 0.837262 1.4233 0.569371 0 0 0 0.68885 -0.469757 0.0305024 
457 1.88295 1.3176 1.42382 0.328056 0 0 0 -1.57499 0.173296 0.325367 
455 2.09929 1.46729 1.04026 0.396737 0 0 0 0.737337 -0.566939 -0.644784 
422 2.35313 1.29626 1.0816 0.446572 0 0 0 1.03422 -0.563859 -0.623611 
456 2.55983 0.341735 1.38463 0.628053 0 0 0 -0.34984 -1.08266 -0.530439 
474 1.85407 1.41999 1.30336 0.322766 0 0 0 -0.756413 0.168668 0.00896237 
300 3.62897 -0.222316 1.47508 1.02441 0 0 0 0.628927 -0.628306 -0.0936792 
478 2.35707 1.45326 0.867207 0.466213 0 0 0 1.20529 -0.344437 -0.812689 
340 1.70263 1.43604 1.41147 0.286352 0 0 0 -0.96894 0.607079 -0.388336 
281 1.70783 0.00684117 0.314212 0.851725 0 0 0 -0.068677 0.525068 0.736438 
333 2.95213 0.625804 2.57619 0.753148 0 0 0 0.713177 0.39876 0.502301 
323 1.96023 1.06257 1.74773 0.38267 0 0 0 -0.574156 -0.518603 -0.531193 
335 2.66602 0.847274 2.44812 0.646093 0 0 0 0.592449 0.832709 0.530758 
491 1.78687 1.17972 1.7055 0.338069 0 0 0 -0.880242 0.102166 -0.515773 
337 2.05362 -0.945721 1.91696 0.993527 0 0 0 -0.030213 -0.872248 -0.198425 
338 3.03182 0.240147 2.16305 0.772454 0 0 0 0.621383 -0.400485 0.185023 
339 1.79311 0.243019 1.69179 0.597998 0 0 0 -0.162303 1.31185 -0.0847288 
370 1.65925 -0.976647 2.59511 1.0346 0 0 0 -0.0037184 -0.913979 -0.00498474 
452 2.42607 0.244132 1.74989 0.624613 0 0 0 -0.26287 -1.0464 -0.489049 
295 2.09994 0.574215 2.39619 0.559711 0 0 0 0.422654 -0.55489 0.449796 
296 2.19624 1.05237 1.56909 0.416346 0 0 0 0.0525237 -0.767567 0.00170284 
344 2.37282 0.960804 1.94511 0.493171 0 0 0 0.0946588 -0.747957 -0.194977 
345 3.40708 1.06476 2.12277 0.795708 0 0 0 0.617718 0.513868 0.408949 
346 2.01393 0.960275 1.86444 0.415939 0 0 0 0.21254 -0.860738 0.00197264 
364 1.68475 1.12266 1.87406 0.355485 0 0 0 0.0337419 -0.64288 -0.441105 
348 3.88722 1.46542 2.1892 0.984173 0 0 0 0.62311 0.145072 0.180691 
331 2.11756 0.995949 1.72374 0.415841 0 0 0 0.0795492 -0.764351 -0.0601528 
350 2.36019 -0.0946017 1.6119 0.719203 0 0 0 -0.476418 -0.847105 -0.611077 
351 1.77259 1.23309 1.64011 0.323702 0 0 0 -1.06183 0.26481 -0.192604 
352 2.46185 0.668521 2.2626 0.582331 0 0 0 0.676367 0.0573032 0.582548 
363 2.55574 -0.637619 2.03573 0.923298 0 0 0 0.0626243 -0.993192 -0.189399 
45 1.68419 1.14929 1.83489 0.346042 0 0 0 -0.0692487 -0.45162 -0.387472 
365 1.6938 0.222903 2.39009 0.619914 0 0 0 -0.24675 -1.2042 -0.522447 
356 3.26093 1.43479 2.49167 0.819986 0 0 0 0.077217 0.442799 0.108641 
357 2.16287 1.0865 2.24832 0.502367 0 0 0 -1.19521 -1.26627 -1.34787 
358 2.14802 0.666399 2.60498 0.595298 0 0 0 0.56059 0.181453 0.638784 
359 3.56757 -0.600347 2.21029 1.1353 0 0 0 0.571196 -0.671619 0.0263298 
360 1.95003 0.186196 2.18312 0.617076 0 0 0 -0.29912 -1.0673 -0.548401 
361 2.06205 -0.717427 1.53364 0.916867 0 0 0 -0.165971 -0.667979 -0.288184 
362 2.41713 0.274353 1.96776 0.62137 0 0 0 -0.0196184 -1.05123 -0.266866 
460 1.97018 1.14592 1.60674 0.364136 0 0 0 -1.3318 -0.186354 -0.368031 
303 2.32215 1.05424 1.64055 0.44636 0 0 0 -0.243827 -1.6499 -0.782105 
393 1.97008 -0.328917 2.07153 0.770047 0 0 0 -0.34179 -0.89513 -0.523353 
324 2.45377 0.69163 1.9828 0.539928 0 0 0 0.658957 -0.447212 0.399841 
312 3.14154 1.31987 1.96638 0.699457 0 0 0 -0.0356309 0.799498 0.326166 
375 1.7987 0.918464 2.0944 0.426674 0 0 0 0.572499 -1.16247 0.509414 
459 2.65914 0.457161 1.80806 0.612563 0 0 0 0.369617 -0.819336 -0.0486577 
62 1.74291 1.05769 1.9291 0.377705 0 0 0 0.103579 -0.931099 -0.414968 
380 2.33975 0.664182 2.34272 0.573092 0 0 0 0.61435 -0.00927367 0.600954 
485 1.68786 1.16812 1.80446 0.339539 0 0 0 -0.171966 -0.322365 -0.3306 
510 2.07899 0.979138 1.78211 0.415851 0 0 0 0.124247 -0.791925 -0.0555024 
497 1.81804 0.609486 2.48231 0.542849 0 0 0 0.30166 -0.771577 0.409437 
347 1.77136 -0.881258 1.97401 0.962732 0 0 0 -0.0895686 -0.786558 -0.247524 
377 3.60723 1.30346 2.56839 0.933679 0 0 0 0.514251 0.272029 0.238897 
314 2.7149 0.746782 1.7233 0.570734 0 0 0 0.739714 -0.292765 0.267022 
388 1.7547 1.18522 1.72428 0.334977 0 0 0 -0.686824 0.036174 -0.442098 
315 2.63579 0.314012 1.72365 0.638917 0 0 0 0.0537965 -1.04206 -0.326282 
472 2.09293 0.870493 1.94172 0.448091 0 0 0 0.491721 -0.96345 0.346255 
483 1.82858 0.756599 2.34806 0.493683 0 0 0 0.439412 -0.869985 0.607144 
481 2.18418 0.922717 1.7832 0.441243 0 0 0 0.45046 -0.865641 0.161322 
53 1.96945 0.837128 2.09145 0.454927 0 0 0 0.5236 -1.05335 0.546313 
484 1.5969 0.907444 2.2591 0.443746 0 0 0 0.520732 -1.21088 0.88025 
384 3.3199 -0.642177 2.68997 1.13434 0 0 0 0.468074 -0.68985 0.149531 
79 1.68551 1.09273 1.92023 0.36669 0 0 0 0.137751 -0.883065 -0.419485 
492 1.57913 1.14675 1.92413 0.353494 0 0 0 0.285141 -0.823916 -0.0687545 
102 1.57313 0.883415 2.31387 0.456288 0 0 0 0.432777 -1.1559 0.886106 
353 2.07856 1.26353 2.64019 0.588624 0 0 0 -0.784902 0.435468 -1.26506 
462 2.05823 1.16867 1.5 0.374842 0 0 0 -1.12477 -0.44149 -0.00751819 
366 3.1868 0.394559 3.69955 1.11941 0 0 0 0.427854 -0.0589642 0.66126 
89 1.72107 0.843359 2.90213 0.612808 0 0 0 0.333692 0.563391 0.677289 
368 3.28497 -0.261775 3.55747 1.21014 0 0 0 0.42747 -0.424276 0.52048 
369 3.64678 0.246239 3.45704 1.1909 0 0 0 0.608271 -0.163268 0.48232 
378 2.68147 0.577427 2.86987 0.757391 0 0 0 0.589615 0.356553 0.599844 
389 2.14752 0.922801 3.36327 0.790332 0 0 0 0.301169 0.639927 0.697751 
95 1.59937 0.244862 3.84568 0.991725 0 0 0 0.0259977 -0.174655 0.844426 
373 1.65834 -0.0884562 2.8068 0.767132 0 0 0 -0.127098 -0.983985 -0.023894 
390 2.59699 1.19522 3.71533 0.975796 0 0 0 0.204649 0.334113 0.633327 
86 1.82023 1.15322 3.19896 0.70523 0 0 0 0.238576 0.999375 0.374349 
376 2.3167 1.03751 3.19032 0.758193 0 0 0 0.302541 0.83122 0.474057 
391 3.65085 0.0254042 3.455 1.22491 0 0 0 0.591524 -0.276208 0.462937 
236 1.54662 0.573472 2.76919 0.603727 0 0 0 0.00798536 -0.614123 0.469216 
379 2.2848 0.0643917 2.74732 0.757382 0 0 0 0.197684 -0.711352 0.263047 
392 3.16306 0.164082 2.91473 0.933107 0 0 0 0.561884 -0.181143 0.368104 
381 3.3365 -0.184164 3.45156 1.17626 0 0 0 0.468465 -0.38844 0.486804 
115 1.62185 0.856726 2.99927 0.635536 0 0 0 0.269742 0.566756 0.738453 
386 3.19115 1.2429 3.66152 1.08251 0 0 0 0.343946 0.20203 0.542287 
97 1.83971 0.614676 2.73121 0.599048 0 0 0 0.34176 -0.192308 0.590662 
385 2.36353 -0.0875407 3.34842 0.945012 0 0 0 0.184314 -0.438183 0.55191 
413 2.04561 3.55204 0.25629 0.937593 0 0 0 0.0167857 0.826883 0.106745 
396 3.29248 3.22369 0.0353797 1.0748 0 0 0 0.39676 0.490323 -0.151134 
417 1.86394 3.11944 -0.421518 0.938946 0 0 0 0.0259742 0.635531 -0.497433 
398 3.25696 2.67494 0.143852 0.921571 0 0 0 0.465733 0.363355 -0.0248101 
418 3.60252 2.06813 -0.0315382 0.979934 0 0 0 0.668188 0.103285 -0.26778 
400 3.51106 2.53616 -0.0693577 1.01263 0 0 0 0.566674 0.207831 -0.261321 
420 1.73365 2.37769 -0.458362 0.802557 0 0 0 0.0173818 0.149969 -0.821986 
414 2.02101 2.40555 -0.0056731 0.688315 0 0 0 0.194038 0.747604 -0.386237 
416 2.84934 3.42506 -0.151609 1.0695 0 0 0 0.207373 0.613228 -0.261571 
404 3.3127 3.00276 -0.201168 1.07257 0 0 0 0.424782 0.366715 -0.332242 
415 3.39604 3.43407 0.0890914 1.15433 0 0 0 0.404619 0.538802 -0.151416 
322 1.89507 1.81396 -0.13758 0.663462 0 0 0 -0.3223 -0.680443 -0.736583 
407 3.49973 1.68272 -0.38659 1.01346 0 0 0 0.577611 0.0301426 -0.502841 
408 2.0203 1.93863 -0.60718 0.832004 0 0 0 -0.0249638 -0.176077 -0.869675 
202 2.56613 1.60662 0.174905 0.644142 0 0 0 0.242803 -0.252905 -0.7042 
410 3.59069 2.9862 -0.0098508 1.11004 0 0 0 0.546403 0.338198 -0.221807 
411 1.93646 3.67859 -0.355091 1.08848 0 0 0 -0.0202915 0.765226 -0.418139 
289 2.40056 1.93837 0.244713 0.614263 0 0 0 0.514118 0.450145 -0.390133 
262 1.74618 2.1512 0.279797 0.555166 0 0 0 0.0127393 0.577661 -0.810532 
12 2.05403 1.71887 0.758044 0.438054 0 0 0 1.01314 -0.0352943 -1.31534 
419 2.13205 2.72408 0.899581 0.661815 0 0 0 -0.342886 -0.253295 0.907372 
406 2.42478 3.61753 0.65994 0.970486 0 0 0 -0.0178949 0.633409 0.325805 
5 1.83387 1.60258 1.06899 0.350519 0 0 0 0.518203 -0.00482929 -0.439365 
282 2.10938 1.7138 0.725206 0.451015 0 0 0 1.02964 -0.00762182 -1.2251 
332 2.94217 1.87249 1.48281 0.658018 0 0 0 -1.34657 0.0500694 0.272345 
273 1.97812 2.02246 0.498348 0.505726 0 0 0 0.418196 0.715731 -0.889742 
465 1.55316 1.80293 1.02061 0.35275 0 0 0 0.42355 0.413166 0.116576 
473 2.46734 1.59649 0.666434 0.51846 0 0 0 0.96729 0.00927906 -0.462023 
431 2.32608 2.05447 0.51998 0.560178 0 0 0 0.724076 0.993825 0.163076 
14 1.55419 1.93329 0.82839 0.405065 0 0 0 0.0452468 0.830676 -0.972347 
292 1.85024 1.93215 0.623205 0.45861 0 0 0 0.520255 0.633279 -1.45575 
434 2.75645 2.12254 0.776656 0.64035 0 0 0 0.275951 0.828483 0.976968 
435 2.27549 2.78876 1.36395 0.724156 0 0 0 -1.2837 -1.59754 0.0353208 
449 1.78491 1.65285 1.04032 0.351593 0 0 0 0.620059 0.0966925 -0.444131 
397 2.83484 3.18348 0.751308 0.89463 0 0 0 -0.0118874 0.462726 0.500416 
503 1.69432 1.53292 1.28278 0.296976 0 0 0 0.0870202 0.668209 -1.17533 
439 2.23607 1.68881 0.721619 0.470071 0 0 0 0.997467 -0.149412 -1.01178 
440 3.40613 2.58476 1.18372 0.890002 0 0 0 0.014814 0.225989 0.341526 
321 3.75634 1.95026 1.30416 0.908666 0 0 0 0.522747 0.204471 0.235074 
442 2.01407 1.55506 0.987742 0.389567 0 0 0 0.846771 -0.376314 -0.680727 
280 3.36552 1.9208 0.844517 0.776135 0 0 0 0.56317 0.49532 0.460948 
409 2.06938 2.09249 1.00963 0.487091 0 0 0 -3.00226 -4.83828 -2.50906 
132 1.60202 2.67402 1.23181 0.597759 0 0 0 -0.896779 -2.87805 -0.340819 
412 3.37692 2.95078 0.915982 0.958067 0 0 0 0.18545 0.354268 0.329062 
467 2.39566 1.7078 0.607564 0.518876 0 0 0 0.911689 0.18491 -0.454113 
475 1.63585 1.75674 1.01821 0.351081 0 0 0 0.571911 0.320017 -0.17008 
297 1.88583 2.11885 0.468269 0.516635 0 0 0 0.269598 0.90047 -0.810945 
258 1.88163 2.07849 0.490087 0.505802 0 0 0 0.292697 0.819132 -0.95931 
21 1.95024 1.79309 0.736994 0.433784 0 0 0 0.83497 0.192491 -1.45173 
155 1.57048 2.57304 1.0308 0.55628 0 0 0 -0.930744 -1.97379 -0.346256 
152 1.64318 3.26844 0.896395 0.775455 0 0 0 0.145049 0.320247 0.577042 
330 3.25835 2.11222 1.26292 0.765142 0 0 0 -0.227389 0.346552 0.517379 
50 2.10971 2.0188 0.461297 0.528912 0 0 0 0.523316 0.760775 -0.524132 
11 1.82699 1.65768 0.998591 0.364157 0 0 0 0.726046 0.0561272 -0.479214 
221 3.06292 2.07823 0.893006 0.704357 0 0 0 0.191728 0.67589 0.805535 
74 3.04859 1.89687 0.613138 0.697119 0 0 0 0.733943 0.698614 0.481369 
446 2.36993 1.57697 0.41604 0.551072 0 0 0 0.338385 -0.381225 -0.777633 
395 2.2081 3.17316 0.332806 0.823203 0 0 0 0.0906773 0.789283 0.38011 
259 2.6154 1.55377 0.447524 0.589886 0 0 0 0.615105 -0.134969 -0.484159 
421 3.45212 3.42163 0.54613 1.11866 0 0 0 0.356767 0.514225 0.0955136 
454 1.56662 1.58654 1.31649 0.28087 0 0 0 0.559391 0.530532 -1.02815 
46 1.85723 1.59487 1.06019 0.35494 0 0 0 0.539088 -0.0521541 -0.419183 
342 1.94864 1.51663 1.09143 0.362943 0 0 0 0.365576 -0.248051 -0.311635 
468 1.84502 1.61503 1.04262 0.3569 0 0 0 0.605051 -0.0199419 -0.435503 
3 1.71464 1.71188 1.01634 0.352866 0 0 0 0.641853 0.223067 -0.361622 
305 1.96778 2.68475 0.388914 0.661757 0 0 0 0.243347 1.21751 0.507533 
197 2.25482 2.31209 0.3489 0.622 0 0 0 0.537136 1.21491 0.278934 
405 2.37908 2.7423 0.381572 0.727044 0 0 0 0.265655 0.922385 0.602307 
401 2.75365 3.61332 0.332401 1.03903 0 0 0 0.115527 0.715405 0.107313 
13 1.5531 1.67704 1.20138 0.307975 0 0 0 0.785495 0.491688 -0.794474 
387 2.43191 1.68888 2.17911 0.610124 0 0 0 -3.33251 -1.77719 -2.95743 
482 2.51488 2.75822 2.0488 0.826886 0 0 0 -1.56774 -1.33388 -0.988775 
463 2.97196 2.60117 1.62743 0.818333 0 0 0 -1.07677 -0.446853 -0.0860626 
394 2.64218 1.6578 2.44453 0.691171 0 0 0 -1.51704 -0.0734102 -1.27244 
319 3.26548 1.82336 1.59356 0.744788 0 0 0 -0.412097 0.388318 0.342379 
500 3.11263 2.32838 2.11933 0.848984 0 0 0 -0.956542 -0.383038 -0.424587 
487 2.72996 2.14152 2.33656 0.768565 0 0 0 -1.73822 -0.883128 -1.23836 
502 2.94167 3.12339 2.45848 1.05466 0 0 0 -0.570323 -0.288443 -0.388158 
499 3.04774 2.90835 2.592 1.0427 0 0 0 -0.532286 -0.292076 -0.370327 
429 3.27854 2.24372 1.5145 0.807218 0 0 0 -0.495911 0.0821245 0.239962 
504 1.83958 1.98452 2.30363 0.597567 0 0 0 -3.8072 -5.34017 -5.67615 
383 3.18367 1.5004 2.61693 0.827666 0 0 0 -0.0343816 0.389496 0.0164112 
99 1.58531 1.59037 3.49474 0.813437 0 0 0 0.149989 0.61934 0.28384 
382 2.94579 1.66321 3.32611 0.956235 0 0 0 0.021685 0.231203 0.173936 
374 2.17945 1.70019 3.15937 0.782232 0 0 0 -0.408972 0.359909 -0.575185 
367 2.15103 1.73257 3.16272 0.78398 0 0 0 -0.427396 0.315477 -0.617715 
512 1.68195 3.18105 2.91329 0.986987 0 0 0 -0.181808 -0.379608 -0.491416 
498 3.03601 3.15207 3.07829 1.20085 0 0 0 -0.264338 -0.140549 -0.154732 
508 2.36176 2.26392 2.93278 0.848655 0 0 0 -1.0014 -0.572086 -1.04113 
488 2.76679 3.03525 3.02365 1.10813 0 0 0 -0.447054 -0.241935 -0.294052 
100 1.61345 1.74365 3.65537 0.886141 0 0 0 0.0867502 0.432661 0.364275 
245 1.53524 1.87342 3.55191 0.862726 0 0 0 0.113813 0.405955 0.174804 
ITEM: TIMESTEP
740914
ITEM: NUMBER OF ATOMS
512
ITEM: BOX BOUNDS ss ss ss
-8.1988304040437454e-01 3.8875120101141034e+00
-9.7693552394909078e-01 3.9476017366228966e+00
-9.1281994132074906e-01 3.9096273972560476e+00
ITEM: ATOMS id x y z width_SPH x_COM y_COM z_COM vx vy vz 
263 1.46291 0.88658 -0.255339 0.797053 0 0 0 -0.184392 0.0652862 0.617652 
403 1.47176 1.28214 -0.572765 0.836227 0 0 0 -0.296154 -0.417888 -0.281614 
25 0.482323 0.121029 0.00277258 1.02263 0 0 0 0.43105 0.529145 0.569936 
279 1.31897 1.03444 -0.485 0.850874 0 0 0 -0.189058 -0.165796 0.10688 
402 1.48864 1.3275 -0.648025 0.85646 0 0 0 -0.281502 -0.409924 -0.421827 
16 0.283967 0.665581 0.148016 0.902204 0 0 0 0.586576 0.592038 0.780364 
8 0.548846 0.851562 0.116516 0.82573 0 0 0 0.73447 0.682657 1.15149 
131 1.2062 1.40828 0.666035 0.517608 0 0 0 4.80131 6.68526 7.38455 
217 -0.458206 1.32447 1.07566 0.827558 0 0 0 -0.140228 -0.412279 -0.139899 
2 -0.191095 0.578916 0.378224 0.976755 0 0 0 0.269459 0.355317 0.381145 
24 0.947307 0.538063 0.655899 0.732036 0 0 0 1.68999 2.78523 2.58763 
129 -0.0272412 1.21936 0.471865 0.809151 0 0 0 0.464946 -0.111324 0.504359 
224 -0.038178 1.2323 1.09789 0.718727 0 0 0 1.00089 -0.0777508 0.267221 
78 0.717478 0.416273 1.446 0.684309 0 0 0 2.08602 2.9474 0.725836 
67 0.0566769 0.170703 1.35969 0.867433 0 0 0 0.646849 0.692234 0.00584746 
22 1.10961 0.782246 0.476526 0.689892 0 0 0 1.54613 2.71443 3.19762 
125 0.0919195 1.14992 0.334145 0.817638 0 0 0 0.529017 0.0432013 0.639732 
10 0.362728 0.340203 0.337051 0.920793 0 0 0 0.743239 0.865782 0.897115 
68 -0.629256 1.10997 1.49534 0.872299 0 0 0 -0.401494 -0.26831 -0.30319 
116 -0.46766 -0.224835 2.43602 1.06883 0 0 0 -0.510453 -0.413942 -0.0581846 
39 1.33122 1.26246 1.96203 0.349427 0 0 0 -0.248293 -0.392966 0.561918 
57 -0.136591 -0.184234 1.60661 0.978298 0 0 0 0.0862985 0.0850678 -0.196878 
111 1.47857 0.661595 1.94948 0.479313 0 0 0 3.06056 4.58006 2.61078 
59 0.836236 1.31492 2.27397 0.459127 0 0 0 -1.05531 -0.0553281 0.985099 
183 0.484318 1.33661 2.61271 0.586943 0 0 0 -0.675441 -0.0650005 0.479692 
80 1.06798 1.32418 2.08947 0.394889 0 0 0 -0.907401 0.0277572 0.821325 
103 -0.666447 -0.192848 2.21681 1.11079 0 0 0 -0.541726 -0.319407 -0.0821374 
63 -0.481045 0.335769 1.67077 0.939105 0 0 0 -0.201773 0.0269404 -0.274242 
64 0.692267 1.25099 1.9554 0.468144 0 0 0 1.81278 3.52169 2.44696 
65 1.41229 1.12562 2.09167 0.384752 0 0 0 0.113542 -1.07859 0.468896 
66 0.536321 -0.1533 1.5622 0.845279 0 0 0 0.649436 0.683618 -0.164176 
27 1.41507 1.3286 1.80372 0.309627 0 0 0 -0.411644 -0.393888 1.39369 
343 1.489 1.48456 1.52633 0.252367 0 0 0 0.0620378 0.0890478 -0.0237386 
69 0.578513 1.29327 2.42893 0.533072 0 0 0 -0.970027 -0.28349 0.404198 
82 0.155995 0.760116 1.618 0.699975 0 0 0 1.16227 0.799981 -0.325287 
71 0.319322 -0.0268629 1.59758 0.843495 0 0 0 0.61822 0.613295 -0.22303 
509 1.47935 1.4766 1.54574 0.254225 0 0 0 0.182453 0.0866721 -0.118277 
226 0.739723 1.28996 2.43124 0.504118 0 0 0 -0.860311 -0.17497 0.697991 
511 1.41956 1.17052 2.0196 0.366043 0 0 0 0.0941618 -0.908872 0.297184 
118 0.968939 0.167096 2.50852 0.690236 0 0 0 -0.380095 -0.897094 -0.669402 
26 1.04233 1.47276 1.91231 0.366374 0 0 0 -0.425746 0.305228 0.348053 
77 0.568464 0.474338 2.28659 0.658594 0 0 0 -0.193273 -0.487505 -0.883507 
92 0.62797 -0.707373 2.33072 0.9835 0 0 0 -0.0562686 -0.633961 -0.231831 
107 0.249774 0.442637 2.19695 0.72425 0 0 0 -0.0884768 -0.275269 -0.803409 
122 1.04947 0.384899 2.37967 0.613127 0 0 0 -0.286992 -0.8585 -0.736338 
94 1.18309 0.612666 2.42577 0.545583 0 0 0 -0.17299 -1.01251 -0.0157642 
247 0.952667 1.10213 2.48173 0.497487 0 0 0 -0.61196 -0.522926 0.847372 
73 1.44161 0.794432 2.54928 0.516405 0 0 0 0.0603992 -0.778593 0.685147 
87 0.756024 0.283345 2.07374 0.669736 0 0 0 0.352333 0.328727 -0.886048 
84 -0.667104 1.05545 2.40896 0.902827 0 0 0 -0.84766 -0.267151 -0.180989 
507 1.18214 1.13119 2.2489 0.42577 0 0 0 -0.485945 -0.575617 1.24126 
169 1.39493 0.991798 2.28373 0.436526 0 0 0 0.174991 -1.0774 1.11089 
85 0.770573 -0.606565 1.99598 0.927263 0 0 0 0.0904876 -0.341425 -0.356415 
371 1.36018 0.868789 2.51444 0.500147 0 0 0 -0.025363 -0.820992 0.806173 
448 0.609033 1.28908 1.89856 0.483825 0 0 0 1.71747 3.16728 1.99171 
328 0.993108 0.774308 2.21876 0.511073 0 0 0 0.604114 0.591826 0.631529 
112 0.973455 1.266 2.22439 0.433459 0 0 0 -0.947462 -0.0536077 1.19689 
40 0.54247 1.29074 2.42961 0.540919 0 0 0 -0.994506 -0.331616 0.322527 
496 1.48485 1.48105 1.5348 0.253068 0 0 0 0.119663 0.0927243 -0.0759699 
42 1.22246 1.29781 2.00116 0.362851 0 0 0 -0.557214 -0.188831 0.501152 
237 1.1156 1.25582 2.14125 0.402222 0 0 0 -0.810558 -0.184005 0.983542 
494 1.38749 1.19011 2.01749 0.364348 0 0 0 -0.0150545 -0.801365 0.357285 
181 0.316502 1.14153 2.56082 0.627436 0 0 0 -0.957843 -0.73207 -0.0854948 
81 -0.121095 -0.621643 2.09638 1.08734 0 0 0 -0.196997 -0.422686 -0.131278 
83 1.18469 -0.506684 2.52988 0.870695 0 0 0 -0.142376 -0.821281 -0.309912 
232 0.998007 1.0124 2.54917 0.515985 0 0 0 -0.467542 -0.616713 0.771107 
93 -0.508152 0.844909 2.0297 0.851663 0 0 0 -0.540521 -0.298774 -0.444176 
61 1.51203 0.359928 1.94817 0.566532 0 0 0 0.589533 1.39729 -0.113181 
349 1.50386 -0.38165 1.57127 0.808644 0 0 0 -0.129202 0.234023 -0.291417 
253 1.16405 1.08585 2.3957 0.460849 0 0 0 -0.611584 -0.907051 0.937601 
193 -0.727529 1.42163 1.5528 0.877435 0 0 0 -0.696338 -0.372887 -0.303491 
506 1.46209 1.27674 1.83872 0.320017 0 0 0 -0.221673 -0.637785 0.94249 
44 -0.248205 1.37175 1.89731 0.712933 0 0 0 -0.599119 -0.717588 -0.652019 
32 1.23784 1.37168 1.88979 0.336999 0 0 0 -0.418091 -0.0103891 0.780334 
493 1.20601 1.42553 1.84334 0.331298 0 0 0 -0.251656 0.0107163 0.833632 
9 1.40198 1.32545 1.82113 0.313667 0 0 0 -0.524645 -0.595546 1.18543 
218 1.31592 1.40023 1.78918 0.309642 0 0 0 -0.538574 -0.471009 1.28613 
200 -0.24377 1.45154 1.90837 0.70623 0 0 0 -0.689966 -0.735861 -0.614243 
486 1.31685 1.26323 1.982 0.354056 0 0 0 0.42464 0.778051 1.34976 
98 0.192041 0.505968 2.67417 0.762682 0 0 0 -0.547794 -0.679278 -0.319402 
113 1.36474 -0.767755 2.84603 0.993319 0 0 0 -0.0519147 -0.877641 0.0551747 
114 -0.662818 0.667393 3.0988 1.0467 0 0 0 -0.730333 -0.208072 0.292162 
108 0.827865 -0.375047 3.19939 0.967029 0 0 0 -0.179658 -0.683321 0.269363 
163 0.568719 0.92525 2.79803 0.645968 0 0 0 -0.628997 -0.714726 0.303385 
60 0.824459 1.36372 3.15257 0.691633 0 0 0 0.333312 0.629421 0.835943 
117 0.983523 0.117897 3.70191 0.978819 0 0 0 -0.129098 -0.308783 0.718552 
51 0.407865 1.42257 2.78812 0.642071 0 0 0 -0.346599 0.249815 0.656785 
88 1.42973 0.53892 3.62921 0.869878 0 0 0 0.00638327 0.0152752 0.894944 
109 -0.521008 -0.195165 3.25587 1.19582 0 0 0 -0.575238 -0.438261 0.393264 
90 -0.819594 0.596005 2.78624 1.05283 0 0 0 -0.798712 -0.216511 0.112031 
91 0.794654 1.1685 3.90934 0.962243 0 0 0 -0.00640092 0.133375 0.951548 
227 1.33614 1.35544 2.76354 0.562285 0 0 0 -0.0936765 0.239768 -0.637914 
438 0.692844 1.45414 3.02108 0.665649 0 0 0 0.310301 0.68141 0.831902 
119 0.719812 0.0526584 3.43824 0.93251 0 0 0 -0.230064 -0.438123 0.511972 
430 1.20336 0.66793 2.80486 0.606694 0 0 0 -0.284885 -0.688802 0.48497 
96 1.21336 -0.443186 3.49594 1.03711 0 0 0 -0.0580939 -0.627555 0.498008 
121 -0.478881 0.852546 3.15732 0.981832 0 0 0 -0.686121 -0.19681 0.337561 
110 0.000527808 -0.178568 2.91004 0.989032 0 0 0 -0.415649 -0.545739 0.095088 
120 -0.757147 1.33216 2.86286 0.982958 0 0 0 -0.85554 -0.0638523 0.192641 
104 0.101178 -0.598305 3.21263 1.14763 0 0 0 -0.345983 -0.642432 0.341685 
101 0.537345 0.503477 3.11842 0.786338 0 0 0 -0.405484 -0.525516 0.336948 
238 1.23272 1.23413 2.83499 0.574662 0 0 0 0.182205 0.586757 0.304315 
123 -0.316984 2.86792 -0.691702 1.18977 0 0 0 -0.540345 0.329791 -0.659822 
159 0.397831 3.05213 -0.625383 1.0548 0 0 0 -0.285725 0.50308 -0.690782 
142 1.18785 3.80509 -0.0596167 1.05791 0 0 0 -0.106359 0.892013 -0.316701 
126 -0.541272 3.21741 0.184411 1.10843 0 0 0 -0.644977 0.551741 -0.319697 
127 0.805511 2.06303 -0.832082 0.949853 0 0 0 -0.270562 -0.262301 -0.886195 
158 0.896476 2.14782 -0.502457 0.825351 0 0 0 -0.343753 -0.410896 -0.874071 
143 -0.162422 2.51389 -0.788986 1.13562 0 0 0 -0.507479 0.116802 -0.735188 
149 1.11663 2.1868 -0.912533 0.958567 0 0 0 -0.152836 -0.115958 -0.939887 
151 1.36321 3.36621 0.288898 0.844523 0 0 0 0.0302168 0.959216 0.0450232 
274 1.33477 2.01645 -0.0268046 0.63667 0 0 0 -0.366982 -0.743723 -0.663874 
157 0.0134433 1.643 0.128941 0.821069 0 0 0 -0.21113 -0.666842 -0.103403 
156 -0.609025 1.93331 -0.650123 1.19061 0 0 0 -0.599154 -0.0660174 -0.549862 
130 0.986174 2.15088 0.267694 0.593013 0 0 0 -0.52496 -0.340136 -0.635036 
148 0.698616 1.49458 -0.23256 0.79159 0 0 0 -0.0750405 -0.610816 0.0774141 
137 -0.708158 2.86987 0.2464 1.07807 0 0 0 -0.787224 0.32315 -0.31088 
138 0.424977 2.62752 -0.593777 0.96303 0 0 0 -0.356603 0.182124 -0.803847 
141 0.160031 1.99701 -0.415255 0.914397 0 0 0 -0.476566 -0.434295 -0.672658 
140 0.86215 2.60215 -0.809081 0.979756 0 0 0 -0.192275 0.196977 -0.875618 
443 1.31898 2.0852 0.11608 0.599075 0 0 0 -0.363285 -0.428184 -0.73783 
444 1.48154 2.23981 0.0627863 0.6209 0 0 0 -0.259588 0.13414 -0.787069 
136 1.03226 1.8917 0.22151 0.59717 0 0 0 -0.14901 -0.79336 0.0687253 
268 1.46276 2.00807 0.113336 0.589759 0 0 0 -0.280087 -0.513169 -0.711804 
146 0.824176 2.05114 0.253743 0.615592 0 0 0 -0.451201 -0.790414 -0.379399 
180 0.816324 2.50705 0.789623 0.565312 0 0 0 -0.422031 1.23141 -0.299282 
190 0.82183 3.2916 1.17401 0.773673 0 0 0 0.338231 0.751389 0.367138 
178 -0.546732 3.08541 1.13917 0.974058 0 0 0 -0.646025 0.581691 -0.0204862 
220 0.899079 2.23258 1.45457 0.460909 0 0 0 -1.92836 -2.57313 -1.96287 
189 1.01701 2.26104 0.814598 0.48755 0 0 0 -0.947643 1.11264 -0.606388 
165 1.0488 2.30437 0.745469 0.502533 0 0 0 -0.824641 1.15658 -0.661818 
128 1.38577 3.34334 1.2518 0.793523 0 0 0 0.238319 -0.0104504 0.379257 
185 0.700686 3.36967 1.30718 0.807796 0 0 0 0.306447 0.74987 0.317378 
168 0.779367 2.05424 1.00595 0.471616 0 0 0 -0.205807 1.53648 0.706472 
186 -0.767695 1.72337 0.481583 0.983528 0 0 0 -0.740652 -0.285029 -0.211632 
170 0.556743 2.28227 0.547182 0.609205 0 0 0 -0.639447 -0.12719 -0.555095 
171 0.284591 3.56152 0.91582 0.929535 0 0 0 -0.124104 0.92201 0.0251797 
175 -0.673988 2.64647 1.34235 0.922313 0 0 0 -0.838162 0.285621 -0.0589396 
124 0.946517 2.13445 1.0301 0.448058 0 0 0 -1.03372 1.02045 -0.156159 
187 -0.341972 2.06188 0.381159 0.85313 0 0 0 -0.732655 -0.502038 -0.361225 
134 1.44029 2.99975 0.715259 0.686525 0 0 0 0.237594 0.772261 0.575621 
198 1.10454 2.48526 1.32488 0.519695 0 0 0 -1.07314 -2.52529 -1.23749 
426 1.5256 1.8097 1.03414 0.350828 0 0 0 0.374416 0.399511 0.236621 
147 1.22188 1.9207 1.15986 0.365564 0 0 0 -0.681944 -0.613023 0.427358 
133 1.04449 2.31189 0.324244 0.588101 0 0 0 -0.51866 0.365588 -0.734284 
188 0.398832 2.22613 0.467431 0.652191 0 0 0 -0.608922 -0.528046 -0.525445 
20 1.40121 1.64926 1.36986 0.284344 0 0 0 1.58823 -0.491065 -0.210293 
216 -0.0737782 2.3515 1.33666 0.682756 0 0 0 -0.676878 0.162987 -0.232998 
206 -0.717436 1.91108 1.19378 0.879571 0 0 0 -0.880929 -0.367043 -0.250323 
154 -0.280088 3.2078 0.526566 0.978398 0 0 0 -0.5332 0.67251 -0.188909 
144 1.30247 2.01087 0.912942 0.407617 0 0 0 -0.672912 1.05416 -0.238486 
423 1.18173 2.03443 0.97732 0.41124 0 0 0 -0.851446 1.06109 0.0834057 
135 -0.226253 3.12139 0.410252 0.958209 0 0 0 -0.535669 0.632115 -0.247136 
192 0.529695 2.18854 0.465837 0.623394 0 0 0 -0.590001 -0.541623 -0.501828 
194 0.17158 2.21543 0.65167 0.67049 0 0 0 -0.636121 -0.568289 -0.480123 
196 0.990079 2.89059 1.10309 0.640601 0 0 0 0.388185 0.633296 0.419029 
203 0.532327 2.55462 0.541052 0.655194 0 0 0 -0.461108 0.623901 -0.448616 
150 1.41058 1.88554 0.98875 0.370978 0 0 0 2.8739 5.46557 3.7924 
214 -0.0711026 1.80496 0.79184 0.711168 0 0 0 -0.190286 -1.00773 -0.172938 
425 1.42104 1.95118 0.905405 0.394389 0 0 0 -0.268496 0.94431 -0.302351 
48 0.228424 2.29404 0.623423 0.66739 0 0 0 -0.652863 -0.340613 -0.50961 
162 1.52738 1.51565 1.44983 0.254791 0 0 0 -0.400388 0.113595 0.320318 
177 0.870216 1.99606 1.31465 0.416625 0 0 0 -0.428148 0.917053 0.359023 
139 0.901011 3.94731 0.7486 1.02061 0 0 0 -0.0239476 0.908769 -0.029649 
461 1.38949 1.75363 1.23162 0.316837 0 0 0 0.788842 0.0388807 0.353572 
210 0.261613 2.17599 0.847565 0.615999 0 0 0 -0.594633 -0.51069 -0.434905 
480 1.02343 2.02373 1.13292 0.409868 0 0 0 -0.664152 0.9475 0.473135 
28 1.05076 1.83854 1.404 0.360318 0 0 0 0.745324 0.122646 0.746438 
489 0.558854 2.27473 1.21427 0.519893 0 0 0 -0.640086 0.853593 -0.177992 
4 1.22245 1.72084 1.42292 0.315214 0 0 0 1.31359 -0.333602 0.53916 
19 1.14084 2.47426 0.428794 0.585359 0 0 0 -0.345446 1.10184 -0.529091 
336 0.479587 2.37429 1.18931 0.555285 0 0 0 -0.451974 0.940816 -0.147877 
469 1.0405 2.01731 1.12836 0.406967 0 0 0 -0.641704 0.936116 0.520238 
308 0.417195 2.38389 1.20765 0.568907 0 0 0 -0.422041 0.883007 -0.1444 
15 1.22459 1.8628 1.21612 0.350381 0 0 0 0.329909 0.109473 1.24228 
424 1.33272 2.62683 0.397188 0.618368 0 0 0 -0.0725438 1.29742 -0.162119 
7 1.37249 2.12815 0.709268 0.457159 0 0 0 -0.584507 1.11293 -1.16706 
174 1.2968 1.80757 1.23498 0.332179 0 0 0 0.573462 -0.124935 0.946556 
6 1.09486 1.81937 1.39359 0.350537 0 0 0 0.885952 -0.0217757 0.820507 
458 0.509353 2.15864 1.40969 0.503689 0 0 0 -0.692719 0.732852 -0.0556108 
433 1.53014 1.83936 0.985043 0.363364 0 0 0 0.317811 0.587871 0.0928141 
437 1.46749 2.04176 0.748703 0.434921 0 0 0 -0.336978 1.01707 -1.2324 
153 1.27972 1.81894 1.23333 0.335818 0 0 0 0.531843 -0.101166 1.03863 
286 1.4825 2.02989 0.753375 0.43221 0 0 0 -0.289562 0.99651 -1.23873 
195 0.960329 1.93964 1.32812 0.392722 0 0 0 -0.00422607 0.669689 0.653946 
399 1.51635 1.93623 0.866642 0.397932 0 0 0 -0.429721 0.219411 -1.13908 
354 0.503414 2.10105 1.49637 0.495892 0 0 0 -0.741006 0.714497 0.0203532 
372 1.50625 1.49957 1.49052 0.251512 0 0 0 -0.213074 0.0451132 0.264224 
164 0.232474 1.81997 1.47903 0.555412 0 0 0 -0.187104 -0.251046 -0.15082 
17 1.50459 1.49817 1.49392 0.25144 0 0 0 -0.188158 0.0475421 0.240338 
52 0.953887 1.86576 1.44846 0.38025 0 0 0 0.395482 0.46293 0.490548 
145 0.944092 3.68323 0.319779 0.962027 0 0 0 -0.0697364 0.942562 -0.136531 
256 0.55835 2.11604 1.73864 0.496382 0 0 0 -0.760158 0.51974 0.0905935 
495 1.0431 1.64388 1.68229 0.346147 0 0 0 0.726359 0.284265 0.134256 
248 0.868782 1.5629 1.93386 0.401682 0 0 0 -0.734131 0.724725 0.574567 
43 0.14892 2.31439 1.81884 0.623842 0 0 0 -0.186915 0.906597 0.491357 
76 0.9068 1.57911 1.88406 0.38908 0 0 0 -0.518076 0.646487 0.347133 
450 0.854478 1.64817 1.83468 0.397156 0 0 0 -0.471526 0.832874 0.328218 
166 1.19151 3.39112 1.71318 0.833435 0 0 0 0.311554 -0.187264 0.0848015 
70 0.975129 2.32045 2.30291 0.608757 0 0 0 0.374695 -1.55699 -1.4666 
199 -0.163991 2.48213 2.51655 0.815894 0 0 0 -0.221967 0.751756 0.49942 
223 -0.313711 3.51999 2.20263 1.0656 0 0 0 -0.343 0.730767 0.185293 
201 -0.0323001 3.01379 1.68138 0.815639 0 0 0 -0.0812759 0.978493 0.267416 
243 0.900445 2.03173 2.39422 0.56218 0 0 0 0.102883 -1.11852 -1.3564 
191 0.402004 2.14628 2.61254 0.66771 0 0 0 0.537594 1.1621 0.686824 
204 0.494255 3.83159 2.13436 1.03917 0 0 0 0.0831351 0.663341 0.133748 
49 0.769418 1.87247 1.59107 0.417371 0 0 0 -0.387998 1.00496 0.294932 
160 0.914954 1.82328 1.54462 0.382719 0 0 0 0.276321 0.470617 0.187915 
207 0.786907 2.75747 2.50756 0.754782 0 0 0 0.726067 0.142265 -0.11692 
208 1.03098 2.39112 1.63946 0.518099 0 0 0 -1.29667 -4.15689 -2.32215 
209 0.529457 2.20089 1.58261 0.507846 0 0 0 -0.583158 0.778401 0.0883642 
447 0.197364 2.26425 2.14673 0.639121 0 0 0 0.0858044 1.11295 0.777283 
211 0.711172 3.69218 1.79547 0.943619 0 0 0 0.22862 0.561474 0.152194 
212 0.65503 3.2858 1.83326 0.81231 0 0 0 0.469031 0.50844 0.273228 
213 0.0678188 3.4769 2.25792 0.980739 0 0 0 -0.0320961 0.748337 0.229378 
490 1.46128 1.49805 1.53103 0.253855 0 0 0 1.29244 -0.711319 0.128651 
215 0.794993 3.88391 2.27497 1.06153 0 0 0 0.148998 0.502788 0.0716881 
184 1.5004 1.49456 1.50257 0.251402 0 0 0 -0.121591 0.0573982 0.171716 
55 0.26669 2.26505 1.5319 0.574508 0 0 0 -0.404421 0.671151 0.0856412 
505 0.361117 1.60465 2.26191 0.548761 0 0 0 -0.983723 0.180597 0.29486 
255 1.2108 2.61048 2.17652 0.668961 0 0 0 0.0489532 -2.31922 -1.57548 
479 0.0168449 2.36862 2.04038 0.686486 0 0 0 -0.17 0.920344 0.583076 
173 -0.124529 1.91621 1.83532 0.659828 0 0 0 -0.83776 -0.402906 -0.215165 
318 0.349874 1.78873 2.07953 0.534861 0 0 0 -0.899042 0.413723 0.360446 
54 0.430621 1.94053 1.8001 0.502879 0 0 0 -0.875937 0.602255 0.284627 
34 0.259993 2.18276 1.85537 0.57733 0 0 0 -0.275837 0.845158 0.514612 
172 0.165967 2.12749 1.58858 0.582572 0 0 0 -0.604313 0.131435 -0.0735006 
229 1.0813 2.33349 2.53379 0.661708 0 0 0 0.49751 -1.05238 -1.40599 
234 1.04409 1.64647 1.67795 0.345828 0 0 0 0.74481 0.277157 0.135801 
252 1.1575 1.61768 1.62227 0.318148 0 0 0 1.06403 -0.250348 0.524607 
235 1.04832 1.62 1.71022 0.345715 0 0 0 0.625975 0.289112 0.162353 
29 0.843074 1.72178 1.74556 0.396694 0 0 0 -0.258852 0.877895 0.216114 
513 0.660696 1.56778 2.09004 0.460312 0 0 0 -1.20286 0.513732 0.742835 
241 1.06009 1.60521 1.72045 0.343451 0 0 0 0.600601 0.255489 0.207112 
38 0.320519 1.7588 2.2745 0.566248 0 0 0 -0.693086 0.511564 0.471374 
35 0.252086 1.76159 2.40264 0.603925 0 0 0 -0.54393 0.556806 0.510706 
30 0.500212 1.66022 2.12088 0.49953 0 0 0 -1.10765 0.440831 0.496604 
239 -0.58685 2.64441 2.57886 0.974138 0 0 0 -0.577174 0.458324 0.298065 
233 0.90461 1.60662 1.8497 0.38676 0 0 0 -0.399314 0.669485 0.256679 
75 0.829567 1.66228 1.83747 0.403138 0 0 0 -0.56418 0.86758 0.365798 
219 1.50021 1.49439 1.50297 0.251406 0 0 0 -0.118412 0.0579565 0.168314 
167 1.5004 1.49455 1.50259 0.251402 0 0 0 -0.121453 0.0574224 0.171568 
466 1.5002 1.49437 1.503 0.251406 0 0 0 -0.118184 0.0579969 0.16807 
471 1.50021 1.49439 1.50297 0.251406 0 0 0 -0.118456 0.0579487 0.168361 
36 1.50028 1.49445 1.50282 0.251404 0 0 0 -0.119631 0.0577421 0.169619 
278 1.50195 1.4959 1.49935 0.251391 0 0 0 -0.146738 0.053223 0.198284 
37 1.50089 1.49497 1.50157 0.251396 0 0 0 -0.129505 0.0561031 0.180053 
58 1.50159 1.49559 1.5001 0.251391 0 0 0 -0.140993 0.0542299 0.192142 
47 1.07812 1.75571 1.49969 0.343427 0 0 0 1.02038 -0.136286 0.34778 
477 1.50167 1.49566 1.49993 0.251391 0 0 0 -0.142213 0.0539405 0.193552 
355 1.50134 1.49537 1.50062 0.251392 0 0 0 -0.136823 0.0548156 0.187885 
334 1.50104 1.49511 1.50125 0.251394 0 0 0 -0.131921 0.0556299 0.182705 
476 1.50097 1.49505 1.50139 0.251395 0 0 0 -0.130848 0.0558102 0.181569 
179 1.50089 1.49498 1.50157 0.251396 0 0 0 -0.129441 0.056048 0.180076 
222 1.50059 1.49472 1.50219 0.251399 0 0 0 -0.124602 0.0568756 0.17493 
302 1.50066 1.49478 1.50205 0.251398 0 0 0 -0.125689 0.0566883 0.176088 
176 1.50066 1.49478 1.50204 0.251398 0 0 0 -0.12575 0.056678 0.176152 
225 0.922809 2.39725 3.41234 0.888288 0 0 0 0.373678 0.37702 0.311795 
106 0.302738 2.02714 3.35323 0.85724 0 0 0 0.120787 0.569724 0.780081 
249 -0.49856 2.47087 2.81672 0.959172 0 0 0 -0.536691 0.431532 0.394129 
228 -0.108657 3.23446 3.60257 1.22453 0 0 0 -0.281623 0.49454 0.579483 
254 -0.486119 2.76307 3.5122 1.1744 0 0 0 -0.47114 0.385432 0.584948 
230 0.506969 3.71141 2.9996 1.13779 0 0 0 0.0269049 0.555016 0.26473 
231 0.569902 2.2762 3.57918 0.935088 0 0 0 0.21465 0.457922 0.686147 
242 0.544176 2.40527 3.25163 0.856902 0 0 0 0.388558 0.605942 0.516848 
246 -0.356553 2.01124 3.52011 1.04153 0 0 0 -0.460423 0.227393 0.669544 
464 0.277934 1.66567 2.73314 0.660816 0 0 0 -0.253211 0.600732 0.673416 
205 0.789506 1.62297 3.04756 0.674937 0 0 0 0.588795 0.903111 0.639756 
251 0.368726 3.45847 3.03809 1.07462 0 0 0 0.0473284 0.574834 0.331763 
105 -0.172734 1.52945 3.72936 1.04181 0 0 0 -0.383881 0.0755032 0.777716 
250 0.796414 3.13054 3.39931 1.05192 0 0 0 0.168006 0.346704 0.318556 
244 1.25516 2.37352 3.45388 0.901675 0 0 0 0.225143 0.194199 0.0630321 
240 -0.316578 3.69299 3.4091 1.33894 0 0 0 -0.398567 0.574293 0.443189 
257 3.62637 1.21803 -0.27845 1.02737 0 0 0 0.662286 -0.0959388 -0.447612 
441 1.86625 1.15928 0.0293904 0.661003 0 0 0 -0.675382 -0.369668 0.601563 
288 3.67371 0.857921 0.0530719 0.991893 0 0 0 0.717086 -0.235557 -0.334333 
260 3.1323 0.827983 -0.609114 1.01911 0 0 0 0.333839 -0.274316 -0.675073 
261 3.52398 -0.100126 0.15468 1.093 0 0 0 0.502731 -0.634775 -0.33056 
276 2.55308 0.780197 -0.320849 0.838315 0 0 0 -0.251421 -0.566762 -0.547734 
427 2.22868 1.08023 0.20878 0.632712 0 0 0 -0.822423 -0.713988 -0.10179 
285 1.77615 0.218845 -0.0315102 0.864555 0 0 0 -0.185608 0.145299 0.517842 
436 2.35116 1.42219 -0.051269 0.678327 0 0 0 -0.406548 -0.673962 -0.734145 
266 2.66025 0.936351 -0.843424 1.00718 0 0 0 0.0635737 -0.223772 -0.783955 
267 3.03037 0.608852 -0.0398091 0.865182 0 0 0 0.159059 -0.643757 -0.506133 
293 2.10191 1.07615 -0.870525 0.957154 0 0 0 -0.174107 -0.223627 -0.718729 
269 2.55512 0.949699 -0.706884 0.943089 0 0 0 -0.0495118 -0.288854 -0.743545 
270 2.46766 0.612223 -0.432211 0.891628 0 0 0 -0.223504 -0.523988 -0.496713 
271 3.23129 -0.57943 -0.176078 1.23192 0 0 0 0.36072 -0.69276 -0.376336 
272 1.6467 0.823015 0.128503 0.702438 0 0 0 -0.205687 0.701051 1.55325 
284 2.0421 0.32412 -0.432478 0.93621 0 0 0 -0.243779 -0.335189 -0.149027 
290 2.38962 -0.690837 -0.214172 1.17656 0 0 0 0.0652853 -0.547443 -0.230051 
291 3.16121 0.334523 -0.492723 1.06555 0 0 0 0.325713 -0.499017 -0.575626 
294 3.06872 0.327584 0.682211 0.794009 0 0 0 0.101738 -0.942261 -0.43315 
23 1.96012 1.40534 1.23483 0.349079 0 0 0 -0.599597 -0.217118 0.0857759 
453 2.93383 0.913308 1.3622 0.602813 0 0 0 0.732841 -0.100568 0.132445 
18 1.90807 1.36094 1.34067 0.333035 0 0 0 -1.25071 0.0131863 0.295426 
298 2.04666 1.34271 1.25147 0.367169 0 0 0 -0.54042 -0.421588 0.0781937 
299 2.9192 0.965585 1.15319 0.600934 0 0 0 0.695801 -0.294006 -0.11915 
451 2.12579 1.28904 1.26587 0.385298 0 0 0 -0.254693 -0.637339 -0.0746698 
301 3.70182 0.535436 1.4268 0.900411 0 0 0 0.879136 -0.21717 0.044597 
264 2.45148 0.855531 0.620127 0.597322 0 0 0 -0.523681 -0.843215 -0.416913 
445 2.28053 1.21986 1.24788 0.423471 0 0 0 0.555508 -0.751894 -0.307316 
304 2.19733 1.11984 1.14349 0.431069 0 0 0 2.27653 2.78676 2.37225 
41 2.8642 0.991062 0.872283 0.609244 0 0 0 0.493112 -0.669901 -0.497238 
306 1.99419 1.20525 1.4957 0.358718 0 0 0 -1.55158 -0.17517 0.0556059 
307 2.07214 1.04499 1.19278 0.425483 0 0 0 3.78036 7.11419 5.71586 
277 2.64747 1.39933 0.721807 0.548759 0 0 0 0.848642 -0.164902 -0.410682 
309 3.42367 0.409367 1.28612 0.825454 0 0 0 0.70541 -0.507597 -0.108075 
310 2.04762 -0.00925934 1.06794 0.725922 0 0 0 -0.566273 0.412283 0.0784983 
311 2.88347 1.04323 0.925479 0.602775 0 0 0 0.62763 -0.456715 -0.367879 
341 2.75568 1.06758 0.733257 0.594095 0 0 0 0.363312 -0.793578 -0.668202 
432 2.74185 1.44695 0.883124 0.55467 0 0 0 0.863014 0.249308 0.0388709 
161 2.00056 1.43223 1.16426 0.363505 0 0 0 -0.0700065 -0.338596 -0.117107 
182 2.69528 1.32605 0.52328 0.596685 0 0 0 0.459719 -0.519099 -0.622905 
316 2.92723 -0.308185 0.756848 0.92441 0 0 0 0.0547639 -0.866024 -0.307168 
317 3.34937 0.0147941 0.768078 0.924397 0 0 0 0.394663 -0.767701 -0.282426 
275 3.4093 -0.820406 0.709983 1.195 0 0 0 0.43001 -0.788077 -0.184212 
33 2.65971 0.845095 1.48871 0.537871 0 0 0 0.731274 -0.584746 0.0576916 
320 1.86541 0.0375271 0.931899 0.734205 0 0 0 -0.348803 1.04577 0.599283 
72 2.19326 1.16818 1.39318 0.403132 0 0 0 -0.136037 -0.769898 -0.0247786 
265 1.93826 -0.369082 0.73291 0.882172 0 0 0 -0.204921 0.0532987 0.157717 
501 2.42645 1.15684 1.21412 0.460776 0 0 0 0.925122 -0.612881 -0.32609 
56 2.5703 0.702991 0.532527 0.656288 0 0 0 -0.587875 -1.04466 -0.472248 
325 2.33716 1.10413 1.34222 0.440661 0 0 0 0.761419 -0.601231 0.0304997 
287 2.41139 -0.366535 0.55564 0.915704 0 0 0 -0.190784 -0.554728 -0.138703 
327 3.3612 1.24899 1.48977 0.729281 0 0 0 0.602868 0.610927 0.465245 
329 1.95982 0.208865 1.14449 0.655286 0 0 0 -0.514429 1.36133 0.567944 
428 2.78133 0.813917 1.48194 0.571736 0 0 0 0.696739 -0.434575 0.0856629 
31 2.45657 0.720511 0.487634 0.649594 0 0 0 -0.729152 -0.862217 -0.283689 
283 1.78568 0.844277 0.902939 0.529937 0 0 0 2.21452 7.11683 5.72905 
326 2.4987 1.10644 1.22629 0.479726 0 0 0 0.917747 -0.587071 -0.275442 
470 3.20794 1.21787 1.38465 0.675379 0 0 0 0.604939 0.65065 0.479886 
313 2.78304 0.837262 1.4233 0.569372 0 0 0 0.688849 -0.46976 0.0304998 
457 1.88295 1.3176 1.42382 0.328056 0 0 0 -1.57498 0.173331 0.325381 
455 2.09929 1.46729 1.04026 0.396737 0 0 0 0.737337 -0.566927 -0.644785 
422 2.35313 1.29626 1.0816 0.446573 0 0 0 1.03422 -0.563863 -0.623618 
456 2.55983 0.341734 1.38463 0.628053 0 0 0 -0.349839 -1.08266 -0.530443 
474 1.85407 1.41999 1.30336 0.322766 0 0 0 -0.75642 0.168693 0.00896627 
300 3.62897 -0.222316 1.47508 1.02441 0 0 0 0.628927 -0.628306 -0.0936801 
478 2.35707 1.45326 0.867207 0.466214 0 0 0 1.20528 -0.34444 -0.812692 
340 1.70263 1.43604 1.41147 0.286352 0 0 0 -0.968956 0.607109 -0.38833 
281 1.70783 0.0068417 0.314213 0.851725 0 0 0 -0.0686747 0.525069 0.736438 
333 2.95213 0.625804 2.57619 0.753148 0 0 0 0.713175 0.39876 0.5023 
323 1.96023 1.06257 1.74773 0.38267 0 0 0 -0.574164 -0.518601 -0.531195 
335 2.66602 0.847275 2.44812 0.646093 0 0 0 0.592446 0.832711 0.530755 
491 1.78687 1.17973 1.7055 0.338069 0 0 0 -0.880234 0.102209 -0.515735 
337 2.05362 -0.945721 1.91696 0.993528 0 0 0 -0.0302128 -0.87225 -0.198426 
338 3.03182 0.240147 2.16305 0.772454 0 0 0 0.621382 -0.400486 0.185021 
339 1.79311 0.24302 1.69179 0.597998 0 0 0 -0.162295 1.31185 -0.084726 
370 1.65925 -0.976648 2.59511 1.0346 0 0 0 -0.0037188 -0.913979 -0.00498521 
452 2.42607 0.244131 1.74988 0.624614 0 0 0 -0.262869 -1.04641 -0.489054 
295 2.09994 0.574214 2.39619 0.559711 0 0 0 0.422651 -0.554891 0.449792 
296 2.19624 1.05236 1.56909 0.416346 0 0 0 0.0525208 -0.76758 0.00169285 
344 2.37282 0.960803 1.94511 0.493171 0 0 0 0.0946545 -0.747955 -0.194983 
345 3.40708 1.06476 2.12277 0.795708 0 0 0 0.617716 0.513866 0.408948 
346 2.01393 0.960274 1.86444 0.415939 0 0 0 0.21253 -0.86075 0.00196046 
364 1.68475 1.12265 1.87405 0.355485 0 0 0 0.0337396 -0.642832 -0.441078 
348 3.88722 1.46542 2.1892 0.984173 0 0 0 0.623109 0.145072 0.180691 
331 2.11756 0.995948 1.72374 0.415842 0 0 0 0.0795436 -0.764365 -0.0601642 
350 2.36019 -0.0946025 1.6119 0.719203 0 0 0 -0.476417 -0.847106 -0.611079 
351 1.77259 1.23309 1.64011 0.323701 0 0 0 -1.06182 0.264839 -0.192574 
352 2.46185 0.668521 2.2626 0.582332 0 0 0 0.676366 0.0573054 0.582544 
363 2.55574 -0.63762 2.03573 0.923298 0 0 0 0.0626244 -0.993193 -0.1894 
45 1.68419 1.14929 1.83489 0.346042 0 0 0 -0.0692498 -0.45157 -0.38744 
365 1.6938 0.222902 2.39009 0.619915 0 0 0 -0.246754 -1.20421 -0.522451 
356 3.26093 1.43479 2.49167 0.819986 0 0 0 0.0772145 0.442799 0.108641 
357 2.16287 1.0865 2.24832 0.502366 0 0 0 -1.19522 -1.26628 -1.34787 
358 2.14803 0.666399 2.60498 0.595298 0 0 0 0.560588 0.181456 0.638783 
359 3.56757 -0.600348 2.21029 1.1353 0 0 0 0.571196 -0.671619 0.0263291 
360 1.95003 0.186195 2.18312 0.617077 0 0 0 -0.299122 -1.06731 -0.548405 
361 2.06205 -0.717428 1.53364 0.916867 0 0 0 -0.165971 -0.66798 -0.288185 
362 2.41713 0.274352 1.96776 0.621371 0 0 0 -0.0196184 -1.05124 -0.266871 
460 1.97018 1.14592 1.60674 0.364135 0 0 0 -1.3318 -0.186334 -0.36802 
303 2.32215 1.05424 1.64055 0.44636 0 0 0 -0.24382 -1.6499 -0.782098 
393 1.97008 -0.328918 2.07153 0.770048 0 0 0 -0.34179 -0.895132 -0.523354 
324 2.45377 0.69163 1.9828 0.539928 0 0 0 0.658956 -0.447213 0.399834 
312 3.14154 1.31987 1.96638 0.699457 0 0 0 -0.0356354 0.799497 0.326165 
375 1.7987 0.918463 2.0944 0.426674 0 0 0 0.57248 -1.16247 0.509402 
459 2.65914 0.45716 1.80806 0.612563 0 0 0 0.369617 -0.819339 -0.0486619 
62 1.74291 1.05769 1.9291 0.377706 0 0 0 0.103567 -0.931078 -0.414961 
380 2.33975 0.664182 2.34272 0.573092 0 0 0 0.614349 -0.00927114 0.60095 
485 1.68786 1.16812 1.80446 0.339539 0 0 0 -0.171967 -0.322318 -0.330565 
510 2.07899 0.979138 1.78211 0.415852 0 0 0 0.12424 -0.791937 -0.0555143 
497 1.81804 0.609485 2.48231 0.542849 0 0 0 0.301654 -0.771578 0.409433 
347 1.77136 -0.881259 1.97401 0.962733 0 0 0 -0.0895686 -0.786559 -0.247524 
377 3.60723 1.30346 2.56839 0.933679 0 0 0 0.51425 0.272029 0.238896 
314 2.7149 0.746782 1.7233 0.570734 0 0 0 0.739713 -0.292767 0.267019 
388 1.7547 1.18522 1.72428 0.334977 0 0 0 -0.68682 0.0362164 -0.44206 
315 2.63579 0.314011 1.72365 0.638918 0 0 0 0.0537968 -1.04206 -0.326286 
472 2.09293 0.870492 1.94172 0.448092 0 0 0 0.491714 -0.963458 0.346242 
483 1.82858 0.756598 2.34806 0.493683 0 0 0 0.439402 -0.869982 0.607136 
481 2.18418 0.922716 1.7832 0.441243 0 0 0 0.450455 -0.865652 0.16131 
53 1.96945 0.837127 2.09145 0.454927 0 0 0 0.523589 -1.05335 0.546301 
484 1.5969 0.907443 2.2591 0.443746 0 0 0 0.520714 -1.21087 0.880239 
384 3.3199 -0.642178 2.68997 1.13434 0 0 0 0.468073 -0.689851 0.14953 
79 1.68551 1.09273 1.92023 0.36669 0 0 0 0.137742 -0.883029 -0.419469 
492 1.57913 1.14675 1.92413 0.353494 0 0 0 0.285139 -0.823866 -0.0687284 
102 1.57313 0.883414 2.31387 0.456289 0 0 0 0.432761 -1.15589 0.886095 
353 2.07856 1.26353 2.64019 0.588624 0 0 0 -0.784913 0.435467 -1.26507 
462 2.05822 1.16867 1.5 0.374842 0 0 0 -1.12477 -0.441481 -0.00751598 
366 3.1868 0.394559 3.69955 1.11941 0 0 0 0.427853 -0.0589641 0.661259 
89 1.72107 0.843359 2.90213 0.612808 0 0 0 0.333689 0.563397 0.677288 
368 3.28497 -0.261776 3.55747 1.21014 0 0 0 0.427469 -0.424276 0.52048 
369 3.64678 0.246239 3.45704 1.1909 0 0 0 0.60827 -0.163268 0.482319 
378 2.68147 0.577427 2.86987 0.757391 0 0 0 0.589613 0.356554 0.599842 
389 2.14752 0.922802 3.36327 0.790332 0 0 0 0.301168 0.639928 0.69775 
95 1.59937 0.244862 3.84569 0.991725 0 0 0 0.025997 -0.174655 0.844425 
373 1.65834 -0.0884572 2.8068 0.767133 0 0 0 -0.1271 -0.983986 -0.0238955 
390 2.59699 1.19522 3.71533 0.975796 0 0 0 0.204648 0.334114 0.633327 
86 1.82023 1.15322 3.19896 0.70523 0 0 0 0.238574 0.999378 0.374347 
376 2.3167 1.03751 3.19032 0.758193 0 0 0 0.302539 0.831222 0.474056 
391 3.65085 0.0254039 3.455 1.22491 0 0 0 0.591523 -0.276209 0.462936 
236 1.54662 0.573472 2.76919 0.603728 0 0 0 0.00798076 -0.614123 0.469214 
379 2.2848 0.064391 2.74732 0.757382 0 0 0 0.197683 -0.711353 0.263046 
392 3.16306 0.164082 2.91473 0.933108 0 0 0 0.561884 -0.181143 0.368103 
381 3.3365 -0.184164 3.45156 1.17626 0 0 0 0.468464 -0.38844 0.486804 
115 1.62185 0.856726 2.99927 0.635537 0 0 0 0.26974 0.566761 0.738453 
386 3.19115 1.2429 3.66152 1.08251 0 0 0 0.343945 0.202031 0.542286 
97 1.83971 0.614676 2.73122 0.599048 0 0 0 0.341757 -0.192305 0.590661 
385 2.36353 -0.0875411 3.34842 0.945012 0 0 0 0.184313 -0.438183 0.551909 
413 2.04561 3.55204 0.256291 0.937593 0 0 0 0.0167853 0.826882 0.106746 
396 3.29248 3.22369 0.0353795 1.0748 0 0 0 0.396759 0.490323 -0.151134 
417 1.86394 3.11945 -0.421518 0.938947 0 0 0 0.0259739 0.63553 -0.497432 
398 3.25696 2.67494 0.143852 0.921571 0 0 0 0.465732 0.363355 -0.0248096 
418 3.60253 2.06813 -0.0315385 0.979934 0 0 0 0.668187 0.103284 -0.26778 
400 3.51106 2.53616 -0.069358 1.01263 0 0 0 0.566673 0.20783 -0.26132 
420 1.73365 2.37769 -0.458363 0.802558 0 0 0 0.0173809 0.149968 -0.821984 
414 2.02101 2.40556 -0.00567349 0.688315 0 0 0 0.194036 0.747602 -0.386234 
416 2.84934 3.42506 -0.151609 1.0695 0 0 0 0.207372 0.613228 -0.261571 
404 3.3127 3.00276 -0.201168 1.07257 0 0 0 0.424781 0.366714 -0.332241 
415 3.39604 3.43407 0.0890913 1.15433 0 0 0 0.404618 0.538802 -0.151416 
322 1.89506 1.81396 -0.137581 0.663462 0 0 0 -0.322303 -0.680445 -0.73658 
407 3.49973 1.68272 -0.38659 1.01346 0 0 0 0.57761 0.0301417 -0.502841 
408 2.0203 1.93863 -0.607181 0.832004 0 0 0 -0.0249648 -0.176078 -0.869673 
202 2.56613 1.60662 0.174904 0.644142 0 0 0 0.242801 -0.252908 -0.7042 
410 3.59069 2.9862 -0.00985102 1.11004 0 0 0 0.546402 0.338197 -0.221806 
411 1.93646 3.67859 -0.355091 1.08848 0 0 0 -0.0202915 0.765225 -0.418138 
289 2.40056 1.93837 0.244712 0.614263 0 0 0 0.514115 0.450143 -0.390131 
262 1.74618 2.15121 0.279797 0.555167 0 0 0 0.0127349 0.577656 -0.810526 
12 2.05403 1.71887 0.758043 0.438055 0 0 0 1.01313 -0.0352907 -1.31533 
419 2.13205 2.72408 0.899582 0.661815 0 0 0 -0.342891 -0.253299 0.90737 
406 2.42478 3.61753 0.65994 0.970486 0 0 0 -0.0178957 0.63341 0.325805 
5 1.83387 1.60258 1.06899 0.350519 0 0 0 0.518184 -0.00482809 -0.439369 
282 2.10938 1.7138 0.725205 0.451015 0 0 0 1.02962 -0.00762151 -1.22509 
332 2.94217 1.87249 1.48281 0.658018 0 0 0 -1.34658 0.0500657 0.272343 
273 1.97812 2.02246 0.498347 0.505726 0 0 0 0.418188 0.715729 -0.889733 
465 1.55317 1.80293 1.02061 0.35275 0 0 0 0.423527 0.413161 0.116561 
473 2.46735 1.59649 0.666434 0.518461 0 0 0 0.967284 0.00927661 -0.462021 
431 2.32608 2.05447 0.51998 0.560178 0 0 0 0.724071 0.993823 0.163082 
14 1.55419 1.93329 0.828389 0.405065 0 0 0 0.0452472 0.830694 -0.972331 
292 1.85024 1.93215 0.623203 0.45861 0 0 0 0.520245 0.633278 -1.45574 
434 2.75645 2.12254 0.776657 0.64035 0 0 0 0.275944 0.82848 0.976969 
435 2.27549 2.78876 1.36395 0.724156 0 0 0 -1.28371 -1.59755 0.0353179 
449 1.78491 1.65285 1.04032 0.351593 0 0 0 0.620037 0.0966912 -0.444138 
397 2.83484 3.18348 0.751308 0.894631 0 0 0 -0.011889 0.462726 0.500416 
503 1.69432 1.53292 1.28278 0.296976 0 0 0 0.0869995 0.668207 -1.17534 
439 2.23607 1.68881 0.721617 0.470071 0 0 0 0.997458 -0.149412 -1.01177 
440 3.40613 2.58476 1.18372 0.890002 0 0 0 0.0148119 0.225989 0.341526 
321 3.75634 1.95026 1.30417 0.908666 0 0 0 0.522746 0.20447 0.235073 
442 2.01407 1.55506 0.987741 0.389568 0 0 0 0.846767 -0.376302 -0.680726 
280 3.36552 1.9208 0.844517 0.776135 0 0 0 0.563168 0.495319 0.460948 
409 2.06937 2.09249 1.00963 0.487089 0 0 0 -3.00228 -4.83831 -2.50912 
132 1.60202 2.67401 1.23181 0.597758 0 0 0 -0.896798 -2.87807 -0.340836 
412 3.37692 2.95078 0.915983 0.958067 0 0 0 0.185448 0.354268 0.329062 
467 2.39566 1.7078 0.607563 0.518876 0 0 0 0.911683 0.184908 -0.45411 
475 1.63585 1.75674 1.01821 0.351081 0 0 0 0.571886 0.320013 -0.170093 
297 1.88583 2.11885 0.468269 0.516635 0 0 0 0.269592 0.900468 -0.810936 
258 1.88163 2.07849 0.490086 0.505802 0 0 0 0.29269 0.81913 -0.9593 
21 1.95024 1.79309 0.736993 0.433785 0 0 0 0.83496 0.192497 -1.45172 
155 1.57048 2.57304 1.0308 0.556279 0 0 0 -0.930758 -1.97379 -0.346271 
152 1.64318 3.26844 0.896395 0.775455 0 0 0 0.145048 0.320246 0.577043 
330 3.25835 2.11222 1.26292 0.765142 0 0 0 -0.227393 0.346551 0.517378 
50 2.10971 2.0188 0.461296 0.528912 0 0 0 0.523309 0.760774 -0.524126 
11 1.82699 1.65768 0.99859 0.364157 0 0 0 0.726028 0.0561295 -0.479218 
221 3.06292 2.07823 0.893007 0.704357 0 0 0 0.191723 0.675888 0.805535 
74 3.04859 1.89688 0.613139 0.697119 0 0 0 0.73394 0.698612 0.48137 
446 2.36993 1.57697 0.416039 0.551072 0 0 0 0.338379 -0.38123 -0.777633 
395 2.2081 3.17316 0.332807 0.823203 0 0 0 0.0906763 0.789282 0.380111 
259 2.6154 1.55377 0.447524 0.589886 0 0 0 0.615103 -0.134973 -0.484159 
421 3.45212 3.42163 0.54613 1.11866 0 0 0 0.356766 0.514225 0.0955138 
454 1.56662 1.58654 1.31649 0.280871 0 0 0 0.559372 0.530535 -1.02818 
46 1.85723 1.59487 1.06019 0.35494 0 0 0 0.53907 -0.0521523 -0.419188 
342 1.94864 1.51663 1.09143 0.362944 0 0 0 0.365565 -0.248044 -0.311639 
468 1.84502 1.61503 1.04262 0.3569 0 0 0 0.605032 -0.0199408 -0.435508 
3 1.71464 1.71188 1.01633 0.352866 0 0 0 0.641829 0.223064 -0.361631 
305 1.96778 2.68476 0.388915 0.661757 0 0 0 0.243345 1.2175 0.507536 
197 2.25482 2.31209 0.3489 0.622001 0 0 0 0.537132 1.21491 0.278939 
405 2.37908 2.7423 0.381573 0.727045 0 0 0 0.265653 0.922383 0.602309 
401 2.75365 3.61332 0.332402 1.03903 0 0 0 0.115526 0.715405 0.107313 
13 1.55311 1.67704 1.20138 0.307975 0 0 0 0.785447 0.491654 -0.794518 
387 2.4319 1.68888 2.17911 0.610123 0 0 0 -3.33254 -1.77722 -2.95747 
482 2.51488 2.75822 2.0488 0.826885 0 0 0 -1.56774 -1.33388 -0.988778 
463 2.97196 2.60117 1.62743 0.818332 0 0 0 -1.07677 -0.446853 -0.0860631 
394 2.64218 1.6578 2.44453 0.691171 0 0 0 -1.51705 -0.0734123 -1.27245 
319 3.26548 1.82336 1.59356 0.744788 0 0 0 -0.412101 0.388316 0.342379 
500 3.11263 2.32838 2.11933 0.848983 0 0 0 -0.956547 -0.383038 -0.424587 
487 2.72996 2.14152 2.33656 0.768564 0 0 0 -1.73823 -0.88313 -1.23837 
502 2.94167 3.12339 2.45848 1.05466 0 0 0 -0.570326 -0.288441 -0.388157 
499 3.04774 2.90835 2.59199 1.0427 0 0 0 -0.532289 -0.292075 -0.370326 
429 3.27854 2.24372 1.5145 0.807218 0 0 0 -0.495915 0.0821245 0.239962 
504 1.83958 1.98451 2.30362 0.597564 0 0 0 -3.80729 -5.34029 -5.67626 
383 3.18367 1.5004 2.61693 0.827667 0 0 0 -0.034384 0.389496 0.016411 
99 1.58531 1.59037 3.49474 0.813437 0 0 0 0.149989 0.619342 0.28384 
382 2.94579 1.66321 3.32611 0.956235 0 0 0 0.0216839 0.231205 0.173936 
374 2.17945 1.70019 3.15937 0.782232 0 0 0 -0.408974 0.359911 -0.575187 
367 2.15103 1.73257 3.16272 0.78398 0 0 0 -0.427397 0.315479 -0.617717 
512 1.68195 3.18105 2.91328 0.986987 0 0 0 -0.181809 -0.379606 -0.491415 
498 3.03601 3.15207 3.07829 1.20085 0 0 0 -0.26434 -0.140547 -0.154731 
508 2.36176 2.26392 2.93277 0.848655 0 0 0 -1.0014 -0.572085 -1.04113 
488 2.76679 3.03525 3.02365 1.10813 0 0 0 -0.447055 -0.241933 -0.294051 
100 1.61345 1.74365 3.65537 0.886141 0 0 0 0.0867503 0.432663 0.364275 
245 1.53524 1.87342 3.55191 0.862726 0 0 0 0.113813 0.405957 0.174805 
ITEM: TIMESTEP
740915
ITEM: NUMBER OF ATOMS
512
ITEM: BOX BOUNDS ss ss ss
-8.1988304040437454e-01 3.8875120101141034e+00
-9.7693552394909078e-01 3.9476017366228966e+00
-9.1281994132074906e-01 3.9096273972560476e+00
ITEM: ATOMS id x y z width_SPH x_COM y_COM z_COM vx vy vz 
263 1.46291 0.88658 -0.255339 0.797053 0 0 0 -0.184391 0.0652859 0.617655 
403 1.47176 1.28214 -0.572765 0.836228 0 0 0 -0.296154 -0.417888 -0.281612 
25 0.482324 0.12103 0.00277315 1.02263 0 0 0 0.431054 0.529144 0.569937 
279 1.31897 1.03444 -0.485 0.850874 0 0 0 -0.189057 -0.165797 0.106882 
402 1.48864 1.3275 -0.648026 0.85646 0 0 0 -0.281502 -0.409925 -0.421825 
16 0.283968 0.665581 0.148017 0.902204 0 0 0 0.586582 0.592039 0.780366 
8 0.548847 0.851563 0.116517 0.82573 0 0 0 0.734477 0.682658 1.15149 
131 1.20621 1.40829 0.666042 0.517604 0 0 0 4.80147 6.6855 7.38472 
217 -0.458206 1.32447 1.07566 0.827558 0 0 0 -0.140224 -0.412278 -0.139897 
2 -0.191095 0.578916 0.378224 0.976755 0 0 0 0.269464 0.355317 0.381146 
24 0.947309 0.538066 0.655901 0.732035 0 0 0 1.69 2.78525 2.58765 
129 -0.0272407 1.21936 0.471866 0.809151 0 0 0 0.464953 -0.111323 0.504361 
224 -0.038177 1.2323 1.09789 0.718726 0 0 0 1.0009 -0.0777489 0.267224 
78 0.71748 0.416275 1.446 0.684308 0 0 0 2.08604 2.94742 0.725847 
67 0.0566775 0.170704 1.35969 0.867433 0 0 0 0.646854 0.692235 0.00584918 
22 1.10961 0.782249 0.476529 0.689891 0 0 0 1.54615 2.71446 3.19765 
125 0.09192 1.14992 0.334146 0.817637 0 0 0 0.529024 0.043202 0.639735 
10 0.362729 0.340204 0.337052 0.920792 0 0 0 0.743245 0.865783 0.897117 
68 -0.629256 1.10997 1.49534 0.8723 0 0 0 -0.40149 -0.26831 -0.303189 
116 -0.46766 -0.224836 2.43602 1.06883 0 0 0 -0.510452 -0.413942 -0.0581843 
39 1.33122 1.26246 1.96203 0.349427 0 0 0 -0.248278 -0.392925 0.561941 
57 -0.136591 -0.184234 1.60661 0.978298 0 0 0 0.0863009 0.0850675 -0.196877 
111 1.47858 0.6616 1.94948 0.479311 0 0 0 3.06057 4.58005 2.61082 
59 0.836235 1.31492 2.27397 0.459128 0 0 0 -1.05529 -0.0553269 0.985093 
183 0.484317 1.33661 2.61271 0.586944 0 0 0 -0.675437 -0.0650023 0.479692 
80 1.06797 1.32418 2.08947 0.394889 0 0 0 -0.907388 0.0277612 0.821321 
103 -0.666447 -0.192848 2.21681 1.11079 0 0 0 -0.541724 -0.319407 -0.082137 
63 -0.481045 0.335769 1.67077 0.939105 0 0 0 -0.20177 0.0269402 -0.274241 
64 0.692269 1.25099 1.9554 0.468143 0 0 0 1.81277 3.52166 2.44696 
65 1.41229 1.12562 2.09167 0.384752 0 0 0 0.113535 -1.07857 0.468896 
66 0.536322 -0.153299 1.5622 0.845279 0 0 0 0.649439 0.683618 -0.164175 
27 1.41507 1.3286 1.80372 0.309627 0 0 0 -0.411625 -0.393842 1.39374 
343 1.489 1.48457 1.52633 0.252367 0 0 0 0.0620373 0.0890529 -0.0237407 
69 0.578512 1.29327 2.42893 0.533072 0 0 0 -0.97002 -0.283494 0.404194 
82 0.155996 0.760117 1.618 0.699975 0 0 0 1.16228 0.799984 -0.325284 
71 0.319323 -0.0268623 1.59758 0.843495 0 0 0 0.618223 0.613296 -0.223028 
509 1.47935 1.4766 1.54574 0.254225 0 0 0 0.182451 0.0866787 -0.118276 
226 0.739723 1.28996 2.43124 0.504118 0 0 0 -0.860301 -0.17497 0.697988 
511 1.41956 1.17052 2.0196 0.366043 0 0 0 0.0941673 -0.908829 0.297201 
118 0.968938 0.167095 2.50852 0.690236 0 0 0 -0.380096 -0.897094 -0.669404 
26 1.04233 1.47276 1.91231 0.366374 0 0 0 -0.425713 0.305248 0.348071 
77 0.568464 0.474337 2.28659 0.658594 0 0 0 -0.193271 -0.487504 -0.883509 
92 0.627969 -0.707374 2.33072 0.9835 0 0 0 -0.0562687 -0.633961 -0.231832 
107 0.249774 0.442636 2.19695 0.72425 0 0 0 -0.0884739 -0.275268 -0.80341 
122 1.04947 0.384898 2.37967 0.613127 0 0 0 -0.286994 -0.858501 -0.736341 
94 1.18309 0.612665 2.42577 0.545583 0 0 0 -0.172997 -1.01252 -0.0157711 
247 0.952667 1.10213 2.48174 0.497487 0 0 0 -0.611955 -0.522924 0.847366 
73 1.44161 0.794431 2.54928 0.516406 0 0 0 0.0603909 -0.77859 0.685141 
87 0.756024 0.283345 2.07373 0.669736 0 0 0 0.352336 0.328729 -0.886048 
84 -0.667105 1.05545 2.40896 0.902827 0 0 0 -0.847657 -0.267151 -0.180989 
507 1.18214 1.13119 2.2489 0.42577 0 0 0 -0.485947 -0.575615 1.24125 
169 1.39493 0.991797 2.28373 0.436526 0 0 0 0.174978 -1.07739 1.11087 
85 0.770573 -0.606565 1.99598 0.927263 0 0 0 0.0904878 -0.341426 -0.356415 
371 1.36018 0.868788 2.51445 0.500147 0 0 0 -0.0253706 -0.820987 0.806167 
448 0.609035 1.28909 1.89856 0.483824 0 0 0 1.71746 3.16727 1.99171 
328 0.993109 0.774309 2.21876 0.511073 0 0 0 0.60411 0.591817 0.631528 
112 0.973454 1.266 2.22439 0.43346 0 0 0 -0.94745 -0.0536081 1.19689 
40 0.542469 1.29074 2.42961 0.54092 0 0 0 -0.9945 -0.33162 0.322523 
496 1.48485 1.48105 1.5348 0.253068 0 0 0 0.119661 0.0927301 -0.0759708 
42 1.22246 1.29781 2.00116 0.362851 0 0 0 -0.557191 -0.188795 0.501171 
237 1.1156 1.25582 2.14125 0.402222 0 0 0 -0.810552 -0.184003 0.983533 
494 1.38749 1.19011 2.0175 0.364348 0 0 0 -0.0150457 -0.801321 0.357304 
181 0.316501 1.14153 2.56082 0.627437 0 0 0 -0.957841 -0.732074 -0.0854981 
81 -0.121095 -0.621643 2.09638 1.08734 0 0 0 -0.196996 -0.422687 -0.131277 
83 1.18469 -0.506685 2.52988 0.870695 0 0 0 -0.142377 -0.821282 -0.309912 
232 0.998007 1.0124 2.54917 0.515985 0 0 0 -0.467541 -0.616712 0.771102 
93 -0.508152 0.844909 2.0297 0.851664 0 0 0 -0.540518 -0.298774 -0.444176 
61 1.51203 0.359929 1.94817 0.566532 0 0 0 0.589538 1.39729 -0.113173 
349 1.50386 -0.38165 1.57127 0.808644 0 0 0 -0.129201 0.234021 -0.291418 
253 1.16405 1.08585 2.3957 0.46085 0 0 0 -0.61158 -0.90704 0.937597 
193 -0.727529 1.42163 1.55279 0.877436 0 0 0 -0.696335 -0.372887 -0.30349 
506 1.46209 1.27674 1.83872 0.320017 0 0 0 -0.221688 -0.637781 0.942502 
44 -0.248206 1.37175 1.89731 0.712933 0 0 0 -0.599114 -0.717588 -0.65202 
32 1.23784 1.37168 1.88979 0.336999 0 0 0 -0.418074 -0.0103686 0.780355 
493 1.20601 1.42553 1.84334 0.331298 0 0 0 -0.251643 0.0107249 0.833651 
9 1.40198 1.32545 1.82113 0.313667 0 0 0 -0.524653 -0.595544 1.18545 
218 1.31592 1.40023 1.78918 0.309642 0 0 0 -0.538576 -0.471007 1.28615 
200 -0.243771 1.45154 1.90837 0.706231 0 0 0 -0.689961 -0.735862 -0.614244 
486 1.31685 1.26323 1.982 0.354057 0 0 0 0.424461 0.777774 1.34955 
98 0.192041 0.505967 2.67417 0.762683 0 0 0 -0.547793 -0.679278 -0.319404 
113 1.36474 -0.767756 2.84603 0.993319 0 0 0 -0.0519153 -0.877641 0.0551743 
114 -0.662819 0.667392 3.0988 1.0467 0 0 0 -0.730332 -0.208073 0.292161 
108 0.827865 -0.375048 3.19939 0.967029 0 0 0 -0.179659 -0.683321 0.269363 
163 0.568719 0.925249 2.79803 0.645968 0 0 0 -0.628996 -0.714728 0.303382 
60 0.82446 1.36372 3.15258 0.691634 0 0 0 0.333314 0.629423 0.835943 
117 0.983523 0.117896 3.70191 0.97882 0 0 0 -0.129098 -0.308782 0.718551 
51 0.407865 1.42257 2.78812 0.642072 0 0 0 -0.346596 0.249815 0.656787 
88 1.42973 0.53892 3.62921 0.869878 0 0 0 0.00638257 0.0152755 0.894943 
109 -0.521008 -0.195165 3.25587 1.19582 0 0 0 -0.575237 -0.438261 0.393264 
90 -0.819595 0.596005 2.78624 1.05283 0 0 0 -0.79871 -0.216512 0.112031 
91 0.794654 1.1685 3.90934 0.962243 0 0 0 -0.00640092 0.133375 0.951548 
227 1.33614 1.35544 2.76354 0.562284 0 0 0 -0.0936796 0.239771 -0.637915 
438 0.692845 1.45414 3.02108 0.665649 0 0 0 0.310304 0.681412 0.831903 
119 0.719812 0.052658 3.43824 0.932511 0 0 0 -0.230064 -0.438123 0.511971 
430 1.20336 0.66793 2.80486 0.606695 0 0 0 -0.284888 -0.688803 0.484967 
96 1.21336 -0.443186 3.49594 1.03711 0 0 0 -0.0580946 -0.627555 0.498007 
121 -0.478882 0.852546 3.15732 0.981832 0 0 0 -0.68612 -0.19681 0.337561 
110 0.000527393 -0.178569 2.91004 0.989032 0 0 0 -0.415649 -0.545739 0.0950878 
120 -0.757148 1.33216 2.86286 0.982958 0 0 0 -0.855538 -0.0638526 0.192641 
104 0.101178 -0.598305 3.21263 1.14764 0 0 0 -0.345982 -0.642432 0.341685 
101 0.537345 0.503477 3.11842 0.786338 0 0 0 -0.405484 -0.525516 0.336947 
238 1.23272 1.23413 2.83499 0.574663 0 0 0 0.182205 0.586763 0.304313 
123 -0.316984 2.86792 -0.691703 1.18977 0 0 0 -0.540343 0.329791 -0.65982 
159 0.39783 3.05213 -0.625384 1.0548 0 0 0 -0.285724 0.50308 -0.69078 
142 1.18785 3.80509 -0.059617 1.05791 0 0 0 -0.106359 0.892012 -0.3167 
126 -0.541272 3.21741 0.18441 1.10843 0 0 0 -0.644975 0.55174 -0.319696 
127 0.805511 2.06303 -0.832083 0.949854 0 0 0 -0.270561 -0.262301 -0.886193 
158 0.896476 2.14782 -0.502458 0.825352 0 0 0 -0.343751 -0.410896 -0.874068 
143 -0.162423 2.51389 -0.788987 1.13562 0 0 0 -0.507477 0.116802 -0.735187 
149 1.11663 2.1868 -0.912534 0.958568 0 0 0 -0.152835 -0.115959 -0.939884 
151 1.36321 3.36621 0.288898 0.844523 0 0 0 0.030217 0.959215 0.0450242 
274 1.33477 2.01645 -0.0268053 0.63667 0 0 0 -0.366982 -0.743727 -0.663868 
157 0.0134431 1.643 0.128941 0.821069 0 0 0 -0.211125 -0.666841 -0.103401 
156 -0.609026 1.93331 -0.650124 1.19061 0 0 0 -0.599152 -0.0660173 -0.549861 
130 0.986173 2.15088 0.267693 0.593014 0 0 0 -0.524955 -0.340142 -0.63503 
148 0.698616 1.49458 -0.23256 0.79159 0 0 0 -0.0750366 -0.610816 0.0774176 
137 -0.708158 2.86987 0.2464 1.07807 0 0 0 -0.787221 0.32315 -0.310879 
138 0.424977 2.62752 -0.593778 0.963031 0 0 0 -0.356601 0.182123 -0.803845 
141 0.160031 1.997 -0.415256 0.914397 0 0 0 -0.476563 -0.434294 -0.672656 
140 0.86215 2.60215 -0.809082 0.979757 0 0 0 -0.192274 0.196977 -0.875616 
443 1.31898 2.0852 0.116079 0.599075 0 0 0 -0.363285 -0.428189 -0.737824 
444 1.48154 2.23981 0.0627855 0.6209 0 0 0 -0.259589 0.134136 -0.787065 
136 1.03226 1.8917 0.22151 0.59717 0 0 0 -0.149004 -0.793362 0.0687355 
268 1.46276 2.00807 0.113335 0.58976 0 0 0 -0.280089 -0.513174 -0.711797 
146 0.824175 2.05114 0.253743 0.615593 0 0 0 -0.451195 -0.790418 -0.379392 
180 0.816323 2.50705 0.789623 0.565312 0 0 0 -0.422023 1.23141 -0.299281 
190 0.82183 3.2916 1.17401 0.773673 0 0 0 0.338232 0.751388 0.367139 
178 -0.546733 3.08541 1.13917 0.974059 0 0 0 -0.646023 0.58169 -0.0204858 
220 0.899078 2.23258 1.45456 0.460908 0 0 0 -1.92836 -2.57308 -1.96285 
189 1.01701 2.26104 0.814597 0.487551 0 0 0 -0.947627 1.11264 -0.606383 
165 1.0488 2.30438 0.745468 0.502533 0 0 0 -0.824628 1.15657 -0.661812 
128 1.38577 3.34334 1.25181 0.793523 0 0 0 0.238317 -0.0104504 0.379258 
185 0.700687 3.36967 1.30718 0.807797 0 0 0 0.306448 0.74987 0.317379 
168 0.779367 2.05425 1.00595 0.471616 0 0 0 -0.205792 1.53647 0.706461 
186 -0.767695 1.72337 0.481583 0.983529 0 0 0 -0.740649 -0.285028 -0.211631 
170 0.556743 2.28227 0.547182 0.609205 0 0 0 -0.63944 -0.127195 -0.555094 
171 0.284591 3.56152 0.91582 0.929535 0 0 0 -0.124103 0.922009 0.0251802 
175 -0.673989 2.64647 1.34235 0.922314 0 0 0 -0.83816 0.28562 -0.0589393 
124 0.946516 2.13445 1.0301 0.448059 0 0 0 -1.03369 1.02045 -0.156159 
187 -0.341972 2.06188 0.381158 0.853131 0 0 0 -0.732651 -0.502037 -0.361223 
134 1.44029 2.99975 0.71526 0.686525 0 0 0 0.237594 0.772259 0.575622 
198 1.10454 2.48526 1.32488 0.519694 0 0 0 -1.07316 -2.52528 -1.23751 
426 1.5256 1.8097 1.03414 0.350828 0 0 0 0.374393 0.399504 0.236604 
147 1.22188 1.9207 1.15986 0.365564 0 0 0 -0.681979 -0.613099 0.42729 
133 1.04449 2.31189 0.324244 0.588102 0 0 0 -0.518656 0.365583 -0.734279 
188 0.398831 2.22613 0.467431 0.652192 0 0 0 -0.608916 -0.52805 -0.525444 
20 1.40121 1.64926 1.36986 0.284343 0 0 0 1.58823 -0.491048 -0.210321 
216 -0.0737789 2.3515 1.33666 0.682756 0 0 0 -0.676876 0.162984 -0.232998 
206 -0.717437 1.91108 1.19378 0.879571 0 0 0 -0.880926 -0.367043 -0.250322 
154 -0.280089 3.2078 0.526566 0.978399 0 0 0 -0.533198 0.672509 -0.188909 
144 1.30247 2.01087 0.912942 0.407617 0 0 0 -0.672901 1.05417 -0.238473 
423 1.18173 2.03443 0.97732 0.41124 0 0 0 -0.851427 1.0611 0.0834122 
135 -0.226253 3.12139 0.410252 0.95821 0 0 0 -0.535667 0.632114 -0.247136 
192 0.529694 2.18854 0.465836 0.623394 0 0 0 -0.589993 -0.541628 -0.501826 
194 0.171579 2.21543 0.651669 0.67049 0 0 0 -0.636115 -0.568292 -0.480123 
196 0.99008 2.89059 1.10309 0.640601 0 0 0 0.388185 0.633295 0.419029 
203 0.532327 2.55462 0.541051 0.655194 0 0 0 -0.461104 0.623899 -0.448616 
150 1.41058 1.88554 0.988754 0.370978 0 0 0 2.8735 5.46493 3.79193 
214 -0.0711028 1.80496 0.79184 0.711168 0 0 0 -0.190279 -1.00773 -0.172936 
425 1.42104 1.95118 0.905405 0.39439 0 0 0 -0.268493 0.944328 -0.302337 
48 0.228424 2.29404 0.623422 0.66739 0 0 0 -0.652858 -0.340616 -0.509609 
162 1.52738 1.51565 1.44983 0.254791 0 0 0 -0.400388 0.113589 0.320316 
177 0.870215 1.99607 1.31465 0.416625 0 0 0 -0.428129 0.917055 0.359019 
139 0.901011 3.94732 0.7486 1.02061 0 0 0 -0.0239472 0.908769 -0.0296483 
461 1.38949 1.75363 1.23162 0.316837 0 0 0 0.788827 0.0388881 0.35353 
210 0.261612 2.17599 0.847565 0.615999 0 0 0 -0.594626 -0.510695 -0.434905 
480 1.02343 2.02373 1.13293 0.409868 0 0 0 -0.664128 0.947507 0.473131 
28 1.05076 1.83854 1.404 0.360318 0 0 0 0.745337 0.122645 0.746426 
489 0.558854 2.27473 1.21427 0.519893 0 0 0 -0.640075 0.85359 -0.177993 
4 1.22245 1.72084 1.42292 0.315214 0 0 0 1.31358 -0.333601 0.539132 
19 1.14084 2.47426 0.428793 0.585359 0 0 0 -0.345443 1.10183 -0.529087 
336 0.479586 2.37429 1.18931 0.555286 0 0 0 -0.451967 0.940814 -0.147878 
469 1.0405 2.01731 1.12836 0.406968 0 0 0 -0.641681 0.936123 0.520234 
308 0.417194 2.38389 1.20765 0.568907 0 0 0 -0.422036 0.883005 -0.1444 
15 1.22459 1.8628 1.21613 0.350381 0 0 0 0.32991 0.109461 1.24225 
424 1.33272 2.62684 0.397188 0.618369 0 0 0 -0.0725427 1.29741 -0.162116 
7 1.37249 2.12815 0.709267 0.45716 0 0 0 -0.584502 1.11293 -1.16704 
174 1.2968 1.80757 1.23498 0.332179 0 0 0 0.573453 -0.12494 0.946512 
6 1.09486 1.81937 1.39359 0.350537 0 0 0 0.885959 -0.0217799 0.820487 
458 0.509352 2.15864 1.40969 0.50369 0 0 0 -0.692708 0.732849 -0.0556097 
433 1.53015 1.83936 0.985043 0.363364 0 0 0 0.317794 0.587871 0.0928082 
437 1.46749 2.04176 0.748701 0.434921 0 0 0 -0.336975 1.01708 -1.23238 
153 1.27973 1.81894 1.23333 0.335818 0 0 0 0.531835 -0.101175 1.03859 
286 1.4825 2.02989 0.753374 0.432211 0 0 0 -0.28956 0.996519 -1.23871 
195 0.960329 1.93964 1.32812 0.392723 0 0 0 -0.00420825 0.669689 0.653938 
399 1.51634 1.93623 0.866641 0.397932 0 0 0 -0.42968 0.219494 -1.13902 
354 0.503413 2.10105 1.49637 0.495892 0 0 0 -0.740995 0.714494 0.020355 
372 1.50625 1.49957 1.49052 0.251512 0 0 0 -0.21307 0.0451138 0.264218 
164 0.232473 1.81996 1.47903 0.555412 0 0 0 -0.187094 -0.251049 -0.150821 
17 1.50459 1.49817 1.49392 0.25144 0 0 0 -0.188154 0.0475433 0.240332 
52 0.953887 1.86576 1.44846 0.38025 0 0 0 0.395497 0.462928 0.490544 
145 0.944092 3.68323 0.319779 0.962028 0 0 0 -0.0697358 0.942561 -0.13653 
256 0.558349 2.11604 1.73864 0.496382 0 0 0 -0.760149 0.519746 0.0906012 
495 1.0431 1.64388 1.68229 0.346147 0 0 0 0.726377 0.284268 0.134272 
248 0.868781 1.5629 1.93386 0.401683 0 0 0 -0.734114 0.724719 0.574565 
43 0.14892 2.31439 1.81884 0.623842 0 0 0 -0.186912 0.906599 0.491359 
76 0.9068 1.57911 1.88406 0.38908 0 0 0 -0.518056 0.646486 0.347136 
450 0.854478 1.64817 1.83468 0.397156 0 0 0 -0.47151 0.832868 0.328219 
166 1.19151 3.39112 1.71318 0.833435 0 0 0 0.311553 -0.187263 0.0848028 
70 0.975129 2.32045 2.30291 0.608756 0 0 0 0.374684 -1.557 -1.4666 
199 -0.163991 2.48213 2.51655 0.815894 0 0 0 -0.221965 0.751757 0.499421 
223 -0.313711 3.51999 2.20263 1.0656 0 0 0 -0.342999 0.730767 0.185294 
201 -0.0323001 3.01379 1.68138 0.815639 0 0 0 -0.0812735 0.978493 0.267417 
243 0.900445 2.03173 2.39422 0.562179 0 0 0 0.102873 -1.11852 -1.3564 
191 0.402005 2.14628 2.61254 0.66771 0 0 0 0.537597 1.1621 0.686827 
204 0.494255 3.83159 2.13436 1.03917 0 0 0 0.0831356 0.663342 0.133749 
49 0.769418 1.87247 1.59107 0.417371 0 0 0 -0.387986 1.00496 0.294933 
160 0.914955 1.82328 1.54462 0.382719 0 0 0 0.276344 0.470629 0.187926 
207 0.786908 2.75747 2.50756 0.754782 0 0 0 0.726066 0.142268 -0.116919 
208 1.03098 2.39112 1.63946 0.518097 0 0 0 -1.29671 -4.15691 -2.32218 
209 0.529456 2.20089 1.58261 0.507847 0 0 0 -0.58315 0.778402 0.088369 
447 0.197364 2.26425 2.14673 0.639121 0 0 0 0.085808 1.11295 0.777285 
211 0.711172 3.69218 1.79547 0.943619 0 0 0 0.228621 0.561475 0.152195 
212 0.655031 3.2858 1.83326 0.81231 0 0 0 0.469032 0.508441 0.273229 
213 0.0678188 3.4769 2.25792 0.98074 0 0 0 -0.0320949 0.748338 0.229379 
490 1.46128 1.49805 1.53103 0.253855 0 0 0 1.2924 -0.711282 0.12864 
215 0.794994 3.88391 2.27497 1.06153 0 0 0 0.148998 0.50279 0.0716894 
184 1.5004 1.49456 1.50257 0.251402 0 0 0 -0.121588 0.0574006 0.171711 
55 0.26669 2.26505 1.5319 0.574508 0 0 0 -0.404418 0.67115 0.0856426 
505 0.361116 1.60465 2.26191 0.548761 0 0 0 -0.983717 0.180596 0.294858 
255 1.2108 2.61048 2.17651 0.66896 0 0 0 0.0489433 -2.31923 -1.57549 
479 0.0168448 2.36862 2.04038 0.686486 0 0 0 -0.169997 0.920345 0.583077 
173 -0.12453 1.91621 1.83532 0.659828 0 0 0 -0.837757 -0.402909 -0.215167 
318 0.349874 1.78873 2.07953 0.534861 0 0 0 -0.899035 0.413722 0.360445 
54 0.43062 1.94053 1.8001 0.502879 0 0 0 -0.875927 0.602254 0.284628 
34 0.259993 2.18276 1.85537 0.57733 0 0 0 -0.275833 0.84516 0.514615 
172 0.165966 2.12749 1.58858 0.582572 0 0 0 -0.604309 0.131432 -0.0735011 
229 1.0813 2.33349 2.53379 0.661707 0 0 0 0.497505 -1.05238 -1.406 
234 1.04409 1.64647 1.67795 0.345828 0 0 0 0.744828 0.27716 0.135817 
252 1.1575 1.61768 1.62227 0.318148 0 0 0 1.06402 -0.250359 0.524618 
235 1.04832 1.62 1.71022 0.345715 0 0 0 0.625996 0.289117 0.162371 
29 0.843074 1.72178 1.74557 0.396694 0 0 0 -0.258838 0.877888 0.216116 
513 0.660695 1.56778 2.09004 0.460313 0 0 0 -1.20284 0.513733 0.742832 
241 1.06009 1.60521 1.72045 0.343451 0 0 0 0.600621 0.255493 0.207131 
38 0.320518 1.7588 2.2745 0.566248 0 0 0 -0.693081 0.511565 0.471374 
35 0.252085 1.76159 2.40264 0.603925 0 0 0 -0.543926 0.556807 0.510708 
30 0.50021 1.66022 2.12088 0.499531 0 0 0 -1.10763 0.440831 0.496602 
239 -0.586851 2.64441 2.57886 0.974138 0 0 0 -0.577172 0.458324 0.298065 
233 0.904609 1.60662 1.8497 0.38676 0 0 0 -0.399294 0.669484 0.256683 
75 0.829567 1.66228 1.83747 0.403138 0 0 0 -0.564167 0.86757 0.365796 
219 1.50021 1.49439 1.50297 0.251406 0 0 0 -0.118409 0.0579589 0.168309 
167 1.5004 1.49455 1.50259 0.251402 0 0 0 -0.12145 0.0574247 0.171563 
466 1.5002 1.49437 1.503 0.251406 0 0 0 -0.118181 0.0579993 0.168064 
471 1.50021 1.49439 1.50297 0.251406 0 0 0 -0.118453 0.0579511 0.168356 
36 1.50028 1.49445 1.50282 0.251404 0 0 0 -0.119628 0.0577444 0.169614 
278 1.50195 1.4959 1.49935 0.251391 0 0 0 -0.146735 0.0532249 0.198279 
37 1.50089 1.49497 1.50157 0.251396 0 0 0 -0.129502 0.0561053 0.180047 
58 1.50159 1.49559 1.5001 0.251391 0 0 0 -0.14099 0.0542319 0.192137 
47 1.07812 1.7557 1.49969 0.343427 0 0 0 1.02039 -0.136283 0.347777 
477 1.50167 1.49566 1.49993 0.251391 0 0 0 -0.14221 0.0539425 0.193546 
355 1.50134 1.49537 1.50062 0.251392 0 0 0 -0.13682 0.0548177 0.18788 
334 1.50104 1.49511 1.50125 0.251394 0 0 0 -0.131917 0.0556321 0.1827 
476 1.50097 1.49505 1.50139 0.251395 0 0 0 -0.130845 0.0558124 0.181564 
179 1.50088 1.49498 1.50157 0.251396 0 0 0 -0.129438 0.0560502 0.180071 
222 1.50059 1.49472 1.50219 0.251399 0 0 0 -0.124599 0.0568779 0.174925 
302 1.50065 1.49478 1.50205 0.251398 0 0 0 -0.125686 0.0566906 0.176083 
176 1.50066 1.49478 1.50204 0.251398 0 0 0 -0.125746 0.0566802 0.176147 
225 0.922809 2.39725 3.41234 0.888288 0 0 0 0.373679 0.377023 0.311796 
106 0.302738 2.02714 3.35323 0.85724 0 0 0 0.120788 0.569725 0.780082 
249 -0.498561 2.47087 2.81672 0.959172 0 0 0 -0.536689 0.431532 0.39413 
228 -0.108658 3.23446 3.60257 1.22453 0 0 0 -0.281623 0.494542 0.579484 
254 -0.48612 2.76307 3.5122 1.1744 0 0 0 -0.471139 0.385433 0.584949 
230 0.506969 3.71141 2.9996 1.13779 0 0 0 0.0269053 0.555018 0.264732 
231 0.569902 2.2762 3.57918 0.935088 0 0 0 0.21465 0.457923 0.686148 
242 0.544176 2.40527 3.25163 0.856902 0 0 0 0.388559 0.605944 0.516849 
246 -0.356553 2.01124 3.52011 1.04153 0 0 0 -0.460422 0.227394 0.669544 
464 0.277934 1.66567 2.73315 0.660817 0 0 0 -0.253207 0.600733 0.673418 
205 0.789506 1.62298 3.04756 0.674937 0 0 0 0.588798 0.903114 0.639757 
251 0.368726 3.45847 3.03809 1.07462 0 0 0 0.0473291 0.574835 0.331764 
105 -0.172734 1.52945 3.72936 1.04181 0 0 0 -0.38388 0.0755032 0.777715 
250 0.796414 3.13054 3.39931 1.05192 0 0 0 0.168007 0.346706 0.318557 
244 1.25516 2.37352 3.45388 0.901675 0 0 0 0.225143 0.194202 0.0630329 
240 -0.316578 3.69299 3.4091 1.33894 0 0 0 -0.398567 0.574294 0.44319 
257 3.62637 1.21803 -0.27845 1.02737 0 0 0 0.662285 -0.0959397 -0.447612 
441 1.86625 1.15928 0.029391 0.661003 0 0 0 -0.675381 -0.369667 0.601568 
288 3.67371 0.857921 0.0530716 0.991893 0 0 0 0.717086 -0.235558 -0.334333 
260 3.1323 0.827983 -0.609115 1.01911 0 0 0 0.333839 -0.274317 -0.675073 
261 3.52398 -0.100127 0.15468 1.093 0 0 0 0.502731 -0.634776 -0.33056 
276 2.55308 0.780197 -0.320849 0.838315 0 0 0 -0.251421 -0.566763 -0.547734 
427 2.22868 1.08023 0.208779 0.632712 0 0 0 -0.822422 -0.713988 -0.101786 
285 1.77615 0.218845 -0.0315097 0.864555 0 0 0 -0.185606 0.145298 0.517843 
436 2.35116 1.42219 -0.0512697 0.678327 0 0 0 -0.40655 -0.673964 -0.734144 
266 2.66025 0.936351 -0.843425 1.00718 0 0 0 0.0635737 -0.223773 -0.783955 
267 3.03037 0.608852 -0.0398096 0.865182 0 0 0 0.159059 -0.643757 -0.506134 
293 2.10191 1.07615 -0.870526 0.957155 0 0 0 -0.174107 -0.223628 -0.718729 
269 2.55512 0.949699 -0.706884 0.94309 0 0 0 -0.0495119 -0.288855 -0.743544 
270 2.46766 0.612223 -0.432211 0.891628 0 0 0 -0.223503 -0.523989 -0.496713 
271 3.2313 -0.579431 -0.176079 1.23192 0 0 0 0.360721 -0.69276 -0.376337 
272 1.6467 0.823016 0.128505 0.702437 0 0 0 -0.205682 0.701055 1.55325 
284 2.0421 0.324119 -0.432478 0.936211 0 0 0 -0.243778 -0.33519 -0.149027 
290 2.38962 -0.690838 -0.214173 1.17656 0 0 0 0.0652861 -0.547444 -0.230052 
291 3.16122 0.334523 -0.492724 1.06555 0 0 0 0.325713 -0.499017 -0.575626 
294 3.06872 0.327583 0.682211 0.794009 0 0 0 0.101738 -0.942262 -0.433152 
23 1.96012 1.40534 1.23483 0.349079 0 0 0 -0.599604 -0.217102 0.0857765 
453 2.93383 0.913308 1.3622 0.602813 0 0 0 0.73284 -0.10057 0.132444 
18 1.90807 1.36094 1.34067 0.333035 0 0 0 -1.25072 0.0132163 0.295434 
298 2.04666 1.34271 1.25147 0.367169 0 0 0 -0.540423 -0.421575 0.0781938 
299 2.9192 0.965585 1.15319 0.600934 0 0 0 0.6958 -0.294009 -0.119152 
451 2.12579 1.28904 1.26587 0.385298 0 0 0 -0.254692 -0.637331 -0.0746715 
301 3.70182 0.535435 1.4268 0.900411 0 0 0 0.879136 -0.217171 0.0445959 
264 2.45148 0.85553 0.620126 0.597322 0 0 0 -0.523679 -0.843215 -0.416913 
445 2.28053 1.21986 1.24788 0.423471 0 0 0 0.555507 -0.751899 -0.307325 
304 2.19733 1.11984 1.14349 0.431069 0 0 0 2.27651 2.78667 2.37218 
41 2.8642 0.991061 0.872283 0.609245 0 0 0 0.493111 -0.669904 -0.497241 
306 1.99419 1.20525 1.4957 0.358718 0 0 0 -1.55158 -0.175148 0.0556167 
307 2.07215 1.045 1.19278 0.425481 0 0 0 3.78038 7.11411 5.71581 
277 2.64747 1.39933 0.721806 0.548759 0 0 0 0.848639 -0.164905 -0.410683 
309 3.42368 0.409366 1.28612 0.825455 0 0 0 0.70541 -0.507598 -0.108077 
310 2.04761 -0.00925893 1.06794 0.725922 0 0 0 -0.56627 0.412284 0.0784965 
311 2.88347 1.04323 0.925478 0.602776 0 0 0 0.627629 -0.456718 -0.367882 
341 2.75568 1.06758 0.733256 0.594095 0 0 0 0.36331 -0.793582 -0.668205 
432 2.74185 1.44695 0.883124 0.55467 0 0 0 0.863009 0.249307 0.0388717 
161 2.00056 1.43223 1.16426 0.363505 0 0 0 -0.0700136 -0.338586 -0.11711 
182 2.69528 1.32605 0.52328 0.596685 0 0 0 0.459716 -0.519103 -0.622907 
316 2.92723 -0.308186 0.756847 0.92441 0 0 0 0.0547647 -0.866025 -0.307169 
317 3.34937 0.0147933 0.768077 0.924397 0 0 0 0.394663 -0.767701 -0.282427 
275 3.4093 -0.820407 0.709982 1.195 0 0 0 0.430011 -0.788078 -0.184212 
33 2.65971 0.845095 1.48872 0.537872 0 0 0 0.731272 -0.58475 0.057688 
320 1.86541 0.0375282 0.931899 0.734204 0 0 0 -0.348799 1.04577 0.599282 
72 2.19326 1.16818 1.39318 0.403132 0 0 0 -0.136038 -0.769903 -0.0247852 
265 1.93826 -0.369082 0.73291 0.882172 0 0 0 -0.20492 0.0532979 0.157716 
501 2.42645 1.15684 1.21412 0.460776 0 0 0 0.925117 -0.612888 -0.326097 
56 2.5703 0.70299 0.532527 0.656288 0 0 0 -0.587875 -1.04466 -0.472247 
325 2.33716 1.10413 1.34222 0.440661 0 0 0 0.761415 -0.601245 0.0304874 
287 2.41139 -0.366535 0.555639 0.915704 0 0 0 -0.190783 -0.554729 -0.138705 
327 3.3612 1.249 1.48977 0.729282 0 0 0 0.602865 0.610925 0.465244 
329 1.95982 0.208867 1.14449 0.655286 0 0 0 -0.514422 1.36134 0.567945 
428 2.78133 0.813916 1.48194 0.571736 0 0 0 0.696738 -0.434578 0.0856603 
31 2.45657 0.72051 0.487634 0.649595 0 0 0 -0.729151 -0.862216 -0.283687 
283 1.78568 0.844285 0.902945 0.529934 0 0 0 2.21464 7.117 5.72918 
326 2.49871 1.10644 1.22629 0.479726 0 0 0 0.917743 -0.587078 -0.275448 
470 3.20794 1.21787 1.38465 0.675379 0 0 0 0.604936 0.650648 0.479885 
313 2.78304 0.837261 1.4233 0.569372 0 0 0 0.688848 -0.469763 0.0304971 
457 1.88295 1.3176 1.42382 0.328055 0 0 0 -1.57498 0.173365 0.325394 
455 2.09929 1.46729 1.04026 0.396738 0 0 0 0.737336 -0.566916 -0.644786 
422 2.35313 1.29626 1.0816 0.446573 0 0 0 1.03421 -0.563867 -0.623626 
456 2.55983 0.341733 1.38463 0.628053 0 0 0 -0.349838 -1.08266 -0.530447 
474 1.85407 1.41999 1.30336 0.322765 0 0 0 -0.756426 0.168718 0.00897017 
300 3.62897 -0.222317 1.47508 1.02441 0 0 0 0.628927 -0.628307 -0.093681 
478 2.35707 1.45326 0.867206 0.466214 0 0 0 1.20527 -0.344443 -0.812694 
340 1.70263 1.43604 1.41147 0.286351 0 0 0 -0.968971 0.607139 -0.388324 
281 1.70783 0.00684222 0.314214 0.851725 0 0 0 -0.0686723 0.525069 0.736438 
333 2.95213 0.625804 2.57619 0.753148 0 0 0 0.713174 0.398761 0.502298 
323 1.96023 1.06257 1.74773 0.38267 0 0 0 -0.574171 -0.518599 -0.531198 
335 2.66602 0.847276 2.44812 0.646093 0 0 0 0.592444 0.832713 0.530752 
491 1.78687 1.17973 1.7055 0.338069 0 0 0 -0.880227 0.102253 -0.515698 
337 2.05362 -0.945722 1.91696 0.993528 0 0 0 -0.0302125 -0.872251 -0.198427 
338 3.03182 0.240147 2.16305 0.772454 0 0 0 0.621382 -0.400488 0.18502 
339 1.79311 0.243022 1.69179 0.597998 0 0 0 -0.162288 1.31185 -0.0847231 
370 1.65925 -0.976649 2.59511 1.0346 0 0 0 -0.0037192 -0.91398 -0.00498568 
452 2.42607 0.24413 1.74988 0.624614 0 0 0 -0.262869 -1.04641 -0.489059 
295 2.09994 0.574214 2.39619 0.559711 0 0 0 0.422649 -0.554892 0.449788 
296 2.19624 1.05236 1.56909 0.416346 0 0 0 0.0525179 -0.767593 0.00168287 
344 2.37282 0.960802 1.94511 0.493171 0 0 0 0.0946501 -0.747952 -0.194989 
345 3.40708 1.06476 2.12277 0.795709 0 0 0 0.617714 0.513865 0.408947 
346 2.01393 0.960273 1.86444 0.415939 0 0 0 0.21252 -0.860761 0.00194827 
364 1.68475 1.12265 1.87405 0.355485 0 0 0 0.0337372 -0.642784 -0.44105 
348 3.88722 1.46542 2.1892 0.984173 0 0 0 0.623107 0.145071 0.18069 
331 2.11756 0.995947 1.72374 0.415842 0 0 0 0.0795379 -0.764378 -0.0601756 
350 2.36019 -0.0946034 1.6119 0.719204 0 0 0 -0.476416 -0.847107 -0.611081 
351 1.77258 1.23309 1.64011 0.323701 0 0 0 -1.06182 0.264868 -0.192544 
352 2.46185 0.668521 2.2626 0.582332 0 0 0 0.676365 0.0573076 0.58254 
363 2.55574 -0.637621 2.03573 0.923298 0 0 0 0.0626246 -0.993194 -0.189401 
45 1.68419 1.14928 1.83489 0.346042 0 0 0 -0.0692509 -0.451521 -0.387407 
365 1.6938 0.222901 2.39009 0.619915 0 0 0 -0.246758 -1.20421 -0.522454 
356 3.26093 1.43479 2.49167 0.819986 0 0 0 0.0772121 0.442799 0.108641 
357 2.16287 1.0865 2.24832 0.502366 0 0 0 -1.19522 -1.26628 -1.34788 
358 2.14803 0.666399 2.60498 0.595298 0 0 0 0.560586 0.18146 0.638781 
359 3.56757 -0.600349 2.21029 1.1353 0 0 0 0.571195 -0.67162 0.0263283 
360 1.95003 0.186194 2.18312 0.617077 0 0 0 -0.299124 -1.06731 -0.548409 
361 2.06205 -0.717429 1.53364 0.916868 0 0 0 -0.16597 -0.667982 -0.288186 
362 2.41713 0.274351 1.96776 0.621371 0 0 0 -0.0196184 -1.05124 -0.266876 
460 1.97018 1.14592 1.60674 0.364135 0 0 0 -1.33179 -0.186314 -0.368008 
303 2.32215 1.05424 1.64055 0.44636 0 0 0 -0.243813 -1.64989 -0.782092 
393 1.97008 -0.328919 2.07153 0.770048 0 0 0 -0.341791 -0.895133 -0.523355 
324 2.45377 0.69163 1.9828 0.539929 0 0 0 0.658955 -0.447214 0.399828 
312 3.14154 1.31987 1.96638 0.699457 0 0 0 -0.0356399 0.799496 0.326163 
375 1.7987 0.918462 2.0944 0.426674 0 0 0 0.572461 -1.16248 0.50939 
459 2.65914 0.45716 1.80806 0.612563 0 0 0 0.369618 -0.819343 -0.0486661 
62 1.74291 1.05769 1.9291 0.377706 0 0 0 0.103554 -0.931056 -0.414954 
380 2.33975 0.664182 2.34272 0.573093 0 0 0 0.614348 -0.0092686 0.600946 
485 1.68786 1.16812 1.80446 0.339539 0 0 0 -0.171968 -0.322271 -0.330531 
510 2.07899 0.979137 1.78211 0.415852 0 0 0 0.124233 -0.79195 -0.0555261 
497 1.81804 0.609484 2.48231 0.54285 0 0 0 0.301647 -0.771579 0.409429 
347 1.77136 -0.88126 1.97401 0.962733 0 0 0 -0.0895685 -0.786561 -0.247525 
377 3.60723 1.30346 2.56839 0.93368 0 0 0 0.514248 0.272029 0.238896 
314 2.7149 0.746781 1.7233 0.570735 0 0 0 0.739712 -0.292768 0.267016 
388 1.7547 1.18522 1.72428 0.334977 0 0 0 -0.686816 0.0362589 -0.442023 
315 2.63579 0.31401 1.72365 0.638918 0 0 0 0.053797 -1.04206 -0.32629 
472 2.09293 0.870491 1.94172 0.448092 0 0 0 0.491706 -0.963465 0.34623 
483 1.82858 0.756598 2.34807 0.493683 0 0 0 0.439392 -0.86998 0.607128 
481 2.18418 0.922715 1.7832 0.441243 0 0 0 0.45045 -0.865663 0.161299 
53 1.96945 0.837126 2.09145 0.454927 0 0 0 0.523578 -1.05335 0.546289 
484 1.5969 0.907441 2.2591 0.443747 0 0 0 0.520697 -1.21087 0.880227 
384 3.3199 -0.642178 2.68997 1.13434 0 0 0 0.468073 -0.689851 0.14953 
79 1.68551 1.09273 1.92022 0.36669 0 0 0 0.137733 -0.882993 -0.419454 
492 1.57913 1.14675 1.92413 0.353494 0 0 0 0.285137 -0.823815 -0.0687022 
102 1.57313 0.883413 2.31387 0.456289 0 0 0 0.432746 -1.15589 0.886085 
353 2.07856 1.26353 2.64019 0.588623 0 0 0 -0.784923 0.435466 -1.26507 
462 2.05822 1.16867 1.5 0.374842 0 0 0 -1.12477 -0.441473 -0.00751377 
366 3.1868 0.394559 3.69955 1.11941 0 0 0 0.427852 -0.058964 0.661258 
89 1.72107 0.84336 2.90213 0.612808 0 0 0 0.333686 0.563402 0.677287 
368 3.28497 -0.261776 3.55747 1.21015 0 0 0 0.427469 -0.424276 0.520479 
369 3.64678 0.246239 3.45704 1.1909 0 0 0 0.608269 -0.163268 0.482319 
378 2.68147 0.577428 2.86987 0.757391 0 0 0 0.589612 0.356554 0.599841 
389 2.14752 0.922803 3.36328 0.790332 0 0 0 0.301167 0.63993 0.697749 
95 1.59937 0.244862 3.84569 0.991725 0 0 0 0.0259964 -0.174655 0.844424 
373 1.65834 -0.0884582 2.8068 0.767133 0 0 0 -0.127102 -0.983987 -0.023897 
390 2.59699 1.19522 3.71533 0.975796 0 0 0 0.204648 0.334115 0.633326 
86 1.82023 1.15322 3.19896 0.70523 0 0 0 0.238573 0.99938 0.374346 
376 2.3167 1.03751 3.19032 0.758193 0 0 0 0.302538 0.831223 0.474054 
391 3.65086 0.0254036 3.455 1.22491 0 0 0 0.591522 -0.276209 0.462935 
236 1.54662 0.573471 2.76919 0.603728 0 0 0 0.00797617 -0.614123 0.469213 
379 2.2848 0.0643903 2.74732 0.757383 0 0 0 0.197682 -0.711354 0.263044 
392 3.16307 0.164082 2.91473 0.933108 0 0 0 0.561883 -0.181144 0.368102 
381 3.3365 -0.184164 3.45156 1.17626 0 0 0 0.468463 -0.38844 0.486803 
115 1.62185 0.856727 2.99927 0.635537 0 0 0 0.269738 0.566765 0.738452 
386 3.19116 1.2429 3.66153 1.08251 0 0 0 0.343944 0.202032 0.542286 
97 1.83971 0.614676 2.73122 0.599048 0 0 0 0.341754 -0.192303 0.59066 
385 2.36353 -0.0875416 3.34842 0.945012 0 0 0 0.184312 -0.438183 0.551908 
413 2.04561 3.55204 0.256291 0.937593 0 0 0 0.016785 0.826882 0.106746 
396 3.29248 3.22369 0.0353794 1.0748 0 0 0 0.396758 0.490323 -0.151134 
417 1.86394 3.11945 -0.421519 0.938947 0 0 0 0.0259736 0.635528 -0.497431 
398 3.25696 2.67494 0.143852 0.921571 0 0 0 0.465731 0.363354 -0.0248092 
418 3.60253 2.06813 -0.0315387 0.979934 0 0 0 0.668186 0.103283 -0.26778 
400 3.51106 2.53616 -0.0693582 1.01263 0 0 0 0.566672 0.207829 -0.26132 
420 1.73365 2.37769 -0.458364 0.802558 0 0 0 0.01738 0.149967 -0.821981 
414 2.02101 2.40556 -0.00567388 0.688315 0 0 0 0.194033 0.7476 -0.386232 
416 2.84934 3.42506 -0.15161 1.0695 0 0 0 0.207372 0.613227 -0.26157 
404 3.3127 3.00276 -0.201168 1.07257 0 0 0 0.42478 0.366713 -0.332241 
415 3.39604 3.43407 0.0890911 1.15433 0 0 0 0.404617 0.538802 -0.151416 
322 1.89506 1.81396 -0.137581 0.663462 0 0 0 -0.322306 -0.680447 -0.736578 
407 3.49973 1.68272 -0.386591 1.01346 0 0 0 0.577609 0.0301407 -0.502841 
408 2.0203 1.93863 -0.607182 0.832005 0 0 0 -0.0249657 -0.176079 -0.869671 
202 2.56613 1.60662 0.174904 0.644143 0 0 0 0.242798 -0.252911 -0.7042 
410 3.59069 2.9862 -0.00985124 1.11004 0 0 0 0.546401 0.338197 -0.221806 
411 1.93646 3.67859 -0.355091 1.08848 0 0 0 -0.0202915 0.765225 -0.418137 
289 2.40056 1.93837 0.244712 0.614263 0 0 0 0.514112 0.450141 -0.390129 
262 1.74618 2.15121 0.279796 0.555167 0 0 0 0.0127306 0.577652 -0.81052 
12 2.05403 1.71887 0.758042 0.438055 0 0 0 1.01312 -0.0352871 -1.31533 
419 2.13204 2.72408 0.899583 0.661815 0 0 0 -0.342896 -0.253303 0.907368 
406 2.42478 3.61753 0.659941 0.970486 0 0 0 -0.0178966 0.63341 0.325806 
5 1.83387 1.60258 1.06898 0.350519 0 0 0 0.518164 -0.0048269 -0.439374 
282 2.10938 1.7138 0.725204 0.451016 0 0 0 1.02961 -0.00762121 -1.22509 
332 2.94217 1.87249 1.48281 0.658018 0 0 0 -1.34659 0.0500619 0.27234 
273 1.97812 2.02246 0.498346 0.505726 0 0 0 0.41818 0.715727 -0.889725 
465 1.55317 1.80293 1.02062 0.352751 0 0 0 0.423503 0.413155 0.116547 
473 2.46735 1.59649 0.666433 0.518461 0 0 0 0.967279 0.00927416 -0.462019 
431 2.32608 2.05447 0.51998 0.560178 0 0 0 0.724066 0.993822 0.163088 
14 1.55419 1.93329 0.828388 0.405066 0 0 0 0.0452475 0.830712 -0.972315 
292 1.85024 1.93215 0.623202 0.458611 0 0 0 0.520234 0.633278 -1.45572 
434 2.75645 2.12254 0.776658 0.640351 0 0 0 0.275938 0.828477 0.976971 
435 2.27548 2.78876 1.36395 0.724155 0 0 0 -1.28371 -1.59755 0.035315 
449 1.78492 1.65285 1.04032 0.351593 0 0 0 0.620015 0.09669 -0.444145 
397 2.83484 3.18348 0.751309 0.894631 0 0 0 -0.0118907 0.462727 0.500417 
503 1.69433 1.53292 1.28278 0.296976 0 0 0 0.0869788 0.668206 -1.17535 
439 2.23607 1.68881 0.721616 0.470071 0 0 0 0.997449 -0.149412 -1.01177 
440 3.40613 2.58476 1.18372 0.890002 0 0 0 0.0148097 0.225989 0.341526 
321 3.75635 1.95027 1.30417 0.908666 0 0 0 0.522744 0.204469 0.235073 
442 2.01407 1.55506 0.987741 0.389568 0 0 0 0.846763 -0.376289 -0.680724 
280 3.36552 1.9208 0.844518 0.776135 0 0 0 0.563166 0.495317 0.460947 
409 2.06937 2.09248 1.00963 0.487087 0 0 0 -3.00231 -4.83835 -2.50917 
132 1.60202 2.67401 1.23181 0.597757 0 0 0 -0.896817 -2.87809 -0.340853 
412 3.37692 2.95078 0.915983 0.958067 0 0 0 0.185447 0.354268 0.329061 
467 2.39566 1.7078 0.607563 0.518876 0 0 0 0.911677 0.184906 -0.454107 
475 1.63586 1.75674 1.01821 0.351081 0 0 0 0.57186 0.320008 -0.170106 
297 1.88583 2.11885 0.468268 0.516636 0 0 0 0.269586 0.900465 -0.810927 
258 1.88163 2.07849 0.490085 0.505802 0 0 0 0.292683 0.819127 -0.959291 
21 1.95024 1.79309 0.736991 0.433785 0 0 0 0.834951 0.192503 -1.45171 
155 1.57048 2.57304 1.0308 0.556278 0 0 0 -0.930772 -1.9738 -0.346286 
152 1.64318 3.26844 0.896396 0.775455 0 0 0 0.145047 0.320246 0.577044 
330 3.25835 2.11222 1.26292 0.765142 0 0 0 -0.227396 0.34655 0.517378 
50 2.10971 2.0188 0.461296 0.528912 0 0 0 0.523303 0.760772 -0.524119 
11 1.827 1.65768 0.99859 0.364157 0 0 0 0.72601 0.0561317 -0.479223 
221 3.06292 2.07823 0.893008 0.704358 0 0 0 0.191719 0.675887 0.805535 
74 3.04859 1.89688 0.613139 0.697119 0 0 0 0.733937 0.698611 0.481371 
446 2.36993 1.57697 0.416038 0.551072 0 0 0 0.338374 -0.381235 -0.777634 
395 2.2081 3.17316 0.332807 0.823203 0 0 0 0.0906753 0.789281 0.380112 
259 2.6154 1.55377 0.447523 0.589887 0 0 0 0.6151 -0.134976 -0.484159 
421 3.45212 3.42163 0.54613 1.11866 0 0 0 0.356765 0.514225 0.0955139 
454 1.56662 1.58654 1.31649 0.280871 0 0 0 0.559354 0.530538 -1.0282 
46 1.85723 1.59487 1.06018 0.35494 0 0 0 0.539052 -0.0521505 -0.419193 
342 1.94864 1.51663 1.09143 0.362944 0 0 0 0.365553 -0.248037 -0.311643 
468 1.84502 1.61503 1.04262 0.3569 0 0 0 0.605014 -0.0199396 -0.435514 
3 1.71464 1.71188 1.01633 0.352866 0 0 0 0.641805 0.223061 -0.361641 
305 1.96778 2.68476 0.388915 0.661758 0 0 0 0.243343 1.2175 0.507539 
197 2.25482 2.31209 0.348901 0.622001 0 0 0 0.537129 1.21491 0.278943 
405 2.37908 2.74231 0.381573 0.727045 0 0 0 0.265651 0.922382 0.602311 
401 2.75365 3.61332 0.332402 1.03903 0 0 0 0.115525 0.715405 0.107314 
13 1.55311 1.67704 1.20138 0.307975 0 0 0 0.785399 0.49162 -0.794562 
387 2.4319 1.68887 2.1791 0.610121 0 0 0 -3.33258 -1.77725 -2.9575 
482 2.51488 2.75822 2.0488 0.826885 0 0 0 -1.56775 -1.33389 -0.98878 
463 2.97196 2.60117 1.62743 0.818332 0 0 0 -1.07678 -0.446853 -0.0860636 
394 2.64218 1.6578 2.44453 0.69117 0 0 0 -1.51706 -0.0734144 -1.27246 
319 3.26548 1.82336 1.59356 0.744788 0 0 0 -0.412105 0.388315 0.342378 
500 3.11263 2.32838 2.11933 0.848983 0 0 0 -0.956553 -0.383037 -0.424587 
487 2.72996 2.14152 2.33656 0.768564 0 0 0 -1.73824 -0.883133 -1.23837 
502 2.94167 3.12339 2.45848 1.05466 0 0 0 -0.570328 -0.288439 -0.388157 
499 3.04773 2.90835 2.59199 1.0427 0 0 0 -0.532292 -0.292073 -0.370326 
429 3.27854 2.24372 1.5145 0.807218 0 0 0 -0.495918 0.0821244 0.239961 
504 1.83958 1.98451 2.30362 0.597561 0 0 0 -3.80737 -5.34042 -5.67636 
383 3.18367 1.5004 2.61693 0.827667 0 0 0 -0.0343865 0.389496 0.0164109 
99 1.58531 1.59037 3.49474 0.813437 0 0 0 0.149989 0.619344 0.283839 
382 2.94579 1.66321 3.32611 0.956235 0 0 0 0.0216827 0.231207 0.173935 
374 2.17945 1.70019 3.15937 0.782232 0 0 0 -0.408975 0.359913 -0.575188 
367 2.15103 1.73257 3.16272 0.78398 0 0 0 -0.427399 0.315481 -0.617718 
512 1.68195 3.18105 2.91328 0.986987 0 0 0 -0.18181 -0.379603 -0.491415 
498 3.03601 3.15207 3.07829 1.20085 0 0 0 -0.264341 -0.140545 -0.15473 
508 2.36176 2.26392 2.93277 0.848654 0 0 0 -1.0014 -0.572083 -1.04113 
488 2.76679 3.03525 3.02365 1.10813 0 0 0 -0.447057 -0.24193 -0.294051 
100 1.61345 1.74365 3.65537 0.886141 0 0 0 0.0867503 0.432665 0.364275 
245 1.53524 1.87342 3.55191 0.862726 0 0 0 0.113813 0.40596 0.174805 
ITEM: TIMESTEP
740916
ITEM: NUMBER OF ATOMS
512
ITEM: BOX BOUNDS ss ss ss
-8.1988304040437454e-01 3.8875120101141034e+00
-9.7693552394909078e-01 3.9476017366228966e+00
-9.1281994132074906e-01 3.9096273972560476e+00
ITEM: ATOMS id x y z width_SPH x_COM y_COM z_COM vx vy vz 
263 1.46291 0.88658 -0.255338 0.797053 0 0 0 -0.184389 0.0652855 0.617658 
403 1.47176 1.28214 -0.572765 0.836228 0 0 0 -0.296153 -0.417889 -0.28161 
25 0.482324 0.121031 0.00277372 1.02263 0 0 0 0.431058 0.529144 0.569939 
279 1.31897 1.03444 -0.485 0.850874 0 0 0 -0.189056 -0.165797 0.106884 
402 1.48864 1.3275 -0.648026 0.85646 0 0 0 -0.281501 -0.409925 -0.421823 
16 0.283968 0.665582 0.148017 0.902204 0 0 0 0.586588 0.592039 0.780368 
8 0.548848 0.851564 0.116518 0.82573 0 0 0 0.734484 0.682659 1.1515 
131 1.20621 1.40829 0.66605 0.517601 0 0 0 4.80163 6.68574 7.38489 
217 -0.458206 1.32447 1.07566 0.827558 0 0 0 -0.140219 -0.412277 -0.139896 
2 -0.191094 0.578916 0.378225 0.976755 0 0 0 0.269469 0.355317 0.381147 
24 0.947311 0.538069 0.655904 0.732034 0 0 0 1.69002 2.78527 2.58767 
129 -0.0272403 1.21936 0.471866 0.809151 0 0 0 0.46496 -0.111322 0.504364 
224 -0.038176 1.2323 1.09789 0.718726 0 0 0 1.00091 -0.077747 0.267228 
78 0.717482 0.416278 1.446 0.684307 0 0 0 2.08605 2.94744 0.725858 
67 0.0566782 0.170705 1.35969 0.867433 0 0 0 0.646859 0.692236 0.00585091 
22 1.10961 0.782252 0.476532 0.68989 0 0 0 1.54617 2.71448 3.19767 
125 0.0919205 1.14992 0.334147 0.817637 0 0 0 0.529031 0.0432027 0.639737 
10 0.36273 0.340205 0.337053 0.920792 0 0 0 0.743251 0.865784 0.897119 
68 -0.629256 1.10997 1.49534 0.8723 0 0 0 -0.401487 -0.268309 -0.303187 
116 -0.467661 -0.224836 2.43602 1.06883 0 0 0 -0.510451 -0.413942 -0.058184 
39 1.33122 1.26246 1.96203 0.349427 0 0 0 -0.248264 -0.392885 0.561965 
57 -0.136591 -0.184234 1.60661 0.978298 0 0 0 0.0863033 0.0850672 -0.196876 
111 1.47858 0.661605 1.94948 0.479309 0 0 0 3.06059 4.58003 2.61086 
59 0.836234 1.31492 2.27397 0.459128 0 0 0 -1.05528 -0.0553258 0.985087 
183 0.484316 1.33661 2.61271 0.586944 0 0 0 -0.675433 -0.0650041 0.479691 
80 1.06797 1.32418 2.08947 0.394889 0 0 0 -0.907375 0.0277651 0.821317 
103 -0.666448 -0.192848 2.21681 1.11079 0 0 0 -0.541722 -0.319408 -0.0821366 
63 -0.481045 0.335769 1.67077 0.939105 0 0 0 -0.201767 0.02694 -0.27424 
64 0.69227 1.251 1.9554 0.468142 0 0 0 1.81275 3.52164 2.44696 
65 1.41229 1.12562 2.09167 0.384752 0 0 0 0.113528 -1.07854 0.468897 
66 0.536322 -0.153298 1.5622 0.845279 0 0 0 0.649442 0.683619 -0.164174 
27 1.41507 1.3286 1.80372 0.309627 0 0 0 -0.411607 -0.393796 1.39379 
343 1.489 1.48457 1.52633 0.252367 0 0 0 0.0620369 0.0890579 -0.0237428 
69 0.578511 1.29327 2.42893 0.533073 0 0 0 -0.970013 -0.283498 0.40419 
82 0.155997 0.760118 1.618 0.699975 0 0 0 1.16228 0.799987 -0.325281 
71 0.319323 -0.0268617 1.59758 0.843494 0 0 0 0.618226 0.613297 -0.223027 
509 1.47935 1.4766 1.54574 0.254225 0 0 0 0.182448 0.0866854 -0.118275 
226 0.739722 1.28996 2.43124 0.504119 0 0 0 -0.860291 -0.17497 0.697985 
511 1.41956 1.17052 2.0196 0.366043 0 0 0 0.0941728 -0.908786 0.297219 
118 0.968938 0.167094 2.50852 0.690236 0 0 0 -0.380098 -0.897095 -0.669406 
26 1.04233 1.47276 1.91231 0.366375 0 0 0 -0.425681 0.305267 0.348088 
77 0.568464 0.474337 2.28658 0.658594 0 0 0 -0.193269 -0.487503 -0.883511 
92 0.627969 -0.707374 2.33072 0.9835 0 0 0 -0.0562688 -0.633962 -0.231832 
107 0.249774 0.442636 2.19694 0.72425 0 0 0 -0.088471 -0.275267 -0.803411 
122 1.04947 0.384897 2.37967 0.613127 0 0 0 -0.286996 -0.858502 -0.736345 
94 1.18309 0.612664 2.42577 0.545583 0 0 0 -0.173004 -1.01252 -0.015778 
247 0.952666 1.10213 2.48174 0.497487 0 0 0 -0.61195 -0.522923 0.847361 
73 1.44161 0.79443 2.54928 0.516406 0 0 0 0.0603826 -0.778587 0.685136 
87 0.756025 0.283346 2.07373 0.669735 0 0 0 0.352338 0.328731 -0.886048 
84 -0.667106 1.05545 2.40896 0.902828 0 0 0 -0.847655 -0.267152 -0.180989 
507 1.18214 1.13119 2.2489 0.42577 0 0 0 -0.485949 -0.575613 1.24124 
169 1.39493 0.991796 2.28373 0.436527 0 0 0 0.174964 -1.07739 1.11086 
85 0.770573 -0.606565 1.99598 0.927263 0 0 0 0.0904881 -0.341427 -0.356415 
371 1.36018 0.868787 2.51445 0.500148 0 0 0 -0.0253782 -0.820983 0.80616 
448 0.609037 1.28909 1.89856 0.483823 0 0 0 1.71746 3.16726 1.99172 
328 0.99311 0.774309 2.21876 0.511073 0 0 0 0.604106 0.591809 0.631528 
112 0.973453 1.266 2.22439 0.43346 0 0 0 -0.947439 -0.0536084 1.19688 
40 0.542468 1.29074 2.42961 0.54092 0 0 0 -0.994494 -0.331624 0.32252 
496 1.48485 1.48105 1.5348 0.253068 0 0 0 0.11966 0.0927359 -0.0759716 
42 1.22246 1.29781 2.00116 0.362851 0 0 0 -0.557167 -0.188758 0.501191 
237 1.1156 1.25582 2.14125 0.402223 0 0 0 -0.810546 -0.184001 0.983525 
494 1.38749 1.19011 2.0175 0.364348 0 0 0 -0.0150369 -0.801278 0.357322 
181 0.3165 1.14153 2.56082 0.627437 0 0 0 -0.957838 -0.732077 -0.0855013 
81 -0.121095 -0.621644 2.09638 1.08734 0 0 0 -0.196995 -0.422687 -0.131277 
83 1.18469 -0.506686 2.52988 0.870696 0 0 0 -0.142377 -0.821282 -0.309913 
232 0.998006 1.0124 2.54917 0.515985 0 0 0 -0.467539 -0.616711 0.771097 
93 -0.508153 0.844908 2.0297 0.851664 0 0 0 -0.540515 -0.298775 -0.444175 
61 1.51203 0.35993 1.94817 0.566531 0 0 0 0.589543 1.39728 -0.113166 
349 1.50386 -0.381649 1.57127 0.808644 0 0 0 -0.129201 0.23402 -0.291418 
253 1.16405 1.08585 2.3957 0.46085 0 0 0 -0.611577 -0.907029 0.937593 
193 -0.72753 1.42163 1.55279 0.877436 0 0 0 -0.696331 -0.372886 -0.303489 
506 1.46209 1.27674 1.83872 0.320018 0 0 0 -0.221702 -0.637777 0.942514 
44 -0.248206 1.37175 1.89731 0.712934 0 0 0 -0.599108 -0.717589 -0.65202 
32 1.23784 1.37168 1.88979 0.337 0 0 0 -0.418057 -0.010348 0.780376 
493 1.20601 1.42553 1.84334 0.331298 0 0 0 -0.251629 0.0107335 0.83367 
9 1.40198 1.32545 1.82113 0.313667 0 0 0 -0.524661 -0.595542 1.18547 
218 1.31592 1.40023 1.78918 0.309643 0 0 0 -0.538578 -0.471006 1.28618 
200 -0.243771 1.45154 1.90837 0.706231 0 0 0 -0.689955 -0.735863 -0.614245 
486 1.31685 1.26323 1.982 0.354057 0 0 0 0.424282 0.777497 1.34935 
98 0.19204 0.505967 2.67417 0.762683 0 0 0 -0.547792 -0.679278 -0.319406 
113 1.36474 -0.767757 2.84603 0.993319 0 0 0 -0.051916 -0.877642 0.0551738 
114 -0.66282 0.667392 3.0988 1.0467 0 0 0 -0.730331 -0.208073 0.292161 
108 0.827865 -0.375048 3.19939 0.96703 0 0 0 -0.179659 -0.683321 0.269362 
163 0.568718 0.925249 2.79803 0.645968 0 0 0 -0.628995 -0.71473 0.30338 
60 0.82446 1.36372 3.15258 0.691634 0 0 0 0.333315 0.629425 0.835943 
117 0.983523 0.117896 3.70191 0.97882 0 0 0 -0.129099 -0.308782 0.71855 
51 0.407864 1.42257 2.78812 0.642072 0 0 0 -0.346593 0.249815 0.656788 
88 1.42973 0.53892 3.62921 0.869878 0 0 0 0.00638188 0.0152759 0.894942 
109 -0.521009 -0.195166 3.25587 1.19582 0 0 0 -0.575236 -0.438261 0.393264 
90 -0.819596 0.596005 2.78624 1.05283 0 0 0 -0.798708 -0.216512 0.112031 
91 0.794654 1.1685 3.90934 0.962244 0 0 0 -0.00640092 0.133375 0.951547 
227 1.33614 1.35544 2.76354 0.562284 0 0 0 -0.0936828 0.239774 -0.637916 
438 0.692845 1.45414 3.02108 0.665649 0 0 0 0.310307 0.681414 0.831904 
119 0.719812 0.0526575 3.43824 0.932511 0 0 0 -0.230065 -0.438123 0.51197 
430 1.20336 0.667929 2.80486 0.606695 0 0 0 -0.284892 -0.688803 0.484964 
96 1.21336 -0.443187 3.49594 1.03711 0 0 0 -0.0580952 -0.627555 0.498006 
121 -0.478882 0.852545 3.15732 0.981833 0 0 0 -0.686118 -0.196811 0.337561 
110 0.000526977 -0.178569 2.91004 0.989033 0 0 0 -0.415648 -0.545739 0.0950875 
120 -0.757149 1.33216 2.86286 0.982958 0 0 0 -0.855537 -0.0638529 0.192641 
104 0.101178 -0.598306 3.21263 1.14764 0 0 0 -0.345982 -0.642432 0.341685 
101 0.537344 0.503476 3.11842 0.786338 0 0 0 -0.405484 -0.525517 0.336945 
238 1.23272 1.23413 2.83499 0.574663 0 0 0 0.182205 0.586769 0.304312 
123 -0.316985 2.86792 -0.691703 1.18977 0 0 0 -0.540341 0.329791 -0.659819 
159 0.39783 3.05213 -0.625385 1.0548 0 0 0 -0.285722 0.503079 -0.690779 
142 1.18785 3.80509 -0.0596174 1.05791 0 0 0 -0.106358 0.892011 -0.316699 
126 -0.541273 3.21741 0.18441 1.10843 0 0 0 -0.644973 0.55174 -0.319695 
127 0.805511 2.06303 -0.832084 0.949854 0 0 0 -0.270559 -0.262301 -0.88619 
158 0.896475 2.14782 -0.502459 0.825352 0 0 0 -0.34375 -0.410896 -0.874065 
143 -0.162423 2.51389 -0.788987 1.13562 0 0 0 -0.507475 0.116801 -0.735185 
149 1.11663 2.1868 -0.912535 0.958568 0 0 0 -0.152834 -0.115959 -0.939882 
151 1.36321 3.36621 0.288898 0.844523 0 0 0 0.0302173 0.959213 0.0450251 
274 1.33477 2.01645 -0.0268059 0.63667 0 0 0 -0.366982 -0.74373 -0.663863 
157 0.0134429 1.643 0.128941 0.821069 0 0 0 -0.21112 -0.66684 -0.103399 
156 -0.609026 1.93331 -0.650125 1.19061 0 0 0 -0.599149 -0.0660173 -0.549859 
130 0.986173 2.15088 0.267693 0.593014 0 0 0 -0.524951 -0.340147 -0.635024 
148 0.698616 1.49458 -0.23256 0.791591 0 0 0 -0.0750327 -0.610815 0.0774211 
137 -0.708159 2.86987 0.2464 1.07807 0 0 0 -0.787219 0.323149 -0.310878 
138 0.424976 2.62752 -0.593779 0.963031 0 0 0 -0.356599 0.182123 -0.803843 
141 0.16003 1.997 -0.415257 0.914397 0 0 0 -0.47656 -0.434294 -0.672654 
140 0.86215 2.60215 -0.809083 0.979757 0 0 0 -0.192273 0.196976 -0.875614 
443 1.31898 2.0852 0.116078 0.599076 0 0 0 -0.363286 -0.428194 -0.737817 
444 1.48154 2.23981 0.0627847 0.620901 0 0 0 -0.259591 0.134133 -0.787061 
136 1.03226 1.8917 0.22151 0.59717 0 0 0 -0.148998 -0.793363 0.0687457 
268 1.46276 2.00807 0.113334 0.58976 0 0 0 -0.280091 -0.513179 -0.711791 
146 0.824175 2.05114 0.253742 0.615593 0 0 0 -0.451188 -0.790421 -0.379386 
180 0.816323 2.50705 0.789623 0.565313 0 0 0 -0.422015 1.2314 -0.299281 
190 0.821831 3.2916 1.17401 0.773673 0 0 0 0.338233 0.751387 0.36714 
178 -0.546734 3.08541 1.13917 0.974059 0 0 0 -0.646021 0.58169 -0.0204855 
220 0.899076 2.23258 1.45456 0.460908 0 0 0 -1.92836 -2.57303 -1.96283 
189 1.01701 2.26104 0.814597 0.487551 0 0 0 -0.947611 1.11264 -0.606377 
165 1.04879 2.30438 0.745467 0.502534 0 0 0 -0.824615 1.15657 -0.661806 
128 1.38577 3.34334 1.25181 0.793523 0 0 0 0.238316 -0.0104503 0.379259 
185 0.700687 3.36967 1.30718 0.807797 0 0 0 0.30645 0.749869 0.31738 
168 0.779367 2.05425 1.00595 0.471616 0 0 0 -0.205777 1.53645 0.70645 
186 -0.767696 1.72337 0.481582 0.983529 0 0 0 -0.740645 -0.285027 -0.21163 
170 0.556742 2.28227 0.547181 0.609205 0 0 0 -0.639433 -0.127201 -0.555094 
171 0.284591 3.56152 0.91582 0.929536 0 0 0 -0.124101 0.922008 0.0251808 
175 -0.67399 2.64647 1.34235 0.922314 0 0 0 -0.838158 0.285619 -0.0589389 
124 0.946515 2.13445 1.0301 0.448059 0 0 0 -1.03367 1.02045 -0.156158 
187 -0.341973 2.06188 0.381158 0.853131 0 0 0 -0.732648 -0.502037 -0.361222 
134 1.44029 2.99975 0.71526 0.686525 0 0 0 0.237593 0.772257 0.575622 
198 1.10454 2.48526 1.32488 0.519693 0 0 0 -1.07317 -2.52528 -1.23752 
426 1.5256 1.8097 1.03415 0.350828 0 0 0 0.37437 0.399498 0.236587 
147 1.22188 1.9207 1.15987 0.365564 0 0 0 -0.682015 -0.613174 0.427222 
133 1.04449 2.31189 0.324243 0.588102 0 0 0 -0.518653 0.365577 -0.734275 
188 0.398831 2.22613 0.46743 0.652192 0 0 0 -0.60891 -0.528053 -0.525443 
20 1.40121 1.64926 1.36986 0.284343 0 0 0 1.58822 -0.491032 -0.21035 
216 -0.0737796 2.3515 1.33666 0.682757 0 0 0 -0.676874 0.162982 -0.232998 
206 -0.717438 1.91108 1.19378 0.879572 0 0 0 -0.880922 -0.367043 -0.250322 
154 -0.280089 3.2078 0.526566 0.978399 0 0 0 -0.533196 0.672508 -0.188908 
144 1.30247 2.01087 0.912942 0.407617 0 0 0 -0.672889 1.05419 -0.23846 
423 1.18173 2.03443 0.97732 0.41124 0 0 0 -0.851409 1.06111 0.0834188 
135 -0.226254 3.12139 0.410252 0.95821 0 0 0 -0.535665 0.632113 -0.247135 
192 0.529694 2.18854 0.465836 0.623394 0 0 0 -0.589986 -0.541633 -0.501824 
194 0.171579 2.21543 0.651669 0.67049 0 0 0 -0.63611 -0.568295 -0.480122 
196 0.99008 2.89059 1.10309 0.640601 0 0 0 0.388186 0.633295 0.419029 
203 0.532326 2.55462 0.541051 0.655194 0 0 0 -0.4611 0.623896 -0.448616 
150 1.41058 1.88555 0.988758 0.370978 0 0 0 2.87309 5.46429 3.79146 
214 -0.071103 1.80496 0.79184 0.711168 0 0 0 -0.190272 -1.00773 -0.172933 
425 1.42104 1.95118 0.905405 0.39439 0 0 0 -0.268489 0.944345 -0.302324 
48 0.228423 2.29403 0.623422 0.66739 0 0 0 -0.652853 -0.340619 -0.509609 
162 1.52738 1.51565 1.44983 0.254791 0 0 0 -0.400387 0.113584 0.320314 
177 0.870215 1.99607 1.31465 0.416626 0 0 0 -0.42811 0.917057 0.359015 
139 0.901011 3.94732 0.7486 1.02061 0 0 0 -0.0239468 0.908769 -0.0296477 
461 1.38949 1.75363 1.23162 0.316837 0 0 0 0.788811 0.0388955 0.353488 
210 0.261611 2.17599 0.847565 0.615999 0 0 0 -0.594619 -0.510701 -0.434906 
480 1.02343 2.02373 1.13293 0.409869 0 0 0 -0.664104 0.947514 0.473126 
28 1.05077 1.83854 1.404 0.360318 0 0 0 0.74535 0.122644 0.746414 
489 0.558853 2.27473 1.21427 0.519893 0 0 0 -0.640064 0.853586 -0.177993 
4 1.22245 1.72084 1.42292 0.315214 0 0 0 1.31358 -0.3336 0.539103 
19 1.14084 2.47426 0.428793 0.585359 0 0 0 -0.345439 1.10183 -0.529083 
336 0.479586 2.37429 1.18931 0.555286 0 0 0 -0.45196 0.940812 -0.147878 
469 1.0405 2.01731 1.12836 0.406968 0 0 0 -0.641657 0.936131 0.520229 
308 0.417194 2.38389 1.20765 0.568907 0 0 0 -0.42203 0.883003 -0.1444 
15 1.22459 1.8628 1.21613 0.350381 0 0 0 0.32991 0.10945 1.24221 
424 1.33272 2.62684 0.397188 0.618369 0 0 0 -0.0725416 1.29741 -0.162113 
7 1.37249 2.12815 0.709265 0.45716 0 0 0 -0.584497 1.11293 -1.16702 
174 1.2968 1.80757 1.23498 0.332179 0 0 0 0.573443 -0.124945 0.946468 
6 1.09486 1.81937 1.39359 0.350537 0 0 0 0.885966 -0.0217841 0.820468 
458 0.509352 2.15864 1.40969 0.50369 0 0 0 -0.692697 0.732846 -0.0556085 
433 1.53015 1.83936 0.985043 0.363364 0 0 0 0.317777 0.587872 0.0928023 
437 1.46749 2.04176 0.7487 0.434922 0 0 0 -0.336972 1.01708 -1.23236 
153 1.27973 1.81894 1.23333 0.335817 0 0 0 0.531827 -0.101183 1.03854 
286 1.4825 2.02989 0.753373 0.432211 0 0 0 -0.289558 0.996528 -1.23869 
195 0.960329 1.93965 1.32812 0.392723 0 0 0 -0.00419044 0.66969 0.653929 
399 1.51634 1.93623 0.866639 0.397932 0 0 0 -0.42964 0.219578 -1.13896 
354 0.503413 2.10105 1.49637 0.495893 0 0 0 -0.740984 0.714491 0.0203568 
372 1.50625 1.49957 1.49052 0.251512 0 0 0 -0.213066 0.0451144 0.264213 
164 0.232473 1.81996 1.47903 0.555412 0 0 0 -0.187083 -0.251053 -0.150822 
17 1.50459 1.49817 1.49392 0.251439 0 0 0 -0.18815 0.0475444 0.240327 
52 0.953888 1.86576 1.44846 0.38025 0 0 0 0.395511 0.462926 0.490539 
145 0.944092 3.68323 0.319779 0.962028 0 0 0 -0.0697352 0.94256 -0.136529 
256 0.558348 2.11604 1.73864 0.496382 0 0 0 -0.76014 0.519751 0.0906089 
495 1.0431 1.64388 1.68229 0.346147 0 0 0 0.726396 0.284271 0.134288 
248 0.86878 1.5629 1.93386 0.401683 0 0 0 -0.734098 0.724714 0.574563 
43 0.148919 2.3144 1.81884 0.623842 0 0 0 -0.186909 0.9066 0.491361 
76 0.906799 1.57911 1.88406 0.38908 0 0 0 -0.518036 0.646484 0.347139 
450 0.854477 1.64817 1.83468 0.397156 0 0 0 -0.471494 0.832862 0.328219 
166 1.19151 3.39112 1.71318 0.833435 0 0 0 0.311552 -0.187262 0.084804 
70 0.975129 2.32045 2.30291 0.608755 0 0 0 0.374673 -1.557 -1.46661 
199 -0.163991 2.48213 2.51655 0.815894 0 0 0 -0.221962 0.751757 0.499422 
223 -0.313712 3.51999 2.20263 1.0656 0 0 0 -0.342998 0.730768 0.185295 
201 -0.0323002 3.01379 1.68138 0.81564 0 0 0 -0.0812712 0.978492 0.267417 
243 0.900445 2.03172 2.39422 0.562179 0 0 0 0.102863 -1.11852 -1.3564 
191 0.402005 2.14628 2.61255 0.66771 0 0 0 0.5376 1.16211 0.686829 
204 0.494255 3.83159 2.13436 1.03917 0 0 0 0.0831362 0.663343 0.13375 
49 0.769418 1.87247 1.59107 0.417372 0 0 0 -0.387974 1.00495 0.294934 
160 0.914955 1.82328 1.54462 0.382719 0 0 0 0.276367 0.470642 0.187938 
207 0.786909 2.75747 2.50756 0.754782 0 0 0 0.726066 0.142271 -0.116918 
208 1.03098 2.39111 1.63946 0.518096 0 0 0 -1.29675 -4.15694 -2.32221 
209 0.529456 2.20089 1.58261 0.507847 0 0 0 -0.583141 0.778404 0.0883738 
447 0.197364 2.26425 2.14673 0.639121 0 0 0 0.0858117 1.11295 0.777288 
211 0.711173 3.69218 1.79547 0.943619 0 0 0 0.228622 0.561476 0.152196 
212 0.655031 3.2858 1.83326 0.81231 0 0 0 0.469034 0.508441 0.273231 
213 0.0678187 3.4769 2.25792 0.98074 0 0 0 -0.0320937 0.748339 0.22938 
490 1.46128 1.49805 1.53103 0.253855 0 0 0 1.29236 -0.711246 0.128629 
215 0.794994 3.88391 2.27497 1.06153 0 0 0 0.148998 0.502791 0.0716907 
184 1.5004 1.49456 1.50257 0.251402 0 0 0 -0.121585 0.0574029 0.171706 
55 0.266689 2.26505 1.5319 0.574508 0 0 0 -0.404414 0.671149 0.0856439 
505 0.361115 1.60465 2.26191 0.548761 0 0 0 -0.98371 0.180594 0.294856 
255 1.2108 2.61047 2.17651 0.66896 0 0 0 0.0489334 -2.31924 -1.5755 
479 0.0168446 2.36862 2.04038 0.686486 0 0 0 -0.169994 0.920346 0.583079 
173 -0.124531 1.91621 1.83532 0.659829 0 0 0 -0.837754 -0.402912 -0.215169 
318 0.349873 1.78873 2.07953 0.534862 0 0 0 -0.899028 0.413722 0.360444 
54 0.430619 1.94054 1.8001 0.50288 0 0 0 -0.875916 0.602252 0.284629 
34 0.259993 2.18276 1.85537 0.57733 0 0 0 -0.275829 0.845162 0.514617 
172 0.165965 2.12749 1.58858 0.582572 0 0 0 -0.604306 0.131428 -0.0735017 
229 1.0813 2.33348 2.53379 0.661707 0 0 0 0.497499 -1.05239 -1.406 
234 1.04409 1.64647 1.67795 0.345828 0 0 0 0.744847 0.277163 0.135833 
252 1.1575 1.61768 1.62227 0.318148 0 0 0 1.06402 -0.250369 0.524629 
235 1.04832 1.62 1.71022 0.345715 0 0 0 0.626016 0.289121 0.16239 
29 0.843074 1.72178 1.74557 0.396694 0 0 0 -0.258824 0.877881 0.216117 
513 0.660694 1.56778 2.09004 0.460313 0 0 0 -1.20282 0.513733 0.742829 
241 1.06009 1.60521 1.72045 0.343451 0 0 0 0.60064 0.255496 0.20715 
38 0.320517 1.7588 2.2745 0.566248 0 0 0 -0.693075 0.511566 0.471375 
35 0.252085 1.76159 2.40264 0.603926 0 0 0 -0.543922 0.556807 0.510709 
30 0.500209 1.66022 2.12088 0.499531 0 0 0 -1.10762 0.440831 0.4966 
239 -0.586852 2.64441 2.57886 0.974139 0 0 0 -0.577171 0.458323 0.298066 
233 0.904609 1.60662 1.8497 0.386761 0 0 0 -0.399273 0.669483 0.256688 
75 0.829566 1.66228 1.83747 0.403138 0 0 0 -0.564155 0.86756 0.365793 
219 1.50021 1.49439 1.50297 0.251406 0 0 0 -0.118406 0.0579613 0.168304 
167 1.5004 1.49455 1.50259 0.251402 0 0 0 -0.121446 0.0574271 0.171558 
466 1.5002 1.49437 1.503 0.251406 0 0 0 -0.118178 0.0580017 0.168059 
471 1.50021 1.49439 1.50297 0.251406 0 0 0 -0.11845 0.0579535 0.168351 
36 1.50028 1.49445 1.50282 0.251404 0 0 0 -0.119625 0.0577468 0.169609 
278 1.50195 1.4959 1.49935 0.251391 0 0 0 -0.146731 0.0532268 0.198273 
37 1.50089 1.49497 1.50157 0.251396 0 0 0 -0.129498 0.0561075 0.180042 
58 1.50159 1.49559 1.5001 0.251391 0 0 0 -0.140987 0.0542339 0.192132 
47 1.07812 1.7557 1.49969 0.343427 0 0 0 1.0204 -0.136281 0.347775 
477 1.50167 1.49566 1.49993 0.251391 0 0 0 -0.142207 0.0539445 0.193541 
355 1.50134 1.49537 1.50062 0.251392 0 0 0 -0.136817 0.0548198 0.187875 
334 1.50104 1.49511 1.50125 0.251394 0 0 0 -0.131914 0.0556342 0.182695 
476 1.50097 1.49505 1.50139 0.251395 0 0 0 -0.130842 0.0558146 0.181559 
179 1.50088 1.49498 1.50157 0.251396 0 0 0 -0.129435 0.0560524 0.180066 
222 1.50059 1.49472 1.50219 0.251399 0 0 0 -0.124596 0.0568802 0.174919 
302 1.50065 1.49478 1.50205 0.251398 0 0 0 -0.125683 0.0566929 0.176078 
176 1.50066 1.49478 1.50204 0.251398 0 0 0 -0.125743 0.0566825 0.176142 
225 0.92281 2.39725 3.41234 0.888288 0 0 0 0.373679 0.377026 0.311797 
106 0.302738 2.02714 3.35323 0.857241 0 0 0 0.120789 0.569726 0.780083 
249 -0.498562 2.47087 2.81672 0.959173 0 0 0 -0.536688 0.431533 0.39413 
228 -0.108658 3.23446 3.60257 1.22453 0 0 0 -0.281622 0.494543 0.579485 
254 -0.48612 2.76307 3.5122 1.1744 0 0 0 -0.471138 0.385434 0.584949 
230 0.506969 3.71141 2.9996 1.13779 0 0 0 0.0269057 0.555019 0.264733 
231 0.569903 2.2762 3.57918 0.935088 0 0 0 0.214651 0.457925 0.686149 
242 0.544177 2.40527 3.25163 0.856903 0 0 0 0.38856 0.605946 0.51685 
246 -0.356554 2.01124 3.52011 1.04153 0 0 0 -0.460421 0.227394 0.669545 
464 0.277933 1.66567 2.73315 0.660817 0 0 0 -0.253204 0.600734 0.67342 
205 0.789507 1.62298 3.04757 0.674938 0 0 0 0.5888 0.903116 0.639758 
251 0.368726 3.45847 3.03809 1.07462 0 0 0 0.0473298 0.574837 0.331766 
105 -0.172734 1.52945 3.72936 1.04181 0 0 0 -0.383879 0.0755031 0.777715 
250 0.796414 3.13054 3.39931 1.05192 0 0 0 0.168007 0.346709 0.318558 
244 1.25516 2.37352 3.45388 0.901675 0 0 0 0.225143 0.194206 0.0630336 
240 -0.316578 3.69299 3.4091 1.33894 0 0 0 -0.398566 0.574295 0.443191 
257 3.62637 1.21803 -0.27845 1.02737 0 0 0 0.662284 -0.0959406 -0.447612 
441 1.86625 1.15928 0.0293916 0.661003 0 0 0 -0.675379 -0.369665 0.601573 
288 3.67371 0.857921 0.0530712 0.991893 0 0 0 0.717085 -0.235559 -0.334333 
260 3.1323 0.827983 -0.609115 1.01911 0 0 0 0.333839 -0.274317 -0.675073 
261 3.52398 -0.100127 0.15468 1.093 0 0 0 0.502731 -0.634777 -0.330561 
276 2.55308 0.780196 -0.32085 0.838315 0 0 0 -0.251421 -0.566764 -0.547733 
427 2.22868 1.08023 0.208779 0.632712 0 0 0 -0.822422 -0.713988 -0.101783 
285 1.77615 0.218845 -0.0315092 0.864555 0 0 0 -0.185605 0.145298 0.517844 
436 2.35116 1.42219 -0.0512705 0.678328 0 0 0 -0.406552 -0.673966 -0.734143 
266 2.66025 0.93635 -0.843426 1.00718 0 0 0 0.0635736 -0.223774 -0.783954 
267 3.03037 0.608851 -0.0398101 0.865182 0 0 0 0.159059 -0.643758 -0.506134 
293 2.10191 1.07615 -0.870527 0.957155 0 0 0 -0.174106 -0.223629 -0.718728 
269 2.55512 0.949698 -0.706885 0.94309 0 0 0 -0.0495119 -0.288855 -0.743544 
270 2.46766 0.612222 -0.432212 0.891629 0 0 0 -0.223503 -0.523989 -0.496713 
271 3.2313 -0.579432 -0.176079 1.23192 0 0 0 0.360721 -0.692761 -0.376338 
272 1.6467 0.823017 0.128506 0.702437 0 0 0 -0.205677 0.701059 1.55326 
284 2.0421 0.324119 -0.432478 0.936211 0 0 0 -0.243777 -0.335191 -0.149026 
290 2.38962 -0.690838 -0.214173 1.17656 0 0 0 0.065287 -0.547445 -0.230052 
291 3.16122 0.334522 -0.492724 1.06555 0 0 0 0.325714 -0.499018 -0.575626 
294 3.06872 0.327582 0.68221 0.794009 0 0 0 0.101739 -0.942262 -0.433153 
23 1.96012 1.40534 1.23483 0.349079 0 0 0 -0.599612 -0.217085 0.0857771 
453 2.93383 0.913308 1.3622 0.602814 0 0 0 0.732839 -0.100572 0.132442 
18 1.90807 1.36094 1.34067 0.333035 0 0 0 -1.25072 0.0132463 0.295443 
298 2.04666 1.34271 1.25147 0.367169 0 0 0 -0.540427 -0.421562 0.078194 
299 2.91921 0.965584 1.15319 0.600934 0 0 0 0.695799 -0.294012 -0.119154 
451 2.12579 1.28904 1.26587 0.385298 0 0 0 -0.254692 -0.637323 -0.0746732 
301 3.70182 0.535435 1.4268 0.900412 0 0 0 0.879135 -0.217172 0.0445948 
264 2.45148 0.855529 0.620126 0.597322 0 0 0 -0.523678 -0.843215 -0.416912 
445 2.28053 1.21986 1.24788 0.423472 0 0 0 0.555505 -0.751905 -0.307334 
304 2.19733 1.11985 1.14349 0.431068 0 0 0 2.2765 2.78659 2.37211 
41 2.8642 0.991061 0.872282 0.609245 0 0 0 0.49311 -0.669908 -0.497243 
306 1.99419 1.20525 1.4957 0.358718 0 0 0 -1.55158 -0.175125 0.0556276 
307 2.07215 1.04501 1.19279 0.425479 0 0 0 3.78041 7.11403 5.71576 
277 2.64747 1.39933 0.721806 0.54876 0 0 0 0.848636 -0.164908 -0.410685 
309 3.42368 0.409366 1.28612 0.825455 0 0 0 0.70541 -0.5076 -0.108078 
310 2.04761 -0.00925852 1.06794 0.725922 0 0 0 -0.566268 0.412286 0.0784947 
311 2.88347 1.04322 0.925478 0.602776 0 0 0 0.627628 -0.456721 -0.367884 
341 2.75568 1.06758 0.733255 0.594095 0 0 0 0.363309 -0.793586 -0.668208 
432 2.74185 1.44695 0.883124 0.554671 0 0 0 0.863005 0.249306 0.0388725 
161 2.00056 1.43223 1.16426 0.363505 0 0 0 -0.0700207 -0.338575 -0.117113 
182 2.69528 1.32605 0.523279 0.596686 0 0 0 0.459714 -0.519107 -0.622908 
316 2.92723 -0.308187 0.756847 0.924411 0 0 0 0.0547656 -0.866026 -0.30717 
317 3.34937 0.0147926 0.768077 0.924398 0 0 0 0.394663 -0.767702 -0.282428 
275 3.4093 -0.820408 0.709982 1.195 0 0 0 0.430011 -0.788079 -0.184213 
33 2.65971 0.845094 1.48872 0.537872 0 0 0 0.73127 -0.584754 0.0576843 
320 1.86541 0.0375292 0.9319 0.734204 0 0 0 -0.348796 1.04578 0.599282 
72 2.19326 1.16818 1.39318 0.403132 0 0 0 -0.136039 -0.769909 -0.0247917 
265 1.93826 -0.369082 0.73291 0.882172 0 0 0 -0.204918 0.053297 0.157714 
501 2.42646 1.15684 1.21412 0.460777 0 0 0 0.925113 -0.612895 -0.326105 
56 2.5703 0.702989 0.532526 0.656288 0 0 0 -0.587875 -1.04466 -0.472246 
325 2.33716 1.10413 1.34222 0.440661 0 0 0 0.761411 -0.601259 0.030475 
287 2.41139 -0.366536 0.555639 0.915704 0 0 0 -0.190782 -0.55473 -0.138706 
327 3.3612 1.249 1.48977 0.729282 0 0 0 0.602863 0.610923 0.465243 
329 1.95981 0.208868 1.14449 0.655285 0 0 0 -0.514415 1.36134 0.567946 
428 2.78133 0.813916 1.48194 0.571736 0 0 0 0.696736 -0.434581 0.0856577 
31 2.45657 0.720509 0.487634 0.649595 0 0 0 -0.72915 -0.862215 -0.283685 
283 1.78568 0.844292 0.90295 0.529931 0 0 0 2.21476 7.11717 5.72931 
326 2.49871 1.10644 1.22629 0.479727 0 0 0 0.917739 -0.587084 -0.275454 
470 3.20794 1.21787 1.38465 0.675379 0 0 0 0.604933 0.650647 0.479885 
313 2.78304 0.837261 1.4233 0.569372 0 0 0 0.688847 -0.469767 0.0304945 
457 1.88294 1.3176 1.42382 0.328055 0 0 0 -1.57497 0.173399 0.325408 
455 2.09929 1.46729 1.04026 0.396738 0 0 0 0.737336 -0.566905 -0.644787 
422 2.35313 1.29626 1.0816 0.446573 0 0 0 1.03421 -0.563871 -0.623633 
456 2.55983 0.341732 1.38463 0.628053 0 0 0 -0.349837 -1.08266 -0.530452 
474 1.85407 1.41999 1.30336 0.322765 0 0 0 -0.756433 0.168743 0.00897407 
300 3.62897 -0.222318 1.47508 1.02441 0 0 0 0.628927 -0.628308 -0.0936819 
478 2.35708 1.45326 0.867205 0.466215 0 0 0 1.20526 -0.344446 -0.812696 
340 1.70263 1.43604 1.41147 0.286351 0 0 0 -0.968986 0.607169 -0.388318 
281 1.70783 0.00684275 0.314215 0.851725 0 0 0 -0.06867 0.525069 0.736439 
333 2.95213 0.625805 2.57619 0.753148 0 0 0 0.713173 0.398761 0.502296 
323 1.96023 1.06257 1.74773 0.38267 0 0 0 -0.574179 -0.518597 -0.5312 
335 2.66602 0.847277 2.44812 0.646094 0 0 0 0.592441 0.832716 0.530749 
491 1.78687 1.17973 1.7055 0.338068 0 0 0 -0.88022 0.102296 -0.515661 
337 2.05362 -0.945723 1.91696 0.993528 0 0 0 -0.0302123 -0.872252 -0.198428 
338 3.03182 0.240146 2.16305 0.772455 0 0 0 0.621382 -0.400489 0.185018 
339 1.79311 0.243023 1.69179 0.597997 0 0 0 -0.16228 1.31185 -0.0847203 
370 1.65925 -0.97665 2.59511 1.0346 0 0 0 -0.0037196 -0.913981 -0.00498615 
452 2.42607 0.244129 1.74988 0.624614 0 0 0 -0.262868 -1.04641 -0.489064 
295 2.09994 0.574213 2.39619 0.559711 0 0 0 0.422646 -0.554893 0.449783 
296 2.19624 1.05236 1.56909 0.416346 0 0 0 0.0525149 -0.767606 0.00167288 
344 2.37282 0.960801 1.94511 0.493171 0 0 0 0.0946457 -0.74795 -0.194995 
345 3.40708 1.06476 2.12278 0.795709 0 0 0 0.617712 0.513864 0.408946 
346 2.01393 0.960272 1.86444 0.415939 0 0 0 0.212509 -0.860773 0.00193609 
364 1.68475 1.12265 1.87405 0.355485 0 0 0 0.0337349 -0.642735 -0.441022 
348 3.88722 1.46542 2.1892 0.984174 0 0 0 0.623105 0.145071 0.18069 
331 2.11756 0.995946 1.72374 0.415842 0 0 0 0.0795322 -0.764391 -0.0601871 
350 2.36019 -0.0946042 1.6119 0.719204 0 0 0 -0.476415 -0.847108 -0.611083 
351 1.77258 1.2331 1.64011 0.323701 0 0 0 -1.06182 0.264898 -0.192514 
352 2.46185 0.668521 2.2626 0.582332 0 0 0 0.676364 0.0573097 0.582536 
363 2.55574 -0.637622 2.03573 0.923299 0 0 0 0.0626248 -0.993195 -0.189402 
45 1.68419 1.14928 1.83489 0.346042 0 0 0 -0.069252 -0.451471 -0.387374 
365 1.6938 0.2229 2.39009 0.619915 0 0 0 -0.246762 -1.20421 -0.522458 
356 3.26093 1.43479 2.49167 0.819986 0 0 0 0.0772097 0.442798 0.108641 
357 2.16286 1.0865 2.24832 0.502365 0 0 0 -1.19523 -1.26628 -1.34788 
358 2.14803 0.6664 2.60498 0.595298 0 0 0 0.560584 0.181464 0.638779 
359 3.56757 -0.600349 2.21029 1.1353 0 0 0 0.571195 -0.671621 0.0263276 
360 1.95003 0.186193 2.18312 0.617077 0 0 0 -0.299126 -1.06731 -0.548413 
361 2.06205 -0.717429 1.53364 0.916868 0 0 0 -0.165969 -0.667984 -0.288187 
362 2.41713 0.27435 1.96776 0.621371 0 0 0 -0.0196185 -1.05125 -0.266881 
460 1.97018 1.14592 1.60674 0.364135 0 0 0 -1.33179 -0.186294 -0.367997 
303 2.32215 1.05424 1.64055 0.44636 0 0 0 -0.243807 -1.64988 -0.782085 
393 1.97008 -0.328919 2.07153 0.770048 0 0 0 -0.341791 -0.895134 -0.523356 
324 2.45377 0.691629 1.9828 0.539929 0 0 0 0.658953 -0.447214 0.399822 
312 3.14154 1.31987 1.96638 0.699458 0 0 0 -0.0356444 0.799494 0.326162 
375 1.79871 0.918461 2.0944 0.426675 0 0 0 0.572441 -1.16248 0.509379 
459 2.65915 0.457159 1.80806 0.612564 0 0 0 0.369618 -0.819346 -0.0486704 
62 1.74291 1.05768 1.9291 0.377706 0 0 0 0.103541 -0.931034 -0.414948 
380 2.33975 0.664182 2.34272 0.573093 0 0 0 0.614347 -0.00926606 0.600942 
485 1.68786 1.16812 1.80446 0.339539 0 0 0 -0.171969 -0.322224 -0.330496 
510 2.07899 0.979136 1.78211 0.415852 0 0 0 0.124226 -0.791963 -0.055538 
497 1.81804 0.609484 2.48231 0.54285 0 0 0 0.301641 -0.77158 0.409424 
347 1.77136 -0.881261 1.97401 0.962733 0 0 0 -0.0895684 -0.786562 -0.247526 
377 3.60723 1.30346 2.56839 0.93368 0 0 0 0.514246 0.272029 0.238896 
314 2.7149 0.746781 1.7233 0.570735 0 0 0 0.739711 -0.292769 0.267013 
388 1.7547 1.18522 1.72428 0.334976 0 0 0 -0.686812 0.0363013 -0.441986 
315 2.63579 0.314009 1.72365 0.638918 0 0 0 0.0537973 -1.04207 -0.326294 
472 2.09293 0.87049 1.94172 0.448092 0 0 0 0.491699 -0.963473 0.346218 
483 1.82858 0.756597 2.34807 0.493683 0 0 0 0.439383 -0.869977 0.60712 
481 2.18419 0.922714 1.7832 0.441243 0 0 0 0.450445 -0.865674 0.161287 
53 1.96945 0.837125 2.09145 0.454927 0 0 0 0.523567 -1.05336 0.546277 
484 1.5969 0.90744 2.2591 0.443747 0 0 0 0.520679 -1.21087 0.880216 
384 3.3199 -0.642179 2.68997 1.13434 0 0 0 0.468072 -0.689852 0.149529 
79 1.68551 1.09273 1.92022 0.36669 0 0 0 0.137724 -0.882958 -0.419438 
492 1.57913 1.14675 1.92413 0.353494 0 0 0 0.285136 -0.823765 -0.0686761 
102 1.57313 0.883411 2.31387 0.456289 0 0 0 0.43273 -1.15588 0.886074 
353 2.07856 1.26353 2.64018 0.588623 0 0 0 -0.784933 0.435465 -1.26508 
462 2.05822 1.16867 1.5 0.374842 0 0 0 -1.12477 -0.441465 -0.00751155 
366 3.1868 0.394559 3.69956 1.11941 0 0 0 0.427852 -0.0589638 0.661258 
89 1.72107 0.84336 2.90213 0.612809 0 0 0 0.333683 0.563408 0.677286 
368 3.28497 -0.261777 3.55747 1.21015 0 0 0 0.427468 -0.424276 0.520478 
369 3.64678 0.246239 3.45704 1.1909 0 0 0 0.608268 -0.163268 0.482318 
378 2.68147 0.577428 2.86987 0.757392 0 0 0 0.589611 0.356555 0.59984 
389 2.14752 0.922803 3.36328 0.790332 0 0 0 0.301166 0.639931 0.697748 
95 1.59937 0.244862 3.84569 0.991726 0 0 0 0.0259957 -0.174655 0.844423 
373 1.65834 -0.0884592 2.8068 0.767133 0 0 0 -0.127103 -0.983988 -0.0238986 
390 2.59699 1.19522 3.71533 0.975796 0 0 0 0.204647 0.334116 0.633326 
86 1.82023 1.15323 3.19897 0.70523 0 0 0 0.238571 0.999383 0.374344 
376 2.3167 1.03751 3.19033 0.758193 0 0 0 0.302536 0.831224 0.474053 
391 3.65086 0.0254034 3.455 1.22491 0 0 0 0.591521 -0.276209 0.462935 
236 1.54662 0.57347 2.76919 0.603728 0 0 0 0.00797158 -0.614124 0.469211 
379 2.2848 0.0643896 2.74732 0.757383 0 0 0 0.197681 -0.711355 0.263043 
392 3.16307 0.164081 2.91473 0.933108 0 0 0 0.561882 -0.181144 0.368101 
381 3.33651 -0.184165 3.45156 1.17626 0 0 0 0.468463 -0.388441 0.486802 
115 1.62185 0.856728 2.99927 0.635537 0 0 0 0.269736 0.56677 0.738451 
386 3.19116 1.2429 3.66153 1.08251 0 0 0 0.343943 0.202033 0.542286 
97 1.83972 0.614676 2.73122 0.599048 0 0 0 0.34175 -0.192301 0.590659 
385 2.36353 -0.087542 3.34842 0.945013 0 0 0 0.184311 -0.438183 0.551907 
413 2.04561 3.55204 0.256291 0.937593 0 0 0 0.0167846 0.826881 0.106747 
396 3.29248 3.22369 0.0353792 1.0748 0 0 0 0.396757 0.490322 -0.151133 
417 1.86394 3.11945 -0.421519 0.938947 0 0 0 0.0259733 0.635527 -0.497429 
398 3.25696 2.67494 0.143852 0.921571 0 0 0 0.46573 0.363353 -0.0248088 
418 3.60253 2.06813 -0.031539 0.979935 0 0 0 0.668185 0.103282 -0.267779 
400 3.51106 2.53616 -0.0693585 1.01263 0 0 0 0.566671 0.207829 -0.26132 
420 1.73365 2.37769 -0.458365 0.802558 0 0 0 0.0173791 0.149966 -0.821979 
414 2.02101 2.40556 -0.00567426 0.688315 0 0 0 0.194031 0.747598 -0.386229 
416 2.84934 3.42506 -0.15161 1.0695 0 0 0 0.207371 0.613226 -0.261569 
404 3.3127 3.00276 -0.201169 1.07257 0 0 0 0.424779 0.366713 -0.33224 
415 3.39604 3.43407 0.089091 1.15433 0 0 0 0.404616 0.538801 -0.151415 
322 1.89506 1.81396 -0.137582 0.663462 0 0 0 -0.322308 -0.68045 -0.736575 
407 3.49973 1.68272 -0.386591 1.01346 0 0 0 0.577608 0.0301398 -0.50284 
408 2.0203 1.93863 -0.607182 0.832005 0 0 0 -0.0249667 -0.17608 -0.869669 
202 2.56613 1.60662 0.174903 0.644143 0 0 0 0.242795 -0.252915 -0.7042 
410 3.59069 2.9862 -0.00985146 1.11004 0 0 0 0.5464 0.338196 -0.221806 
411 1.93646 3.67859 -0.355092 1.08848 0 0 0 -0.0202915 0.765224 -0.418136 
289 2.40056 1.93837 0.244711 0.614263 0 0 0 0.514109 0.450139 -0.390127 
262 1.74618 2.15121 0.279795 0.555167 0 0 0 0.0127262 0.577648 -0.810515 
12 2.05403 1.71887 0.75804 0.438056 0 0 0 1.01311 -0.0352835 -1.31532 
419 2.13204 2.72408 0.899584 0.661815 0 0 0 -0.342901 -0.253307 0.907367 
406 2.42478 3.61753 0.659941 0.970486 0 0 0 -0.0178974 0.63341 0.325806 
5 1.83387 1.60258 1.06898 0.350519 0 0 0 0.518145 -0.00482571 -0.439379 
282 2.10939 1.7138 0.725202 0.451016 0 0 0 1.0296 -0.0076209 -1.22508 
332 2.94217 1.87249 1.48281 0.658017 0 0 0 -1.3466 0.0500582 0.272337 
273 1.97812 2.02246 0.498346 0.505727 0 0 0 0.418173 0.715724 -0.889716 
465 1.55317 1.80293 1.02062 0.352751 0 0 0 0.42348 0.41315 0.116532 
473 2.46735 1.59649 0.666433 0.518461 0 0 0 0.967273 0.00927171 -0.462018 
431 2.32608 2.05447 0.51998 0.560179 0 0 0 0.72406 0.993821 0.163095 
14 1.55419 1.93329 0.828387 0.405066 0 0 0 0.0452478 0.83073 -0.972299 
292 1.85024 1.93215 0.6232 0.458611 0 0 0 0.520224 0.633277 -1.45571 
434 2.75645 2.12254 0.776659 0.640351 0 0 0 0.275931 0.828474 0.976972 
435 2.27548 2.78875 1.36395 0.724155 0 0 0 -1.28372 -1.59756 0.0353121 
449 1.78492 1.65285 1.04032 0.351594 0 0 0 0.619993 0.0966887 -0.444151 
397 2.83484 3.18348 0.751309 0.894631 0 0 0 -0.0118923 0.462727 0.500417 
503 1.69433 1.53292 1.28278 0.296977 0 0 0 0.0869582 0.668205 -1.17536 
439 2.23607 1.68881 0.721615 0.470072 0 0 0 0.99744 -0.149412 -1.01176 
440 3.40613 2.58476 1.18372 0.890002 0 0 0 0.0148075 0.225989 0.341525 
321 3.75635 1.95027 1.30417 0.908666 0 0 0 0.522743 0.204469 0.235072 
442 2.01408 1.55506 0.98774 0.389568 0 0 0 0.846759 -0.376277 -0.680723 
280 3.36552 1.92081 0.844518 0.776135 0 0 0 0.563163 0.495315 0.460947 
409 2.06937 2.09248 1.00962 0.487086 0 0 0 -3.00233 -4.83838 -2.50923 
132 1.60202 2.67401 1.2318 0.597756 0 0 0 -0.896836 -2.87811 -0.34087 
412 3.37692 2.95078 0.915983 0.958067 0 0 0 0.185445 0.354269 0.329061 
467 2.39566 1.7078 0.607563 0.518876 0 0 0 0.91167 0.184904 -0.454103 
475 1.63586 1.75674 1.01821 0.351082 0 0 0 0.571835 0.320003 -0.170118 
297 1.88583 2.11885 0.468267 0.516636 0 0 0 0.269579 0.900463 -0.810918 
258 1.88163 2.07849 0.490084 0.505803 0 0 0 0.292676 0.819125 -0.959281 
21 1.95024 1.79309 0.73699 0.433786 0 0 0 0.834941 0.192509 -1.4517 
155 1.57048 2.57304 1.0308 0.556278 0 0 0 -0.930787 -1.97381 -0.346302 
152 1.64318 3.26844 0.896396 0.775455 0 0 0 0.145045 0.320245 0.577044 
330 3.25835 2.11222 1.26292 0.765142 0 0 0 -0.2274 0.346549 0.517377 
50 2.10971 2.0188 0.461295 0.528912 0 0 0 0.523297 0.76077 -0.524113 
11 1.827 1.65768 0.99859 0.364157 0 0 0 0.725992 0.0561339 -0.479227 
221 3.06292 2.07823 0.893009 0.704358 0 0 0 0.191714 0.675885 0.805535 
74 3.0486 1.89688 0.61314 0.69712 0 0 0 0.733935 0.698609 0.481372 
446 2.36993 1.57697 0.416038 0.551072 0 0 0 0.338368 -0.38124 -0.777634 
395 2.2081 3.17316 0.332807 0.823204 0 0 0 0.0906743 0.78928 0.380114 
259 2.6154 1.55377 0.447523 0.589887 0 0 0 0.615097 -0.134979 -0.484159 
421 3.45212 3.42163 0.54613 1.11866 0 0 0 0.356764 0.514225 0.0955141 
454 1.56662 1.58654 1.31649 0.280871 0 0 0 0.559335 0.530541 -1.02822 
46 1.85723 1.59487 1.06018 0.354941 0 0 0 0.539034 -0.0521487 -0.419198 
342 1.94864 1.51663 1.09143 0.362944 0 0 0 0.365542 -0.248031 -0.311647 
468 1.84503 1.61503 1.04262 0.356901 0 0 0 0.604995 -0.0199384 -0.435519 
3 1.71464 1.71188 1.01633 0.352867 0 0 0 0.64178 0.223058 -0.36165 
305 1.96778 2.68476 0.388916 0.661758 0 0 0 0.243342 1.2175 0.507542 
197 2.25482 2.3121 0.348901 0.622001 0 0 0 0.537126 1.21491 0.278948 
405 2.37908 2.74231 0.381574 0.727045 0 0 0 0.265649 0.92238 0.602313 
401 2.75365 3.61333 0.332402 1.03903 0 0 0 0.115525 0.715405 0.107314 
13 1.55311 1.67704 1.20138 0.307975 0 0 0 0.785351 0.491586 -0.794607 
387 2.4319 1.68887 2.1791 0.61012 0 0 0 -3.33261 -1.77728 -2.95753 
482 2.51488 2.75821 2.0488 0.826884 0 0 0 -1.56776 -1.33389 -0.988783 
463 2.97196 2.60117 1.62743 0.818332 0 0 0 -1.07678 -0.446853 -0.0860642 
394 2.64218 1.6578 2.44453 0.69117 0 0 0 -1.51707 -0.0734165 -1.27246 
319 3.26548 1.82336 1.59356 0.744787 0 0 0 -0.412109 0.388314 0.342377 
500 3.11263 2.32838 2.11933 0.848983 0 0 0 -0.956558 -0.383037 -0.424587 
487 2.72995 2.14152 2.33656 0.768563 0 0 0 -1.73825 -0.883136 -1.23837 
502 2.94167 3.12339 2.45848 1.05466 0 0 0 -0.570331 -0.288437 -0.388156 
499 3.04773 2.90835 2.59199 1.0427 0 0 0 -0.532294 -0.292071 -0.370325 
429 3.27854 2.24372 1.5145 0.807218 0 0 0 -0.495922 0.0821244 0.239961 
504 1.83957 1.9845 2.30361 0.597558 0 0 0 -3.80746 -5.34054 -5.67647 
383 3.18367 1.5004 2.61693 0.827667 0 0 0 -0.034389 0.389496 0.0164107 
99 1.58531 1.59037 3.49474 0.813437 0 0 0 0.149988 0.619346 0.283839 
382 2.94579 1.66321 3.32611 0.956235 0 0 0 0.0216816 0.231209 0.173935 
374 2.17945 1.70019 3.15936 0.782232 0 0 0 -0.408977 0.359915 -0.57519 
367 2.15103 1.73257 3.16272 0.78398 0 0 0 -0.427401 0.315484 -0.61772 
512 1.68195 3.18105 2.91328 0.986987 0 0 0 -0.181811 -0.3796 -0.491414 
498 3.03601 3.15207 3.07829 1.20085 0 0 0 -0.264342 -0.140543 -0.15473 
508 2.36176 2.26392 2.93277 0.848654 0 0 0 -1.00141 -0.572082 -1.04113 
488 2.76679 3.03525 3.02365 1.10813 0 0 0 -0.447058 -0.241928 -0.29405 
100 1.61345 1.74365 3.65537 0.886141 0 0 0 0.0867504 0.432667 0.364275 
245 1.53524 1.87342 3.55191 0.862726 0 0 0 0.113813 0.405963 0.174805 
ITEM: TIMESTEP
740917
ITEM: NUMBER OF ATOMS
512
ITEM: BOX BOUNDS ss ss ss
-8.1988304040437454e-01 3.8875120101141034e+00
-9.7693552394909078e-01 3.9476017366228966e+00
-9.1281994132074906e-01 3.9096273972560476e+00
ITEM: ATOMS id x y z width_SPH x_COM y_COM z_COM vx vy vz 
263 1.46291 0.88658 -0.255337 0.797053 0 0 0 -0.184387 0.0652852 0.617661 
403 1.47176 1.28214 -0.572766 0.836228 0 0 0 -0.296152 -0.417889 -0.281608 
25 0.482325 0.121031 0.00277429 1.02263 0 0 0 0.431063 0.529144 0.56994 
279 1.31897 1.03444 -0.485 0.850874 0 0 0 -0.189055 -0.165798 0.106886 
402 1.48864 1.3275 -0.648027 0.856461 0 0 0 -0.281501 -0.409926 -0.421821 
16 0.283969 0.665582 0.148018 0.902204 0 0 0 0.586594 0.592039 0.78037 
8 0.548848 0.851564 0.11652 0.825729 0 0 0 0.734491 0.68266 1.1515 
131 1.20622 1.4083 0.666057 0.517597 0 0 0 4.80178 6.68599 7.38506 
217 -0.458206 1.32447 1.07566 0.827558 0 0 0 -0.140214 -0.412276 -0.139894 
2 -0.191094 0.578917 0.378225 0.976755 0 0 0 0.269474 0.355317 0.381149 
24 0.947312 0.538072 0.655906 0.732033 0 0 0 1.69004 2.78529 2.58768 
129 -0.0272398 1.21936 0.471867 0.809151 0 0 0 0.464966 -0.111321 0.504366 
224 -0.038175 1.2323 1.09789 0.718726 0 0 0 1.00092 -0.077745 0.267231 
78 0.717484 0.416281 1.446 0.684306 0 0 0 2.08607 2.94746 0.725868 
67 0.0566788 0.170705 1.35969 0.867433 0 0 0 0.646863 0.692236 0.00585263 
22 1.10961 0.782255 0.476535 0.689888 0 0 0 1.54619 2.7145 3.19769 
125 0.0919211 1.14992 0.334147 0.817637 0 0 0 0.529038 0.0432033 0.639739 
10 0.36273 0.340206 0.337054 0.920791 0 0 0 0.743258 0.865785 0.897122 
68 -0.629257 1.10997 1.49534 0.8723 0 0 0 -0.401483 -0.268309 -0.303186 
116 -0.467661 -0.224836 2.43602 1.06883 0 0 0 -0.51045 -0.413942 -0.0581838 
39 1.33122 1.26246 1.96203 0.349427 0 0 0 -0.248249 -0.392844 0.561988 
57 -0.136591 -0.184234 1.60661 0.978298 0 0 0 0.0863057 0.0850669 -0.196875 
111 1.47858 0.661609 1.94948 0.479308 0 0 0 3.06061 4.58002 2.61089 
59 0.836233 1.31492 2.27397 0.459128 0 0 0 -1.05526 -0.0553246 0.985081 
183 0.484316 1.33661 2.61272 0.586944 0 0 0 -0.675429 -0.0650058 0.479691 
80 1.06797 1.32418 2.08947 0.39489 0 0 0 -0.907362 0.027769 0.821313 
103 -0.666448 -0.192848 2.21681 1.11079 0 0 0 -0.541721 -0.319408 -0.0821362 
63 -0.481045 0.335769 1.67077 0.939106 0 0 0 -0.201764 0.0269398 -0.274239 
64 0.692272 1.251 1.9554 0.468141 0 0 0 1.81274 3.52162 2.44696 
65 1.41229 1.12562 2.09167 0.384752 0 0 0 0.113522 -1.07852 0.468897 
66 0.536323 -0.153298 1.5622 0.845278 0 0 0 0.649445 0.68362 -0.164173 
27 1.41507 1.3286 1.80372 0.309628 0 0 0 -0.411588 -0.39375 1.39384 
343 1.489 1.48457 1.52633 0.252367 0 0 0 0.0620365 0.0890629 -0.0237449 
69 0.57851 1.29327 2.42893 0.533073 0 0 0 -0.970006 -0.283501 0.404186 
82 0.155999 0.760119 1.618 0.699974 0 0 0 1.16229 0.79999 -0.325278 
71 0.319324 -0.0268611 1.59758 0.843494 0 0 0 0.61823 0.613298 -0.223026 
509 1.47935 1.4766 1.54574 0.254225 0 0 0 0.182445 0.086692 -0.118275 
226 0.739721 1.28996 2.43124 0.504119 0 0 0 -0.860281 -0.17497 0.697983 
511 1.41956 1.17052 2.0196 0.366044 0 0 0 0.0941783 -0.908743 0.297236 
118 0.968938 0.167093 2.50852 0.690236 0 0 0 -0.380099 -0.897095 -0.669408 
26 1.04232 1.47276 1.91231 0.366375 0 0 0 -0.425648 0.305287 0.348106 
77 0.568464 0.474336 2.28658 0.658595 0 0 0 -0.193266 -0.487502 -0.883513 
92 0.627969 -0.707375 2.33072 0.983501 0 0 0 -0.0562689 -0.633963 -0.231832 
107 0.249774 0.442636 2.19694 0.72425 0 0 0 -0.0884681 -0.275266 -0.803411 
122 1.04947 0.384897 2.37967 0.613128 0 0 0 -0.286999 -0.858503 -0.736348 
94 1.18309 0.612663 2.42577 0.545583 0 0 0 -0.17301 -1.01253 -0.0157849 
247 0.952666 1.10213 2.48174 0.497488 0 0 0 -0.611945 -0.522921 0.847355 
73 1.44161 0.79443 2.54928 0.516406 0 0 0 0.0603743 -0.778584 0.685131 
87 0.756025 0.283346 2.07373 0.669735 0 0 0 0.352341 0.328733 -0.886048 
84 -0.667107 1.05545 2.40896 0.902828 0 0 0 -0.847652 -0.267152 -0.180989 
507 1.18214 1.13119 2.2489 0.425771 0 0 0 -0.485952 -0.575611 1.24123 
169 1.39493 0.991794 2.28373 0.436527 0 0 0 0.174951 -1.07739 1.11085 
85 0.770573 -0.606566 1.99598 0.927263 0 0 0 0.0904883 -0.341428 -0.356415 
371 1.36018 0.868786 2.51445 0.500148 0 0 0 -0.0253859 -0.820978 0.806154 
448 0.609038 1.28909 1.89857 0.483822 0 0 0 1.71745 3.16725 1.99172 
328 0.99311 0.77431 2.21876 0.511073 0 0 0 0.604102 0.5918 0.631527 
112 0.973452 1.266 2.2244 0.433461 0 0 0 -0.947428 -0.0536088 1.19687 
40 0.542467 1.29074 2.42961 0.54092 0 0 0 -0.994487 -0.331628 0.322516 
496 1.48485 1.48105 1.5348 0.253068 0 0 0 0.119658 0.0927417 -0.0759725 
42 1.22246 1.29781 2.00116 0.362851 0 0 0 -0.557144 -0.188722 0.50121 
237 1.1156 1.25582 2.14125 0.402223 0 0 0 -0.81054 -0.183999 0.983517 
494 1.38749 1.19011 2.0175 0.364348 0 0 0 -0.0150281 -0.801235 0.35734 
181 0.316499 1.14153 2.56082 0.627437 0 0 0 -0.957835 -0.732081 -0.0855046 
81 -0.121095 -0.621644 2.09638 1.08734 0 0 0 -0.196994 -0.422688 -0.131277 
83 1.18469 -0.506687 2.52988 0.870696 0 0 0 -0.142378 -0.821283 -0.309913 
232 0.998006 1.0124 2.54917 0.515986 0 0 0 -0.467538 -0.61671 0.771092 
93 -0.508153 0.844908 2.0297 0.851664 0 0 0 -0.540512 -0.298775 -0.444174 
61 1.51203 0.359932 1.94817 0.566531 0 0 0 0.589548 1.39728 -0.113159 
349 1.50386 -0.381649 1.57127 0.808644 0 0 0 -0.1292 0.234019 -0.291419 
253 1.16405 1.08585 2.39571 0.46085 0 0 0 -0.611573 -0.907018 0.937589 
193 -0.727531 1.42163 1.55279 0.877436 0 0 0 -0.696328 -0.372886 -0.303488 
506 1.46209 1.27674 1.83872 0.320018 0 0 0 -0.221717 -0.637773 0.942525 
44 -0.248207 1.37175 1.89731 0.712934 0 0 0 -0.599103 -0.717589 -0.652021 
32 1.23784 1.37168 1.88979 0.337 0 0 0 -0.418039 -0.0103275 0.780397 
493 1.20601 1.42553 1.84334 0.331298 0 0 0 -0.251616 0.0107421 0.833689 
9 1.40198 1.32545 1.82113 0.313668 0 0 0 -0.524669 -0.59554 1.18549 
218 1.31592 1.40023 1.78918 0.309643 0 0 0 -0.538579 -0.471005 1.2862 
200 -0.243772 1.45154 1.90837 0.706231 0 0 0 -0.68995 -0.735864 -0.614246 
486 1.31685 1.26323 1.982 0.354057 0 0 0 0.424102 0.77722 1.34914 
98 0.19204 0.505966 2.67417 0.762683 0 0 0 -0.54779 -0.679279 -0.319407 
113 1.36474 -0.767758 2.84603 0.99332 0 0 0 -0.0519166 -0.877642 0.0551733 
114 -0.66282 0.667392 3.0988 1.0467 0 0 0 -0.730329 -0.208073 0.292161 
108 0.827865 -0.375049 3.19939 0.96703 0 0 0 -0.17966 -0.683321 0.269362 
163 0.568717 0.925248 2.79803 0.645969 0 0 0 -0.628994 -0.714732 0.303378 
60 0.82446 1.36372 3.15258 0.691634 0 0 0 0.333317 0.629427 0.835943 
117 0.983523 0.117896 3.70191 0.97882 0 0 0 -0.129099 -0.308782 0.718549 
51 0.407864 1.42257 2.78812 0.642072 0 0 0 -0.34659 0.249815 0.656789 
88 1.42973 0.53892 3.62921 0.869879 0 0 0 0.00638119 0.0152763 0.894941 
109 -0.52101 -0.195166 3.25587 1.19582 0 0 0 -0.575236 -0.438261 0.393264 
90 -0.819597 0.596005 2.78624 1.05283 0 0 0 -0.798707 -0.216512 0.112031 
91 0.794654 1.1685 3.90934 0.962244 0 0 0 -0.00640092 0.133375 0.951547 
227 1.33614 1.35544 2.76354 0.562284 0 0 0 -0.0936859 0.239778 -0.637918 
438 0.692845 1.45414 3.02108 0.66565 0 0 0 0.31031 0.681416 0.831905 
119 0.719812 0.0526571 3.43824 0.932511 0 0 0 -0.230065 -0.438123 0.511969 
430 1.20336 0.667928 2.80486 0.606695 0 0 0 -0.284895 -0.688803 0.484962 
96 1.21336 -0.443188 3.49594 1.03711 0 0 0 -0.0580959 -0.627555 0.498006 
121 -0.478883 0.852545 3.15732 0.981833 0 0 0 -0.686117 -0.196811 0.33756 
110 0.000526561 -0.17857 2.91004 0.989033 0 0 0 -0.415648 -0.545739 0.0950873 
120 -0.75715 1.33216 2.86286 0.982959 0 0 0 -0.855535 -0.0638532 0.19264 
104 0.101177 -0.598307 3.21263 1.14764 0 0 0 -0.345982 -0.642433 0.341684 
101 0.537344 0.503476 3.11842 0.786339 0 0 0 -0.405484 -0.525517 0.336944 
238 1.23272 1.23413 2.83499 0.574663 0 0 0 0.182206 0.586776 0.304311 
123 -0.316985 2.86792 -0.691704 1.18977 0 0 0 -0.540339 0.329791 -0.659817 
159 0.39783 3.05213 -0.625385 1.0548 0 0 0 -0.285721 0.503078 -0.690777 
142 1.18785 3.80509 -0.0596177 1.05791 0 0 0 -0.106358 0.89201 -0.316698 
126 -0.541273 3.21741 0.18441 1.10843 0 0 0 -0.644971 0.551739 -0.319694 
127 0.80551 2.06303 -0.832085 0.949854 0 0 0 -0.270558 -0.262301 -0.886188 
158 0.896475 2.14782 -0.50246 0.825352 0 0 0 -0.343748 -0.410897 -0.874062 
143 -0.162424 2.51389 -0.788988 1.13562 0 0 0 -0.507473 0.116801 -0.735184 
149 1.11663 2.1868 -0.912536 0.958569 0 0 0 -0.152834 -0.115959 -0.939879 
151 1.36321 3.36621 0.288898 0.844524 0 0 0 0.0302175 0.959211 0.0450261 
274 1.33477 2.01645 -0.0268066 0.636671 0 0 0 -0.366982 -0.743733 -0.663857 
157 0.0134427 1.643 0.128941 0.82107 0 0 0 -0.211115 -0.666839 -0.103397 
156 -0.609027 1.93331 -0.650125 1.19061 0 0 0 -0.599146 -0.0660172 -0.549858 
130 0.986172 2.15088 0.267692 0.593014 0 0 0 -0.524946 -0.340153 -0.635018 
148 0.698616 1.49458 -0.23256 0.791591 0 0 0 -0.0750289 -0.610814 0.0774246 
137 -0.70816 2.86987 0.2464 1.07807 0 0 0 -0.787216 0.323149 -0.310877 
138 0.424976 2.62752 -0.593779 0.963032 0 0 0 -0.356598 0.182122 -0.803841 
141 0.16003 1.997 -0.415257 0.914398 0 0 0 -0.476557 -0.434293 -0.672652 
140 0.86215 2.60215 -0.809084 0.979757 0 0 0 -0.192272 0.196976 -0.875612 
443 1.31898 2.0852 0.116077 0.599076 0 0 0 -0.363286 -0.428199 -0.737811 
444 1.48154 2.23981 0.0627839 0.620901 0 0 0 -0.259592 0.134129 -0.787057 
136 1.03226 1.8917 0.22151 0.59717 0 0 0 -0.148993 -0.793364 0.068756 
268 1.46276 2.00807 0.113333 0.58976 0 0 0 -0.280093 -0.513184 -0.711784 
146 0.824174 2.05114 0.253742 0.615593 0 0 0 -0.451182 -0.790425 -0.379379 
180 0.816322 2.50706 0.789622 0.565313 0 0 0 -0.422006 1.2314 -0.299281 
190 0.821831 3.2916 1.17401 0.773673 0 0 0 0.338234 0.751386 0.367141 
178 -0.546734 3.08541 1.13917 0.974059 0 0 0 -0.646019 0.581689 -0.0204851 
220 0.899074 2.23257 1.45456 0.460907 0 0 0 -1.92835 -2.57299 -1.96281 
189 1.01701 2.26104 0.814596 0.487551 0 0 0 -0.947595 1.11263 -0.606372 
165 1.04879 2.30438 0.745467 0.502534 0 0 0 -0.824603 1.15656 -0.6618 
128 1.38577 3.34334 1.25181 0.793523 0 0 0 0.238315 -0.0104502 0.37926 
185 0.700687 3.36967 1.30718 0.807797 0 0 0 0.306451 0.749868 0.317381 
168 0.779367 2.05425 1.00595 0.471616 0 0 0 -0.205762 1.53644 0.706438 
186 -0.767697 1.72337 0.481582 0.983529 0 0 0 -0.740642 -0.285027 -0.211629 
170 0.556741 2.28227 0.547181 0.609206 0 0 0 -0.639426 -0.127206 -0.555093 
171 0.284591 3.56153 0.91582 0.929536 0 0 0 -0.1241 0.922007 0.0251813 
175 -0.67399 2.64647 1.34235 0.922314 0 0 0 -0.838155 0.285619 -0.0589385 
124 0.946514 2.13445 1.0301 0.44806 0 0 0 -1.03364 1.02046 -0.156157 
187 -0.341974 2.06188 0.381158 0.853131 0 0 0 -0.732644 -0.502036 -0.361221 
134 1.44029 2.99975 0.715261 0.686525 0 0 0 0.237593 0.772255 0.575623 
198 1.10454 2.48526 1.32488 0.519692 0 0 0 -1.07319 -2.52528 -1.23754 
426 1.5256 1.8097 1.03415 0.350828 0 0 0 0.374346 0.399491 0.236571 
147 1.22188 1.9207 1.15987 0.365564 0 0 0 -0.68205 -0.613249 0.427155 
133 1.04449 2.31189 0.324242 0.588102 0 0 0 -0.518649 0.365572 -0.73427 
188 0.39883 2.22613 0.46743 0.652192 0 0 0 -0.608903 -0.528057 -0.525441 
20 1.40121 1.64926 1.36986 0.284343 0 0 0 1.58822 -0.491015 -0.210379 
216 -0.0737802 2.3515 1.33666 0.682757 0 0 0 -0.676871 0.162979 -0.232998 
206 -0.717439 1.91108 1.19378 0.879572 0 0 0 -0.880919 -0.367042 -0.250321 
154 -0.28009 3.2078 0.526566 0.978399 0 0 0 -0.533194 0.672507 -0.188907 
144 1.30247 2.01087 0.912942 0.407618 0 0 0 -0.672878 1.0542 -0.238448 
423 1.18173 2.03444 0.97732 0.411241 0 0 0 -0.85139 1.06112 0.0834254 
135 -0.226254 3.12139 0.410251 0.95821 0 0 0 -0.535663 0.632113 -0.247134 
192 0.529693 2.18854 0.465835 0.623394 0 0 0 -0.589979 -0.541637 -0.501822 
194 0.171578 2.21543 0.651668 0.67049 0 0 0 -0.636104 -0.568299 -0.480122 
196 0.99008 2.89059 1.10309 0.640601 0 0 0 0.388186 0.633294 0.419029 
203 0.532326 2.55462 0.54105 0.655195 0 0 0 -0.461095 0.623894 -0.448617 
150 1.41059 1.88556 0.988762 0.370978 0 0 0 2.87269 5.46364 3.79099 
214 -0.0711032 1.80496 0.79184 0.711168 0 0 0 -0.190264 -1.00773 -0.172931 
425 1.42104 1.95118 0.905404 0.39439 0 0 0 -0.268485 0.944363 -0.302311 
48 0.228423 2.29403 0.623421 0.66739 0 0 0 -0.652848 -0.340622 -0.509609 
162 1.52738 1.51565 1.44983 0.254791 0 0 0 -0.400387 0.113579 0.320311 
177 0.870214 1.99607 1.31465 0.416626 0 0 0 -0.428091 0.917059 0.35901 
139 0.90101 3.94732 0.7486 1.02061 0 0 0 -0.0239463 0.908768 -0.029647 
461 1.38949 1.75363 1.23162 0.316837 0 0 0 0.788795 0.0389028 0.353446 
210 0.261611 2.17599 0.847564 0.615999 0 0 0 -0.594612 -0.510706 -0.434906 
480 1.02343 2.02373 1.13293 0.409869 0 0 0 -0.66408 0.947521 0.473122 
28 1.05077 1.83854 1.40401 0.360317 0 0 0 0.745362 0.122643 0.746401 
489 0.558853 2.27473 1.21427 0.519894 0 0 0 -0.640053 0.853583 -0.177993 
4 1.22245 1.72084 1.42292 0.315214 0 0 0 1.31357 -0.333599 0.539075 
19 1.14084 2.47426 0.428792 0.58536 0 0 0 -0.345436 1.10182 -0.529079 
336 0.479585 2.37429 1.1893 0.555286 0 0 0 -0.451953 0.94081 -0.147878 
469 1.0405 2.01731 1.12836 0.406968 0 0 0 -0.641633 0.936138 0.520225 
308 0.417194 2.38389 1.20765 0.568908 0 0 0 -0.422024 0.883001 -0.1444 
15 1.22459 1.8628 1.21613 0.350381 0 0 0 0.329911 0.109438 1.24218 
424 1.33272 2.62684 0.397187 0.618369 0 0 0 -0.0725404 1.29741 -0.16211 
7 1.37249 2.12815 0.709264 0.457161 0 0 0 -0.584492 1.11293 -1.16701 
174 1.2968 1.80757 1.23498 0.332179 0 0 0 0.573434 -0.12495 0.946425 
6 1.09486 1.81937 1.39359 0.350537 0 0 0 0.885974 -0.0217883 0.820448 
458 0.509351 2.15864 1.40969 0.50369 0 0 0 -0.692686 0.732842 -0.0556073 
433 1.53015 1.83936 0.985043 0.363364 0 0 0 0.317761 0.587872 0.0927963 
437 1.46749 2.04176 0.748699 0.434922 0 0 0 -0.33697 1.01709 -1.23235 
153 1.27973 1.81894 1.23334 0.335817 0 0 0 0.531819 -0.101191 1.0385 
286 1.4825 2.02989 0.753372 0.432212 0 0 0 -0.289555 0.996537 -1.23868 
195 0.960329 1.93965 1.32812 0.392723 0 0 0 -0.00417262 0.669691 0.653921 
399 1.51634 1.93623 0.866638 0.397933 0 0 0 -0.429599 0.219661 -1.13891 
354 0.503412 2.10105 1.49637 0.495893 0 0 0 -0.740973 0.714488 0.0203585 
372 1.50625 1.49957 1.49052 0.251512 0 0 0 -0.213062 0.045115 0.264207 
164 0.232473 1.81996 1.47903 0.555412 0 0 0 -0.187072 -0.251057 -0.150823 
17 1.50459 1.49817 1.49392 0.251439 0 0 0 -0.188147 0.0475455 0.240321 
52 0.953888 1.86576 1.44846 0.38025 0 0 0 0.395526 0.462925 0.490535 
145 0.944092 3.68323 0.319779 0.962028 0 0 0 -0.0697345 0.942559 -0.136528 
256 0.558347 2.11604 1.73864 0.496382 0 0 0 -0.760131 0.519757 0.0906166 
495 1.0431 1.64388 1.68229 0.346147 0 0 0 0.726415 0.284274 0.134305 
248 0.86878 1.5629 1.93386 0.401683 0 0 0 -0.734081 0.724708 0.574561 
43 0.148919 2.3144 1.81884 0.623843 0 0 0 -0.186906 0.906602 0.491364 
76 0.906799 1.57911 1.88406 0.389081 0 0 0 -0.518015 0.646483 0.347142 
450 0.854477 1.64817 1.83468 0.397157 0 0 0 -0.471479 0.832856 0.32822 
166 1.19151 3.39112 1.71318 0.833435 0 0 0 0.311551 -0.187261 0.0848052 
70 0.97513 2.32045 2.30291 0.608754 0 0 0 0.374661 -1.55701 -1.46662 
199 -0.163991 2.48213 2.51655 0.815894 0 0 0 -0.22196 0.751757 0.499423 
223 -0.313712 3.51999 2.20263 1.0656 0 0 0 -0.342996 0.730768 0.185296 
201 -0.0323003 3.01379 1.68138 0.81564 0 0 0 -0.0812688 0.978492 0.267418 
243 0.900445 2.03172 2.39422 0.562178 0 0 0 0.102853 -1.11853 -1.3564 
191 0.402006 2.14628 2.61255 0.66771 0 0 0 0.537604 1.16211 0.686832 
204 0.494256 3.83159 2.13436 1.03917 0 0 0 0.0831367 0.663345 0.133751 
49 0.769417 1.87247 1.59107 0.417372 0 0 0 -0.387962 1.00495 0.294935 
160 0.914955 1.82328 1.54462 0.382719 0 0 0 0.27639 0.470654 0.18795 
207 0.78691 2.75748 2.50756 0.754782 0 0 0 0.726066 0.142274 -0.116917 
208 1.03097 2.39111 1.63946 0.518094 0 0 0 -1.2968 -4.15696 -2.32224 
209 0.529455 2.20089 1.58261 0.507847 0 0 0 -0.583133 0.778406 0.0883787 
447 0.197365 2.26425 2.14673 0.639121 0 0 0 0.0858154 1.11296 0.777291 
211 0.711173 3.69218 1.79547 0.943619 0 0 0 0.228622 0.561476 0.152198 
212 0.655032 3.2858 1.83326 0.81231 0 0 0 0.469035 0.508442 0.273232 
213 0.0678187 3.4769 2.25792 0.98074 0 0 0 -0.0320925 0.748339 0.229381 
490 1.46128 1.49805 1.53103 0.253855 0 0 0 1.29232 -0.711209 0.128618 
215 0.794994 3.88391 2.27497 1.06153 0 0 0 0.148999 0.502793 0.071692 
184 1.5004 1.49456 1.50257 0.251402 0 0 0 -0.121582 0.0574053 0.171701 
55 0.266689 2.26505 1.5319 0.574509 0 0 0 -0.404411 0.671148 0.0856452 
505 0.361114 1.60465 2.26191 0.548762 0 0 0 -0.983704 0.180592 0.294854 
255 1.2108 2.61047 2.17651 0.668959 0 0 0 0.0489235 -2.31924 -1.57551 
479 0.0168444 2.36862 2.04038 0.686487 0 0 0 -0.169991 0.920347 0.583081 
173 -0.124532 1.91621 1.83532 0.659829 0 0 0 -0.837751 -0.402915 -0.215171 
318 0.349872 1.78873 2.07953 0.534862 0 0 0 -0.89902 0.413721 0.360443 
54 0.430618 1.94054 1.8001 0.50288 0 0 0 -0.875906 0.602251 0.28463 
34 0.259992 2.18276 1.85537 0.57733 0 0 0 -0.275826 0.845164 0.51462 
172 0.165965 2.12749 1.58858 0.582573 0 0 0 -0.604303 0.131424 -0.0735023 
229 1.0813 2.33348 2.53379 0.661706 0 0 0 0.497493 -1.05239 -1.406 
234 1.04409 1.64647 1.67795 0.345828 0 0 0 0.744865 0.277165 0.135849 
252 1.1575 1.61768 1.62227 0.318148 0 0 0 1.06402 -0.250379 0.524639 
235 1.04832 1.62 1.71022 0.345715 0 0 0 0.626036 0.289125 0.162408 
29 0.843073 1.72178 1.74557 0.396694 0 0 0 -0.258811 0.877874 0.216118 
513 0.660692 1.56778 2.09004 0.460313 0 0 0 -1.20281 0.513733 0.742825 
241 1.06009 1.60521 1.72045 0.343451 0 0 0 0.60066 0.2555 0.207168 
38 0.320516 1.7588 2.2745 0.566248 0 0 0 -0.69307 0.511567 0.471376 
35 0.252084 1.76159 2.40264 0.603926 0 0 0 -0.543918 0.556808 0.510711 
30 0.500208 1.66022 2.12088 0.499531 0 0 0 -1.10761 0.440831 0.496598 
239 -0.586852 2.64441 2.57886 0.974139 0 0 0 -0.577169 0.458323 0.298066 
233 0.904609 1.60663 1.8497 0.386761 0 0 0 -0.399253 0.669482 0.256692 
75 0.829565 1.66228 1.83748 0.403139 0 0 0 -0.564142 0.86755 0.36579 
219 1.50021 1.49439 1.50297 0.251406 0 0 0 -0.118403 0.0579637 0.168299 
167 1.5004 1.49455 1.50259 0.251402 0 0 0 -0.121443 0.0574294 0.171553 
466 1.5002 1.49438 1.503 0.251406 0 0 0 -0.118175 0.0580041 0.168054 
471 1.50021 1.49439 1.50297 0.251406 0 0 0 -0.118447 0.0579559 0.168346 
36 1.50028 1.49445 1.50282 0.251404 0 0 0 -0.119622 0.0577492 0.169604 
278 1.50195 1.4959 1.49935 0.251391 0 0 0 -0.146728 0.0532287 0.198268 
37 1.50088 1.49497 1.50157 0.251396 0 0 0 -0.129495 0.0561098 0.180037 
58 1.50159 1.49559 1.5001 0.251391 0 0 0 -0.140983 0.0542359 0.192127 
47 1.07812 1.7557 1.49969 0.343427 0 0 0 1.02041 -0.136278 0.347773 
477 1.50167 1.49566 1.49993 0.251391 0 0 0 -0.142203 0.0539465 0.193536 
355 1.50134 1.49537 1.50062 0.251392 0 0 0 -0.136814 0.0548219 0.18787 
334 1.50104 1.49511 1.50125 0.251394 0 0 0 -0.131911 0.0556364 0.18269 
476 1.50097 1.49505 1.50139 0.251395 0 0 0 -0.130839 0.0558168 0.181554 
179 1.50088 1.49498 1.50157 0.251396 0 0 0 -0.129431 0.0560546 0.180061 
222 1.50059 1.49472 1.50219 0.251399 0 0 0 -0.124593 0.0568825 0.174914 
302 1.50065 1.49478 1.50205 0.251398 0 0 0 -0.12568 0.0566952 0.176072 
176 1.50066 1.49478 1.50204 0.251398 0 0 0 -0.12574 0.0566848 0.176137 
225 0.92281 2.39725 3.41235 0.888288 0 0 0 0.373679 0.377029 0.311798 
106 0.302739 2.02714 3.35323 0.857241 0 0 0 0.120791 0.569727 0.780083 
249 -0.498562 2.47087 2.81672 0.959173 0 0 0 -0.536686 0.431533 0.394131 
228 -0.108658 3.23446 3.60257 1.22453 0 0 0 -0.281621 0.494544 0.579486 
254 -0.486121 2.76307 3.5122 1.1744 0 0 0 -0.471137 0.385434 0.58495 
230 0.506969 3.71141 2.9996 1.13779 0 0 0 0.0269061 0.555021 0.264734 
231 0.569903 2.2762 3.57918 0.935088 0 0 0 0.214651 0.457927 0.686149 
242 0.544177 2.40527 3.25163 0.856903 0 0 0 0.388561 0.605948 0.516851 
246 -0.356554 2.01124 3.52011 1.04153 0 0 0 -0.46042 0.227394 0.669545 
464 0.277933 1.66567 2.73315 0.660817 0 0 0 -0.2532 0.600735 0.673423 
205 0.789508 1.62298 3.04757 0.674938 0 0 0 0.588802 0.903118 0.639758 
251 0.368726 3.45847 3.03809 1.07462 0 0 0 0.0473304 0.574839 0.331767 
105 -0.172735 1.52945 3.72936 1.04181 0 0 0 -0.383878 0.0755031 0.777715 
250 0.796415 3.13054 3.39931 1.05192 0 0 0 0.168007 0.346711 0.318559 
244 1.25516 2.37352 3.45388 0.901675 0 0 0 0.225143 0.194209 0.0630343 
240 -0.316579 3.69299 3.4091 1.33894 0 0 0 -0.398565 0.574297 0.443192 
257 3.62637 1.21803 -0.278451 1.02738 0 0 0 0.662283 -0.0959415 -0.447612 
441 1.86625 1.15928 0.0293922 0.661003 0 0 0 -0.675377 -0.369664 0.601577 
288 3.67371 0.85792 0.0530709 0.991894 0 0 0 0.717084 -0.23556 -0.334334 
260 3.1323 0.827983 -0.609116 1.01911 0 0 0 0.333838 -0.274318 -0.675073 
261 3.52398 -0.100128 0.154679 1.093 0 0 0 0.502731 -0.634778 -0.330562 
276 2.55308 0.780196 -0.32085 0.838316 0 0 0 -0.251421 -0.566764 -0.547733 
427 2.22868 1.08023 0.208779 0.632712 0 0 0 -0.822421 -0.713987 -0.101779 
285 1.77615 0.218845 -0.0315087 0.864555 0 0 0 -0.185603 0.145298 0.517845 
436 2.35116 1.42219 -0.0512712 0.678328 0 0 0 -0.406555 -0.673968 -0.734142 
266 2.66025 0.93635 -0.843427 1.00718 0 0 0 0.0635735 -0.223775 -0.783954 
267 3.03037 0.60885 -0.0398106 0.865182 0 0 0 0.159059 -0.643759 -0.506135 
293 2.10191 1.07615 -0.870528 0.957155 0 0 0 -0.174106 -0.22363 -0.718727 
269 2.55512 0.949698 -0.706886 0.94309 0 0 0 -0.0495119 -0.288856 -0.743543 
270 2.46766 0.612222 -0.432212 0.891629 0 0 0 -0.223503 -0.52399 -0.496713 
271 3.2313 -0.579432 -0.176079 1.23192 0 0 0 0.360721 -0.692762 -0.376338 
272 1.6467 0.823017 0.128508 0.702436 0 0 0 -0.205672 0.701063 1.55327 
284 2.0421 0.324119 -0.432478 0.936211 0 0 0 -0.243776 -0.335192 -0.149026 
290 2.38962 -0.690839 -0.214173 1.17656 0 0 0 0.0652878 -0.547446 -0.230053 
291 3.16122 0.334522 -0.492725 1.06555 0 0 0 0.325714 -0.499019 -0.575627 
294 3.06872 0.327581 0.68221 0.79401 0 0 0 0.101739 -0.942263 -0.433154 
23 1.96011 1.40534 1.23483 0.349079 0 0 0 -0.599619 -0.217068 0.0857777 
453 2.93384 0.913308 1.3622 0.602814 0 0 0 0.732838 -0.100574 0.132441 
18 1.90807 1.36094 1.34067 0.333035 0 0 0 -1.25072 0.0132762 0.295451 
298 2.04666 1.34271 1.25147 0.367169 0 0 0 -0.540431 -0.421548 0.0781941 
299 2.91921 0.965584 1.15319 0.600934 0 0 0 0.695799 -0.294015 -0.119156 
451 2.12579 1.28904 1.26587 0.385298 0 0 0 -0.254691 -0.637315 -0.0746749 
301 3.70182 0.535435 1.4268 0.900412 0 0 0 0.879134 -0.217174 0.0445937 
264 2.45148 0.855528 0.620125 0.597322 0 0 0 -0.523677 -0.843215 -0.416911 
445 2.28054 1.21985 1.24788 0.423472 0 0 0 0.555504 -0.75191 -0.307343 
304 2.19733 1.11985 1.14349 0.431068 0 0 0 2.27648 2.7865 2.37204 
41 2.8642 0.99106 0.872282 0.609245 0 0 0 0.49311 -0.669912 -0.497246 
306 1.99419 1.20525 1.4957 0.358718 0 0 0 -1.55158 -0.175102 0.0556384 
307 2.07216 1.04501 1.19279 0.425477 0 0 0 3.78043 7.11395 5.71571 
277 2.64747 1.39933 0.721806 0.54876 0 0 0 0.848632 -0.164911 -0.410686 
309 3.42368 0.409365 1.28612 0.825455 0 0 0 0.705409 -0.507601 -0.108079 
310 2.04761 -0.00925811 1.06794 0.725922 0 0 0 -0.566265 0.412288 0.078493 
311 2.88348 1.04322 0.925478 0.602776 0 0 0 0.627627 -0.456724 -0.367887 
341 2.75568 1.06758 0.733255 0.594096 0 0 0 0.363307 -0.79359 -0.668211 
432 2.74185 1.44695 0.883125 0.554671 0 0 0 0.863001 0.249305 0.0388732 
161 2.00056 1.43223 1.16426 0.363505 0 0 0 -0.0700279 -0.338564 -0.117115 
182 2.69528 1.32605 0.523278 0.596686 0 0 0 0.459712 -0.51911 -0.62291 
316 2.92723 -0.308188 0.756847 0.924411 0 0 0 0.0547664 -0.866027 -0.307171 
317 3.34937 0.0147918 0.768077 0.924398 0 0 0 0.394664 -0.767703 -0.282429 
275 3.4093 -0.820409 0.709982 1.195 0 0 0 0.430011 -0.78808 -0.184214 
33 2.65971 0.845094 1.48872 0.537872 0 0 0 0.731268 -0.584758 0.0576807 
320 1.86541 0.0375303 0.9319 0.734204 0 0 0 -0.348792 1.04578 0.599281 
72 2.19326 1.16818 1.39318 0.403132 0 0 0 -0.13604 -0.769914 -0.0247983 
265 1.93826 -0.369082 0.73291 0.882172 0 0 0 -0.204916 0.0532962 0.157712 
501 2.42646 1.15684 1.21412 0.460777 0 0 0 0.925109 -0.612901 -0.326113 
56 2.5703 0.702988 0.532526 0.656289 0 0 0 -0.587875 -1.04466 -0.472245 
325 2.33716 1.10413 1.34222 0.440662 0 0 0 0.761406 -0.601273 0.0304627 
287 2.41139 -0.366536 0.555639 0.915704 0 0 0 -0.190781 -0.55473 -0.138707 
327 3.3612 1.249 1.48977 0.729282 0 0 0 0.60286 0.610921 0.465242 
329 1.95981 0.208869 1.14449 0.655285 0 0 0 -0.514408 1.36135 0.567947 
428 2.78133 0.813915 1.48194 0.571737 0 0 0 0.696735 -0.434584 0.0856551 
31 2.45657 0.720508 0.487634 0.649595 0 0 0 -0.729149 -0.862214 -0.283683 
283 1.78568 0.844299 0.902956 0.529928 0 0 0 2.21488 7.11734 5.72943 
326 2.49871 1.10644 1.22629 0.479727 0 0 0 0.917734 -0.58709 -0.27546 
470 3.20794 1.21787 1.38465 0.675379 0 0 0 0.60493 0.650645 0.479884 
313 2.78304 0.83726 1.4233 0.569373 0 0 0 0.688846 -0.46977 0.0304919 
457 1.88294 1.3176 1.42382 0.328055 0 0 0 -1.57496 0.173433 0.325421 
455 2.09929 1.46729 1.04026 0.396738 0 0 0 0.737336 -0.566893 -0.644788 
422 2.35313 1.29626 1.0816 0.446574 0 0 0 1.03421 -0.563875 -0.623641 
456 2.55983 0.341731 1.38463 0.628054 0 0 0 -0.349836 -1.08266 -0.530456 
474 1.85407 1.41999 1.30336 0.322765 0 0 0 -0.75644 0.168768 0.00897796 
300 3.62897 -0.222318 1.47508 1.02441 0 0 0 0.628927 -0.628309 -0.0936829 
478 2.35708 1.45326 0.867204 0.466215 0 0 0 1.20526 -0.344449 -0.812698 
340 1.70263 1.43604 1.41147 0.286351 0 0 0 -0.969001 0.607199 -0.388313 
281 1.70783 0.00684327 0.314215 0.851725 0 0 0 -0.0686676 0.52507 0.736439 
333 2.95213 0.625805 2.57619 0.753149 0 0 0 0.713171 0.398761 0.502295 
323 1.96023 1.06257 1.74773 0.38267 0 0 0 -0.574186 -0.518595 -0.531202 
335 2.66602 0.847277 2.44812 0.646094 0 0 0 0.592439 0.832718 0.530745 
491 1.78687 1.17973 1.7055 0.338068 0 0 0 -0.880212 0.10234 -0.515624 
337 2.05362 -0.945724 1.91696 0.993529 0 0 0 -0.0302121 -0.872254 -0.198428 
338 3.03182 0.240146 2.16305 0.772455 0 0 0 0.621381 -0.40049 0.185017 
339 1.79311 0.243024 1.69179 0.597997 0 0 0 -0.162272 1.31185 -0.0847175 
370 1.65925 -0.976651 2.59511 1.0346 0 0 0 -0.00372 -0.913982 -0.00498662 
452 2.42607 0.244128 1.74988 0.624614 0 0 0 -0.262868 -1.04641 -0.489068 
295 2.09994 0.574213 2.39619 0.559711 0 0 0 0.422644 -0.554893 0.449779 
296 2.19624 1.05236 1.56909 0.416346 0 0 0 0.052512 -0.767618 0.0016629 
344 2.37282 0.960801 1.94511 0.493171 0 0 0 0.0946414 -0.747948 -0.195001 
345 3.40708 1.06476 2.12278 0.795709 0 0 0 0.617709 0.513862 0.408945 
346 2.01393 0.960271 1.86444 0.41594 0 0 0 0.212499 -0.860784 0.00192391 
364 1.68475 1.12265 1.87405 0.355485 0 0 0 0.0337325 -0.642687 -0.440995 
348 3.88722 1.46542 2.1892 0.984174 0 0 0 0.623104 0.14507 0.18069 
331 2.11756 0.995945 1.72374 0.415842 0 0 0 0.0795265 -0.764404 -0.0601985 
350 2.36019 -0.0946051 1.6119 0.719204 0 0 0 -0.476414 -0.847109 -0.611085 
351 1.77258 1.2331 1.64011 0.323701 0 0 0 -1.06182 0.264927 -0.192484 
352 2.46185 0.668521 2.2626 0.582332 0 0 0 0.676364 0.0573119 0.582532 
363 2.55574 -0.637623 2.03573 0.923299 0 0 0 0.062625 -0.993196 -0.189402 
45 1.68419 1.14928 1.83489 0.346042 0 0 0 -0.0692531 -0.451422 -0.387342 
365 1.6938 0.222898 2.39009 0.619915 0 0 0 -0.246766 -1.20422 -0.522461 
356 3.26093 1.43479 2.49168 0.819987 0 0 0 0.0772072 0.442798 0.10864 
357 2.16286 1.0865 2.24832 0.502365 0 0 0 -1.19524 -1.26628 -1.34789 
358 2.14803 0.6664 2.60498 0.595299 0 0 0 0.560582 0.181467 0.638777 
359 3.56757 -0.60035 2.21029 1.1353 0 0 0 0.571195 -0.671621 0.0263269 
360 1.95003 0.186192 2.18312 0.617077 0 0 0 -0.299128 -1.06732 -0.548417 
361 2.06205 -0.71743 1.53364 0.916868 0 0 0 -0.165969 -0.667985 -0.288188 
362 2.41713 0.274349 1.96776 0.621371 0 0 0 -0.0196185 -1.05125 -0.266885 
460 1.97018 1.14592 1.60674 0.364135 0 0 0 -1.33179 -0.186274 -0.367985 
303 2.32215 1.05423 1.64055 0.44636 0 0 0 -0.2438 -1.64987 -0.782078 
393 1.97008 -0.32892 2.07153 0.770048 0 0 0 -0.341791 -0.895136 -0.523357 
324 2.45377 0.691629 1.9828 0.539929 0 0 0 0.658952 -0.447215 0.399815 
312 3.14154 1.31987 1.96638 0.699458 0 0 0 -0.0356489 0.799493 0.326161 
375 1.79871 0.91846 2.0944 0.426675 0 0 0 0.572422 -1.16248 0.509367 
459 2.65915 0.457158 1.80806 0.612564 0 0 0 0.369618 -0.81935 -0.0486746 
62 1.74291 1.05768 1.9291 0.377706 0 0 0 0.103528 -0.931012 -0.414941 
380 2.33975 0.664182 2.34272 0.573093 0 0 0 0.614346 -0.00926352 0.600938 
485 1.68786 1.16812 1.80446 0.339539 0 0 0 -0.171971 -0.322177 -0.330462 
510 2.07899 0.979135 1.78211 0.415852 0 0 0 0.124218 -0.791976 -0.0555498 
497 1.81804 0.609483 2.48231 0.54285 0 0 0 0.301635 -0.771581 0.40942 
347 1.77136 -0.881261 1.97401 0.962733 0 0 0 -0.0895684 -0.786563 -0.247526 
377 3.60723 1.30346 2.5684 0.93368 0 0 0 0.514245 0.272029 0.238895 
314 2.71491 0.746781 1.72331 0.570735 0 0 0 0.73971 -0.292771 0.26701 
388 1.7547 1.18522 1.72428 0.334976 0 0 0 -0.686808 0.0363437 -0.441949 
315 2.63579 0.314008 1.72365 0.638918 0 0 0 0.0537976 -1.04207 -0.326298 
472 2.09293 0.870489 1.94172 0.448092 0 0 0 0.491691 -0.963481 0.346205 
483 1.82858 0.756596 2.34807 0.493684 0 0 0 0.439373 -0.869975 0.607112 
481 2.18419 0.922714 1.7832 0.441243 0 0 0 0.45044 -0.865685 0.161275 
53 1.96945 0.837124 2.09145 0.454928 0 0 0 0.523556 -1.05336 0.546265 
484 1.5969 0.907439 2.2591 0.443747 0 0 0 0.520661 -1.21086 0.880205 
384 3.3199 -0.64218 2.68997 1.13434 0 0 0 0.468072 -0.689852 0.149528 
79 1.68551 1.09273 1.92022 0.36669 0 0 0 0.137715 -0.882922 -0.419422 
492 1.57913 1.14675 1.92413 0.353495 0 0 0 0.285134 -0.823714 -0.0686499 
102 1.57313 0.88341 2.31387 0.45629 0 0 0 0.432715 -1.15588 0.886064 
353 2.07856 1.26353 2.64018 0.588623 0 0 0 -0.784943 0.435464 -1.26509 
462 2.05822 1.16867 1.5 0.374842 0 0 0 -1.12477 -0.441457 -0.00750933 
366 3.18681 0.394559 3.69956 1.11941 0 0 0 0.427851 -0.0589637 0.661257 
89 1.72107 0.843361 2.90213 0.612809 0 0 0 0.333681 0.563414 0.677286 
368 3.28497 -0.261777 3.55747 1.21015 0 0 0 0.427467 -0.424276 0.520477 
369 3.64678 0.246238 3.45704 1.1909 0 0 0 0.608267 -0.163268 0.482317 
378 2.68147 0.577428 2.86987 0.757392 0 0 0 0.58961 0.356556 0.599838 
389 2.14752 0.922804 3.36328 0.790333 0 0 0 0.301165 0.639932 0.697747 
95 1.59937 0.244862 3.84569 0.991726 0 0 0 0.025995 -0.174655 0.844422 
373 1.65834 -0.0884601 2.8068 0.767134 0 0 0 -0.127105 -0.983989 -0.0239001 
390 2.59699 1.19523 3.71533 0.975797 0 0 0 0.204646 0.334117 0.633325 
86 1.82023 1.15323 3.19897 0.70523 0 0 0 0.23857 0.999385 0.374343 
376 2.3167 1.03751 3.19033 0.758194 0 0 0 0.302535 0.831226 0.474052 
391 3.65086 0.0254031 3.455 1.22492 0 0 0 0.591521 -0.276209 0.462934 
236 1.54662 0.57347 2.76919 0.603728 0 0 0 0.00796699 -0.614124 0.469209 
379 2.2848 0.0643889 2.74733 0.757383 0 0 0 0.197679 -0.711356 0.263041 
392 3.16307 0.164081 2.91473 0.933108 0 0 0 0.561881 -0.181144 0.3681 
381 3.33651 -0.184165 3.45156 1.17626 0 0 0 0.468462 -0.388441 0.486802 
115 1.62185 0.856728 2.99928 0.635537 0 0 0 0.269734 0.566775 0.73845 
386 3.19116 1.24291 3.66153 1.08252 0 0 0 0.343942 0.202034 0.542285 
97 1.83972 0.614675 2.73122 0.599048 0 0 0 0.341747 -0.192299 0.590658 
385 2.36353 -0.0875424 3.34842 0.945013 0 0 0 0.18431 -0.438183 0.551906 
413 2.04561 3.55204 0.256291 0.937594 0 0 0 0.0167842 0.82688 0.106748 
396 3.29248 3.22369 0.0353791 1.0748 0 0 0 0.396756 0.490322 -0.151133 
417 1.86394 3.11945 -0.42152 0.938948 0 0 0 0.025973 0.635526 -0.497428 
398 3.25696 2.67494 0.143852 0.921571 0 0 0 0.465729 0.363352 -0.0248084 
418 3.60253 2.06813 -0.0315393 0.979935 0 0 0 0.668184 0.103281 -0.267779 
400 3.51106 2.53616 -0.0693587 1.01263 0 0 0 0.566669 0.207828 -0.261319 
420 1.73365 2.37769 -0.458366 0.802559 0 0 0 0.0173782 0.149964 -0.821977 
414 2.02101 2.40556 -0.00567465 0.688316 0 0 0 0.194029 0.747596 -0.386227 
416 2.84934 3.42506 -0.15161 1.0695 0 0 0 0.20737 0.613226 -0.261569 
404 3.3127 3.00276 -0.201169 1.07257 0 0 0 0.424778 0.366712 -0.33224 
415 3.39604 3.43407 0.0890908 1.15433 0 0 0 0.404616 0.538801 -0.151415 
322 1.89506 1.81396 -0.137583 0.663463 0 0 0 -0.322311 -0.680452 -0.736573 
407 3.49973 1.68272 -0.386592 1.01346 0 0 0 0.577607 0.0301388 -0.50284 
408 2.0203 1.93863 -0.607183 0.832005 0 0 0 -0.0249676 -0.176081 -0.869668 
202 2.56613 1.60661 0.174902 0.644143 0 0 0 0.242792 -0.252918 -0.7042 
410 3.59069 2.9862 -0.00985169 1.11004 0 0 0 0.546399 0.338196 -0.221805 
411 1.93646 3.67859 -0.355092 1.08848 0 0 0 -0.0202915 0.765223 -0.418135 
289 2.40056 1.93837 0.244711 0.614264 0 0 0 0.514106 0.450137 -0.390125 
262 1.74618 2.15121 0.279794 0.555167 0 0 0 0.0127219 0.577644 -0.810509 
12 2.05403 1.71887 0.758039 0.438056 0 0 0 1.0131 -0.0352798 -1.31532 
419 2.13204 2.72408 0.899585 0.661815 0 0 0 -0.342906 -0.253312 0.907365 
406 2.42478 3.61753 0.659941 0.970486 0 0 0 -0.0178982 0.63341 0.325807 
5 1.83387 1.60258 1.06898 0.350519 0 0 0 0.518125 -0.00482452 -0.439384 
282 2.10939 1.7138 0.725201 0.451016 0 0 0 1.02959 -0.00762059 -1.22508 
332 2.94217 1.87249 1.48281 0.658017 0 0 0 -1.34661 0.0500544 0.272334 
273 1.97812 2.02246 0.498345 0.505727 0 0 0 0.418165 0.715722 -0.889707 
465 1.55317 1.80293 1.02062 0.352751 0 0 0 0.423456 0.413144 0.116518 
473 2.46735 1.59649 0.666432 0.518462 0 0 0 0.967267 0.00926925 -0.462016 
431 2.32608 2.05447 0.519981 0.560179 0 0 0 0.724055 0.99382 0.163101 
14 1.55419 1.93329 0.828386 0.405066 0 0 0 0.0452481 0.830749 -0.972283 
292 1.85025 1.93215 0.623199 0.458612 0 0 0 0.520213 0.633276 -1.4557 
434 2.75645 2.12254 0.77666 0.640351 0 0 0 0.275925 0.828471 0.976973 
435 2.27548 2.78875 1.36395 0.724154 0 0 0 -1.28373 -1.59756 0.0353092 
449 1.78492 1.65286 1.04032 0.351594 0 0 0 0.61997 0.0966874 -0.444158 
397 2.83484 3.18348 0.75131 0.894631 0 0 0 -0.011894 0.462727 0.500417 
503 1.69433 1.53292 1.28278 0.296977 0 0 0 0.0869375 0.668203 -1.17537 
439 2.23607 1.68881 0.721614 0.470072 0 0 0 0.99743 -0.149411 -1.01176 
440 3.40613 2.58476 1.18372 0.890002 0 0 0 0.0148054 0.225989 0.341525 
321 3.75635 1.95027 1.30417 0.908666 0 0 0 0.522741 0.204468 0.235071 
442 2.01408 1.55506 0.987739 0.389568 0 0 0 0.846756 -0.376265 -0.680722 
280 3.36552 1.92081 0.844519 0.776136 0 0 0 0.563161 0.495314 0.460947 
409 2.06937 2.09247 1.00962 0.487084 0 0 0 -3.00235 -4.83841 -2.50929 
132 1.60202 2.674 1.2318 0.597755 0 0 0 -0.896855 -2.87813 -0.340886 
412 3.37692 2.95078 0.915984 0.958067 0 0 0 0.185443 0.354269 0.329061 
467 2.39566 1.7078 0.607562 0.518877 0 0 0 0.911664 0.184902 -0.4541 
475 1.63586 1.75674 1.01821 0.351082 0 0 0 0.57181 0.319999 -0.170131 
297 1.88583 2.11885 0.468266 0.516636 0 0 0 0.269573 0.90046 -0.810909 
258 1.88163 2.07849 0.490083 0.505803 0 0 0 0.292669 0.819122 -0.959271 
21 1.95024 1.79309 0.736988 0.433786 0 0 0 0.834931 0.192515 -1.4517 
155 1.57048 2.57303 1.0308 0.556277 0 0 0 -0.930801 -1.97381 -0.346317 
152 1.64318 3.26844 0.896397 0.775455 0 0 0 0.145044 0.320244 0.577045 
330 3.25835 2.11222 1.26292 0.765142 0 0 0 -0.227403 0.346549 0.517376 
50 2.10971 2.0188 0.461295 0.528913 0 0 0 0.52329 0.760769 -0.524106 
11 1.827 1.65768 0.998589 0.364158 0 0 0 0.725974 0.0561361 -0.479231 
221 3.06292 2.07824 0.893009 0.704358 0 0 0 0.19171 0.675883 0.805535 
74 3.0486 1.89688 0.61314 0.69712 0 0 0 0.733932 0.698607 0.481373 
446 2.36993 1.57697 0.416037 0.551073 0 0 0 0.338363 -0.381245 -0.777635 
395 2.2081 3.17316 0.332808 0.823204 0 0 0 0.0906733 0.789279 0.380115 
259 2.6154 1.55377 0.447522 0.589887 0 0 0 0.615095 -0.134982 -0.484159 
421 3.45212 3.42163 0.546131 1.11866 0 0 0 0.356762 0.514225 0.0955143 
454 1.56662 1.58654 1.31649 0.280871 0 0 0 0.559316 0.530544 -1.02825 
46 1.85723 1.59487 1.06018 0.354941 0 0 0 0.539016 -0.0521469 -0.419203 
342 1.94864 1.51663 1.09143 0.362944 0 0 0 0.36553 -0.248024 -0.31165 
468 1.84503 1.61503 1.04262 0.356901 0 0 0 0.604976 -0.0199373 -0.435524 
3 1.71464 1.71188 1.01633 0.352867 0 0 0 0.641756 0.223054 -0.36166 
305 1.96778 2.68476 0.388916 0.661758 0 0 0 0.24334 1.21749 0.507544 
197 2.25482 2.3121 0.348901 0.622002 0 0 0 0.537122 1.21491 0.278952 
405 2.37908 2.74231 0.381574 0.727045 0 0 0 0.265647 0.922378 0.602315 
401 2.75365 3.61333 0.332402 1.03903 0 0 0 0.115524 0.715405 0.107315 
13 1.55311 1.67704 1.20138 0.307976 0 0 0 0.785304 0.491552 -0.794651 
387 2.43189 1.68887 2.1791 0.610119 0 0 0 -3.33265 -1.77731 -2.95757 
482 2.51488 2.75821 2.0488 0.826883 0 0 0 -1.56777 -1.33389 -0.988785 
463 2.97196 2.60117 1.62743 0.818332 0 0 0 -1.07679 -0.446853 -0.0860647 
394 2.64217 1.6578 2.44453 0.691169 0 0 0 -1.51708 -0.0734187 -1.27247 
319 3.26548 1.82336 1.59356 0.744787 0 0 0 -0.412114 0.388312 0.342376 
500 3.11263 2.32838 2.11933 0.848982 0 0 0 -0.956563 -0.383037 -0.424588 
487 2.72995 2.14152 2.33656 0.768562 0 0 0 -1.73826 -0.883138 -1.23838 
502 2.94167 3.12339 2.45848 1.05466 0 0 0 -0.570333 -0.288436 -0.388155 
499 3.04773 2.90835 2.59199 1.0427 0 0 0 -0.532297 -0.292069 -0.370325 
429 3.27854 2.24372 1.5145 0.807218 0 0 0 -0.495926 0.0821243 0.239961 
504 1.83957 1.9845 2.30361 0.597555 0 0 0 -3.80755 -5.34067 -5.67658 
383 3.18367 1.5004 2.61693 0.827667 0 0 0 -0.0343914 0.389497 0.0164105 
99 1.58531 1.59037 3.49474 0.813437 0 0 0 0.149988 0.619348 0.283839 
382 2.94579 1.66321 3.32611 0.956235 0 0 0 0.0216804 0.23121 0.173935 
374 2.17945 1.70019 3.15936 0.782232 0 0 0 -0.408979 0.359917 -0.575191 
367 2.15103 1.73257 3.16272 0.78398 0 0 0 -0.427402 0.315486 -0.617721 
512 1.68195 3.18105 2.91328 0.986986 0 0 0 -0.181812 -0.379597 -0.491413 
498 3.03601 3.15207 3.07828 1.20085 0 0 0 -0.264344 -0.14054 -0.154729 
508 2.36176 2.26392 2.93277 0.848654 0 0 0 -1.00141 -0.572081 -1.04114 
488 2.76679 3.03525 3.02365 1.10813 0 0 0 -0.44706 -0.241926 -0.29405 
100 1.61345 1.74365 3.65537 0.886142 0 0 0 0.0867504 0.43267 0.364275 
245 1.53524 1.87342 3.55191 0.862726 0 0 0 0.113813 0.405966 0.174806 
ITEM: TIMESTEP
740918
ITEM: NUMBER OF ATOMS
512
ITEM: BOX BOUNDS ss ss ss
-8.1988304040437454e-01 3.8875120101141034e+00
-9.7693552394909078e-01 3.9476017366228966e+00
-9.1281994132074906e-01 3.9096273972560476e+00
ITEM: ATOMS id x y z width_SPH x_COM y_COM z_COM vx vy vz 
263 1.46291 0.88658 -0.255337 0.797053 0 0 0 -0.184386 0.0652849 0.617664 
403 1.47176 1.28214 -0.572766 0.836228 0 0 0 -0.296152 -0.41789 -0.281606 
25 0.482325 0.121032 0.00277486 1.02263 0 0 0 0.431067 0.529144 0.569941 
279 1.31897 1.03444 -0.484999 0.850874 0 0 0 -0.189053 -0.165799 0.106888 
402 1.48864 1.3275 -0.648027 0.856461 0 0 0 -0.2815 -0.409926 -0.421819 
16 0.283969 0.665583 0.148019 0.902203 0 0 0 0.5866 0.592039 0.780372 
8 0.548849 0.851565 0.116521 0.825729 0 0 0 0.734499 0.682661 1.15151 
131 1.20622 1.40831 0.666064 0.517594 0 0 0 4.80194 6.68623 7.38523 
217 -0.458206 1.32447 1.07566 0.827558 0 0 0 -0.14021 -0.412276 -0.139893 
2 -0.191094 0.578917 0.378225 0.976755 0 0 0 0.269479 0.355317 0.38115 
24 0.947314 0.538075 0.655909 0.732031 0 0 0 1.69006 2.78531 2.5877 
129 -0.0272393 1.21936 0.471867 0.809151 0 0 0 0.464973 -0.11132 0.504368 
224 -0.038174 1.2323 1.0979 0.718726 0 0 0 1.00093 -0.0777431 0.267234 
78 0.717486 0.416284 1.446 0.684305 0 0 0 2.08609 2.94748 0.725879 
67 0.0566794 0.170706 1.35969 0.867433 0 0 0 0.646868 0.692237 0.00585436 
22 1.10961 0.782257 0.476538 0.689887 0 0 0 1.54621 2.71453 3.19772 
125 0.0919216 1.14992 0.334148 0.817637 0 0 0 0.529045 0.043204 0.639742 
10 0.362731 0.340207 0.337055 0.920791 0 0 0 0.743264 0.865786 0.897124 
68 -0.629257 1.10997 1.49534 0.8723 0 0 0 -0.401479 -0.268309 -0.303185 
116 -0.467662 -0.224837 2.43602 1.06883 0 0 0 -0.510448 -0.413942 -0.0581835 
39 1.33122 1.26246 1.96203 0.349428 0 0 0 -0.248234 -0.392804 0.562012 
57 -0.136591 -0.184233 1.60661 0.978298 0 0 0 0.0863081 0.0850666 -0.196875 
111 1.47859 0.661614 1.94949 0.479306 0 0 0 3.06063 4.58 2.61093 
59 0.836232 1.31492 2.27397 0.459129 0 0 0 -1.05525 -0.0553235 0.985076 
183 0.484315 1.33661 2.61272 0.586944 0 0 0 -0.675425 -0.0650076 0.479691 
80 1.06797 1.32418 2.08948 0.39489 0 0 0 -0.907349 0.0277729 0.82131 
103 -0.666449 -0.192849 2.21681 1.11079 0 0 0 -0.541719 -0.319408 -0.0821358 
63 -0.481045 0.335769 1.67077 0.939106 0 0 0 -0.201761 0.0269395 -0.274238 
64 0.692274 1.251 1.95541 0.468141 0 0 0 1.81272 3.52159 2.44696 
65 1.41229 1.12562 2.09167 0.384753 0 0 0 0.113515 -1.0785 0.468897 
66 0.536324 -0.153297 1.5622 0.845278 0 0 0 0.649448 0.68362 -0.164172 
27 1.41507 1.3286 1.80372 0.309628 0 0 0 -0.411569 -0.393704 1.3939 
343 1.489 1.48457 1.52633 0.252367 0 0 0 0.062036 0.0890679 -0.023747 
69 0.578509 1.29327 2.42893 0.533073 0 0 0 -0.969999 -0.283505 0.404182 
82 0.156 0.76012 1.618 0.699974 0 0 0 1.1623 0.799994 -0.325275 
71 0.319325 -0.0268605 1.59758 0.843494 0 0 0 0.618233 0.613299 -0.223025 
509 1.47935 1.4766 1.54574 0.254225 0 0 0 0.182443 0.0866986 -0.118274 
226 0.73972 1.28996 2.43124 0.504119 0 0 0 -0.860271 -0.17497 0.69798 
511 1.41956 1.17052 2.0196 0.366044 0 0 0 0.0941837 -0.9087 0.297253 
118 0.968937 0.167092 2.50852 0.690237 0 0 0 -0.3801 -0.897096 -0.669411 
26 1.04232 1.47276 1.91231 0.366375 0 0 0 -0.425616 0.305307 0.348124 
77 0.568463 0.474336 2.28658 0.658595 0 0 0 -0.193264 -0.487501 -0.883515 
92 0.627969 -0.707376 2.33072 0.983501 0 0 0 -0.056269 -0.633963 -0.231832 
107 0.249774 0.442635 2.19694 0.72425 0 0 0 -0.0884653 -0.275265 -0.803412 
122 1.04947 0.384896 2.37967 0.613128 0 0 0 -0.287001 -0.858504 -0.736352 
94 1.18309 0.612662 2.42577 0.545584 0 0 0 -0.173017 -1.01253 -0.0157918 
247 0.952665 1.10213 2.48174 0.497488 0 0 0 -0.61194 -0.52292 0.84735 
73 1.44161 0.794429 2.54929 0.516406 0 0 0 0.060366 -0.778581 0.685125 
87 0.756026 0.283346 2.07373 0.669735 0 0 0 0.352343 0.328735 -0.886048 
84 -0.667107 1.05545 2.40896 0.902828 0 0 0 -0.84765 -0.267152 -0.180989 
507 1.18214 1.13119 2.2489 0.425771 0 0 0 -0.485954 -0.575609 1.24121 
169 1.39493 0.991793 2.28373 0.436527 0 0 0 0.174937 -1.07738 1.11084 
85 0.770573 -0.606566 1.99598 0.927264 0 0 0 0.0904886 -0.341429 -0.356415 
371 1.36018 0.868785 2.51445 0.500148 0 0 0 -0.0253935 -0.820974 0.806147 
448 0.60904 1.2891 1.89857 0.483821 0 0 0 1.71745 3.16724 1.99173 
328 0.993111 0.77431 2.21876 0.511073 0 0 0 0.604098 0.591792 0.631527 
112 0.973451 1.266 2.2244 0.433461 0 0 0 -0.947417 -0.0536091 1.19686 
40 0.542466 1.29074 2.42961 0.54092 0 0 0 -0.994481 -0.331632 0.322512 
496 1.48486 1.48105 1.5348 0.253068 0 0 0 0.119657 0.0927475 -0.0759733 
42 1.22246 1.29781 2.00116 0.362852 0 0 0 -0.55712 -0.188686 0.501229 
237 1.1156 1.25582 2.14125 0.402223 0 0 0 -0.810535 -0.183997 0.983509 
494 1.38749 1.1901 2.0175 0.364348 0 0 0 -0.0150193 -0.801191 0.357359 
181 0.316498 1.14153 2.56082 0.627437 0 0 0 -0.957832 -0.732085 -0.0855079 
81 -0.121095 -0.621645 2.09638 1.08734 0 0 0 -0.196993 -0.422688 -0.131277 
83 1.18469 -0.506688 2.52987 0.870696 0 0 0 -0.142379 -0.821283 -0.309914 
232 0.998006 1.0124 2.54917 0.515986 0 0 0 -0.467536 -0.616709 0.771086 
93 -0.508154 0.844908 2.0297 0.851664 0 0 0 -0.540508 -0.298775 -0.444174 
61 1.51203 0.359933 1.94817 0.56653 0 0 0 0.589554 1.39728 -0.113152 
349 1.50386 -0.381649 1.57127 0.808644 0 0 0 -0.129199 0.234018 -0.29142 
253 1.16405 1.08585 2.39571 0.460851 0 0 0 -0.61157 -0.907007 0.937585 
193 -0.727531 1.42163 1.55279 0.877437 0 0 0 -0.696324 -0.372885 -0.303487 
506 1.46209 1.27674 1.83872 0.320018 0 0 0 -0.221732 -0.637769 0.942537 
44 -0.248208 1.37175 1.89731 0.712934 0 0 0 -0.599097 -0.71759 -0.652022 
32 1.23784 1.37168 1.88979 0.337 0 0 0 -0.418022 -0.010307 0.780418 
493 1.20601 1.42553 1.84334 0.331299 0 0 0 -0.251603 0.0107507 0.833708 
9 1.40197 1.32544 1.82113 0.313668 0 0 0 -0.524677 -0.595537 1.1855 
218 1.31592 1.40023 1.78918 0.309644 0 0 0 -0.538581 -0.471003 1.28622 
200 -0.243773 1.45154 1.90837 0.706231 0 0 0 -0.689945 -0.735865 -0.614247 
486 1.31685 1.26323 1.982 0.354057 0 0 0 0.423923 0.776943 1.34894 
98 0.192039 0.505965 2.67417 0.762683 0 0 0 -0.547789 -0.679279 -0.319409 
113 1.36474 -0.767759 2.84603 0.99332 0 0 0 -0.0519173 -0.877643 0.0551729 
114 -0.662821 0.667392 3.0988 1.0467 0 0 0 -0.730328 -0.208073 0.292161 
108 0.827864 -0.37505 3.19939 0.96703 0 0 0 -0.17966 -0.683321 0.269361 
163 0.568717 0.925247 2.79803 0.645969 0 0 0 -0.628994 -0.714734 0.303375 
60 0.824461 1.36372 3.15258 0.691634 0 0 0 0.333319 0.629429 0.835943 
117 0.983523 0.117896 3.70191 0.97882 0 0 0 -0.1291 -0.308782 0.718548 
51 0.407864 1.42257 2.78812 0.642072 0 0 0 -0.346586 0.249815 0.65679 
88 1.42973 0.53892 3.62921 0.869879 0 0 0 0.00638049 0.0152766 0.89494 
109 -0.52101 -0.195167 3.25587 1.19582 0 0 0 -0.575235 -0.438261 0.393264 
90 -0.819597 0.596004 2.78624 1.05283 0 0 0 -0.798705 -0.216512 0.112031 
91 0.794654 1.1685 3.90934 0.962244 0 0 0 -0.00640092 0.133375 0.951546 
227 1.33614 1.35544 2.76354 0.562284 0 0 0 -0.0936891 0.239781 -0.637919 
438 0.692846 1.45414 3.02108 0.66565 0 0 0 0.310313 0.681418 0.831906 
119 0.719812 0.0526567 3.43824 0.932511 0 0 0 -0.230066 -0.438123 0.511968 
430 1.20336 0.667928 2.80486 0.606695 0 0 0 -0.284899 -0.688804 0.484959 
96 1.21336 -0.443188 3.49594 1.03711 0 0 0 -0.0580965 -0.627555 0.498005 
121 -0.478884 0.852545 3.15732 0.981833 0 0 0 -0.686116 -0.196811 0.33756 
110 0.000526146 -0.17857 2.91004 0.989033 0 0 0 -0.415647 -0.545739 0.0950871 
120 -0.757151 1.33216 2.86286 0.982959 0 0 0 -0.855533 -0.0638535 0.19264 
104 0.101177 -0.598307 3.21263 1.14764 0 0 0 -0.345982 -0.642433 0.341684 
101 0.537344 0.503475 3.11842 0.786339 0 0 0 -0.405484 -0.525517 0.336943 
238 1.23272 1.23413 2.83499 0.574663 0 0 0 0.182206 0.586782 0.30431 
123 -0.316986 2.86792 -0.691705 1.18977 0 0 0 -0.540337 0.32979 -0.659816 
159 0.39783 3.05214 -0.625386 1.0548 0 0 0 -0.28572 0.503078 -0.690776 
142 1.18785 3.80509 -0.059618 1.05791 0 0 0 -0.106357 0.892009 -0.316697 
126 -0.541274 3.21742 0.184409 1.10844 0 0 0 -0.644969 0.551739 -0.319693 
127 0.80551 2.06303 -0.832086 0.949855 0 0 0 -0.270556 -0.262301 -0.886185 
158 0.896475 2.14782 -0.50246 0.825353 0 0 0 -0.343747 -0.410897 -0.874058 
143 -0.162424 2.5139 -0.788989 1.13562 0 0 0 -0.507471 0.116801 -0.735182 
149 1.11663 2.1868 -0.912537 0.958569 0 0 0 -0.152833 -0.115959 -0.939877 
151 1.36321 3.36621 0.288898 0.844524 0 0 0 0.0302178 0.95921 0.0450271 
274 1.33477 2.01645 -0.0268072 0.636671 0 0 0 -0.366982 -0.743736 -0.663852 
157 0.0134425 1.643 0.128941 0.82107 0 0 0 -0.21111 -0.666838 -0.103395 
156 -0.609027 1.93331 -0.650126 1.19061 0 0 0 -0.599144 -0.0660172 -0.549856 
130 0.986172 2.15088 0.267691 0.593015 0 0 0 -0.524942 -0.340159 -0.635011 
148 0.698616 1.49458 -0.23256 0.791591 0 0 0 -0.075025 -0.610813 0.0774281 
137 -0.708161 2.86987 0.246399 1.07807 0 0 0 -0.787214 0.323149 -0.310876 
138 0.424975 2.62752 -0.59378 0.963032 0 0 0 -0.356596 0.182122 -0.803839 
141 0.16003 1.997 -0.415258 0.914398 0 0 0 -0.476554 -0.434293 -0.67265 
140 0.862149 2.60215 -0.809084 0.979758 0 0 0 -0.192271 0.196975 -0.875609 
443 1.31898 2.0852 0.116077 0.599076 0 0 0 -0.363286 -0.428204 -0.737804 
444 1.48154 2.23981 0.0627831 0.620901 0 0 0 -0.259593 0.134125 -0.787054 
136 1.03226 1.8917 0.22151 0.59717 0 0 0 -0.148987 -0.793366 0.0687662 
268 1.46276 2.00807 0.113333 0.589761 0 0 0 -0.280094 -0.513189 -0.711777 
146 0.824174 2.05113 0.253742 0.615593 0 0 0 -0.451175 -0.790429 -0.379373 
180 0.816322 2.50706 0.789622 0.565313 0 0 0 -0.421998 1.2314 -0.29928 
190 0.821831 3.29161 1.17401 0.773674 0 0 0 0.338235 0.751385 0.367142 
178 -0.546735 3.08541 1.13917 0.97406 0 0 0 -0.646017 0.581689 -0.0204847 
220 0.899072 2.23257 1.45456 0.460906 0 0 0 -1.92835 -2.57294 -1.9628 
189 1.01701 2.26104 0.814596 0.487552 0 0 0 -0.947579 1.11263 -0.606367 
165 1.04879 2.30438 0.745466 0.502535 0 0 0 -0.82459 1.15656 -0.661795 
128 1.38577 3.34334 1.25181 0.793523 0 0 0 0.238314 -0.0104502 0.379261 
185 0.700688 3.36967 1.30718 0.807797 0 0 0 0.306452 0.749868 0.317382 
168 0.779367 2.05425 1.00595 0.471617 0 0 0 -0.205747 1.53643 0.706427 
186 -0.767698 1.72337 0.481582 0.98353 0 0 0 -0.740638 -0.285026 -0.211628 
170 0.556741 2.28227 0.54718 0.609206 0 0 0 -0.639419 -0.127211 -0.555092 
171 0.284591 3.56153 0.91582 0.929536 0 0 0 -0.124099 0.922007 0.0251818 
175 -0.673991 2.64647 1.34235 0.922315 0 0 0 -0.838153 0.285618 -0.0589381 
124 0.946513 2.13445 1.0301 0.44806 0 0 0 -1.03362 1.02046 -0.156157 
187 -0.341975 2.06187 0.381157 0.853132 0 0 0 -0.73264 -0.502036 -0.361219 
134 1.44029 2.99975 0.715261 0.686525 0 0 0 0.237593 0.772253 0.575623 
198 1.10454 2.48525 1.32488 0.519691 0 0 0 -1.07321 -2.52527 -1.23755 
426 1.5256 1.8097 1.03415 0.350828 0 0 0 0.374323 0.399484 0.236554 
147 1.22188 1.9207 1.15987 0.365564 0 0 0 -0.682085 -0.613325 0.427087 
133 1.04449 2.31189 0.324241 0.588103 0 0 0 -0.518646 0.365567 -0.734266 
188 0.398829 2.22613 0.467429 0.652192 0 0 0 -0.608897 -0.52806 -0.52544 
20 1.40121 1.64926 1.36986 0.284343 0 0 0 1.58821 -0.490998 -0.210408 
216 -0.0737809 2.3515 1.33666 0.682757 0 0 0 -0.676869 0.162976 -0.232999 
206 -0.71744 1.91108 1.19378 0.879572 0 0 0 -0.880915 -0.367042 -0.25032 
154 -0.28009 3.20781 0.526565 0.9784 0 0 0 -0.533192 0.672506 -0.188907 
144 1.30247 2.01087 0.912941 0.407618 0 0 0 -0.672866 1.05422 -0.238435 
423 1.18173 2.03444 0.97732 0.411241 0 0 0 -0.851371 1.06113 0.083432 
135 -0.226255 3.12139 0.410251 0.958211 0 0 0 -0.535661 0.632112 -0.247133 
192 0.529692 2.18854 0.465835 0.623395 0 0 0 -0.589971 -0.541642 -0.501819 
194 0.171577 2.21543 0.651668 0.670491 0 0 0 -0.636099 -0.568302 -0.480121 
196 0.990081 2.89059 1.10309 0.640601 0 0 0 0.388187 0.633294 0.419029 
203 0.532325 2.55462 0.54105 0.655195 0 0 0 -0.461091 0.623892 -0.448617 
150 1.41059 1.88556 0.988766 0.370978 0 0 0 2.87229 5.463 3.79052 
214 -0.0711033 1.80496 0.79184 0.711168 0 0 0 -0.190257 -1.00773 -0.172929 
425 1.42104 1.95119 0.905404 0.39439 0 0 0 -0.268481 0.94438 -0.302297 
48 0.228422 2.29403 0.623421 0.667391 0 0 0 -0.652843 -0.340626 -0.509609 
162 1.52738 1.51565 1.44983 0.254791 0 0 0 -0.400387 0.113573 0.320309 
177 0.870214 1.99607 1.31465 0.416626 0 0 0 -0.428072 0.917061 0.359006 
139 0.90101 3.94732 0.7486 1.02061 0 0 0 -0.0239459 0.908768 -0.0296463 
461 1.38949 1.75363 1.23162 0.316837 0 0 0 0.788779 0.0389102 0.353404 
210 0.26161 2.17599 0.847564 0.615999 0 0 0 -0.594605 -0.510711 -0.434906 
480 1.02343 2.02374 1.13293 0.409869 0 0 0 -0.664056 0.947529 0.473118 
28 1.05077 1.83854 1.40401 0.360317 0 0 0 0.745375 0.122641 0.746389 
489 0.558852 2.27473 1.21427 0.519894 0 0 0 -0.640042 0.85358 -0.177994 
4 1.22245 1.72084 1.42292 0.315213 0 0 0 1.31356 -0.333598 0.539047 
19 1.14084 2.47427 0.428792 0.58536 0 0 0 -0.345433 1.10182 -0.529075 
336 0.479585 2.37429 1.1893 0.555286 0 0 0 -0.451946 0.940808 -0.147878 
469 1.0405 2.01732 1.12836 0.406968 0 0 0 -0.64161 0.936146 0.52022 
308 0.417193 2.38389 1.20765 0.568908 0 0 0 -0.422019 0.883 -0.1444 
15 1.22459 1.8628 1.21613 0.350381 0 0 0 0.329912 0.109427 1.24215 
424 1.33272 2.62684 0.397187 0.61837 0 0 0 -0.0725393 1.2974 -0.162107 
7 1.37249 2.12815 0.709263 0.457161 0 0 0 -0.584487 1.11293 -1.16699 
174 1.2968 1.80757 1.23499 0.332179 0 0 0 0.573425 -0.124955 0.946381 
6 1.09486 1.81937 1.39359 0.350537 0 0 0 0.885981 -0.0217925 0.820429 
458 0.50935 2.15864 1.40969 0.50369 0 0 0 -0.692676 0.732839 -0.0556061 
433 1.53015 1.83936 0.985043 0.363364 0 0 0 0.317744 0.587873 0.0927904 
437 1.46749 2.04177 0.748698 0.434923 0 0 0 -0.336967 1.0171 -1.23233 
153 1.27973 1.81894 1.23334 0.335817 0 0 0 0.531811 -0.101199 1.03846 
286 1.4825 2.02989 0.75337 0.432212 0 0 0 -0.289553 0.996545 -1.23866 
195 0.960329 1.93965 1.32813 0.392723 0 0 0 -0.00415481 0.669691 0.653912 
399 1.51634 1.93623 0.866637 0.397933 0 0 0 -0.429558 0.219745 -1.13885 
354 0.503411 2.10106 1.49637 0.495893 0 0 0 -0.740962 0.714485 0.0203603 
372 1.50625 1.49957 1.49052 0.251512 0 0 0 -0.213058 0.0451156 0.264202 
164 0.232473 1.81996 1.47903 0.555413 0 0 0 -0.187062 -0.25106 -0.150824 
17 1.50459 1.49817 1.49392 0.251439 0 0 0 -0.188143 0.0475466 0.240316 
52 0.953888 1.86576 1.44847 0.38025 0 0 0 0.395541 0.462923 0.490531 
145 0.944092 3.68323 0.319779 0.962029 0 0 0 -0.0697339 0.942558 -0.136527 
256 0.558347 2.11604 1.73864 0.496382 0 0 0 -0.760122 0.519763 0.0906243 
495 1.0431 1.64388 1.68229 0.346147 0 0 0 0.726434 0.284277 0.134321 
248 0.868779 1.5629 1.93386 0.401683 0 0 0 -0.734065 0.724702 0.574559 
43 0.148919 2.3144 1.81884 0.623843 0 0 0 -0.186903 0.906603 0.491366 
76 0.906798 1.57912 1.88406 0.389081 0 0 0 -0.517995 0.646482 0.347145 
450 0.854476 1.64817 1.83468 0.397157 0 0 0 -0.471463 0.83285 0.32822 
166 1.19151 3.39112 1.71318 0.833435 0 0 0 0.31155 -0.18726 0.0848064 
70 0.97513 2.32044 2.30291 0.608754 0 0 0 0.37465 -1.55702 -1.46662 
199 -0.163992 2.48213 2.51655 0.815895 0 0 0 -0.221958 0.751758 0.499424 
223 -0.313712 3.51999 2.20263 1.0656 0 0 0 -0.342995 0.730769 0.185296 
201 -0.0323004 3.0138 1.68138 0.81564 0 0 0 -0.0812665 0.978491 0.267419 
243 0.900445 2.03172 2.39422 0.562177 0 0 0 0.102843 -1.11853 -1.3564 
191 0.402006 2.14628 2.61255 0.667711 0 0 0 0.537607 1.16211 0.686834 
204 0.494256 3.8316 2.13436 1.03917 0 0 0 0.0831372 0.663346 0.133752 
49 0.769417 1.87247 1.59107 0.417372 0 0 0 -0.38795 1.00494 0.294936 
160 0.914955 1.82328 1.54462 0.382719 0 0 0 0.276413 0.470667 0.187962 
207 0.78691 2.75748 2.50756 0.754782 0 0 0 0.726066 0.142276 -0.116916 
208 1.03097 2.3911 1.63945 0.518093 0 0 0 -1.29684 -4.15699 -2.32227 
209 0.529454 2.2009 1.58261 0.507847 0 0 0 -0.583125 0.778408 0.0883835 
447 0.197365 2.26425 2.14673 0.639122 0 0 0 0.0858191 1.11296 0.777293 
211 0.711173 3.69218 1.79547 0.943619 0 0 0 0.228623 0.561477 0.152199 
212 0.655032 3.2858 1.83326 0.81231 0 0 0 0.469036 0.508442 0.273233 
213 0.0678187 3.4769 2.25792 0.98074 0 0 0 -0.0320913 0.74834 0.229382 
490 1.46129 1.49805 1.53103 0.253854 0 0 0 1.29228 -0.711173 0.128607 
215 0.794994 3.88391 2.27497 1.06153 0 0 0 0.148999 0.502794 0.0716933 
184 1.5004 1.49456 1.50257 0.251402 0 0 0 -0.121579 0.0574076 0.171696 
55 0.266688 2.26505 1.5319 0.574509 0 0 0 -0.404407 0.671147 0.0856465 
505 0.361113 1.60465 2.26191 0.548762 0 0 0 -0.983698 0.18059 0.294852 
255 1.2108 2.61047 2.17651 0.668958 0 0 0 0.0489136 -2.31925 -1.57552 
479 0.0168442 2.36862 2.04038 0.686487 0 0 0 -0.169989 0.920348 0.583082 
173 -0.124533 1.91621 1.83532 0.659829 0 0 0 -0.837748 -0.402918 -0.215173 
318 0.349871 1.78873 2.07953 0.534862 0 0 0 -0.899013 0.413721 0.360442 
54 0.430617 1.94054 1.8001 0.50288 0 0 0 -0.875896 0.602249 0.28463 
34 0.259992 2.18277 1.85537 0.577331 0 0 0 -0.275822 0.845166 0.514623 
172 0.165964 2.12749 1.58858 0.582573 0 0 0 -0.6043 0.131421 -0.0735028 
229 1.08131 2.33348 2.53379 0.661705 0 0 0 0.497488 -1.05239 -1.40601 
234 1.04409 1.64647 1.67795 0.345828 0 0 0 0.744883 0.277168 0.135865 
252 1.15751 1.61768 1.62227 0.318147 0 0 0 1.06401 -0.25039 0.52465 
235 1.04833 1.62 1.71022 0.345715 0 0 0 0.626057 0.289129 0.162426 
29 0.843073 1.72179 1.74557 0.396694 0 0 0 -0.258797 0.877867 0.21612 
513 0.660691 1.56778 2.09005 0.460314 0 0 0 -1.20279 0.513733 0.742822 
241 1.06009 1.60521 1.72045 0.343451 0 0 0 0.600679 0.255503 0.207187 
38 0.320516 1.75881 2.2745 0.566249 0 0 0 -0.693065 0.511567 0.471377 
35 0.252084 1.76159 2.40264 0.603926 0 0 0 -0.543914 0.556809 0.510713 
30 0.500207 1.66022 2.12088 0.499531 0 0 0 -1.1076 0.44083 0.496595 
239 -0.586853 2.64441 2.57886 0.974139 0 0 0 -0.577168 0.458323 0.298067 
233 0.904608 1.60663 1.8497 0.386761 0 0 0 -0.399232 0.669482 0.256696 
75 0.829565 1.66229 1.83748 0.403139 0 0 0 -0.56413 0.86754 0.365788 
219 1.50021 1.49439 1.50297 0.251406 0 0 0 -0.1184 0.0579661 0.168294 
167 1.5004 1.49455 1.50259 0.251402 0 0 0 -0.12144 0.0574318 0.171548 
466 1.5002 1.49438 1.503 0.251406 0 0 0 -0.118172 0.0580065 0.168049 
471 1.50021 1.49439 1.50297 0.251406 0 0 0 -0.118444 0.0579583 0.168341 
36 1.50028 1.49445 1.50282 0.251404 0 0 0 -0.119619 0.0577516 0.169599 
278 1.50195 1.4959 1.49935 0.251391 0 0 0 -0.146724 0.0532306 0.198263 
37 1.50088 1.49497 1.50157 0.251396 0 0 0 -0.129492 0.056112 0.180032 
58 1.50159 1.49559 1.5001 0.251391 0 0 0 -0.14098 0.0542379 0.192121 
47 1.07812 1.7557 1.49969 0.343427 0 0 0 1.02042 -0.136276 0.347771 
477 1.50167 1.49566 1.49993 0.251391 0 0 0 -0.1422 0.0539485 0.19353 
355 1.50134 1.49537 1.50063 0.251392 0 0 0 -0.13681 0.054824 0.187864 
334 1.50104 1.49511 1.50125 0.251394 0 0 0 -0.131908 0.0556386 0.182684 
476 1.50097 1.49505 1.50139 0.251395 0 0 0 -0.130836 0.0558189 0.181548 
179 1.50088 1.49498 1.50157 0.251396 0 0 0 -0.129428 0.0560569 0.180056 
222 1.50059 1.49472 1.50219 0.251399 0 0 0 -0.12459 0.0568848 0.174909 
302 1.50065 1.49478 1.50205 0.251398 0 0 0 -0.125677 0.0566975 0.176067 
176 1.50066 1.49478 1.50204 0.251398 0 0 0 -0.125737 0.0566871 0.176131 
225 0.92281 2.39726 3.41235 0.888288 0 0 0 0.373679 0.377032 0.311799 
106 0.302739 2.02715 3.35323 0.857241 0 0 0 0.120792 0.569728 0.780084 
249 -0.498563 2.47087 2.81672 0.959173 0 0 0 -0.536685 0.431533 0.394131 
228 -0.108658 3.23446 3.60257 1.22453 0 0 0 -0.28162 0.494545 0.579487 
254 -0.486121 2.76307 3.5122 1.1744 0 0 0 -0.471136 0.385435 0.58495 
230 0.506969 3.71141 2.9996 1.13779 0 0 0 0.0269065 0.555023 0.264735 
231 0.569903 2.2762 3.57918 0.935089 0 0 0 0.214652 0.457929 0.68615 
242 0.544178 2.40527 3.25163 0.856903 0 0 0 0.388562 0.60595 0.516852 
246 -0.356555 2.01124 3.52012 1.04153 0 0 0 -0.460419 0.227394 0.669545 
464 0.277933 1.66567 2.73315 0.660817 0 0 0 -0.253197 0.600736 0.673425 
205 0.789508 1.62298 3.04757 0.674938 0 0 0 0.588805 0.90312 0.639759 
251 0.368726 3.45847 3.03809 1.07462 0 0 0 0.0473311 0.57484 0.331768 
105 -0.172735 1.52945 3.72936 1.04181 0 0 0 -0.383877 0.075503 0.777715 
250 0.796415 3.13054 3.39931 1.05192 0 0 0 0.168007 0.346714 0.31856 
244 1.25516 2.37352 3.45388 0.901675 0 0 0 0.225143 0.194213 0.0630351 
240 -0.316579 3.69299 3.4091 1.33894 0 0 0 -0.398565 0.574298 0.443192 
257 3.62637 1.21803 -0.278451 1.02738 0 0 0 0.662282 -0.0959424 -0.447612 
441 1.86625 1.15928 0.0293928 0.661003 0 0 0 -0.675375 -0.369662 0.601582 
288 3.67371 0.85792 0.0530706 0.991894 0 0 0 0.717084 -0.235561 -0.334334 
260 3.1323 0.827982 -0.609117 1.01911 0 0 0 0.333838 -0.274319 -0.675073 
261 3.52398 -0.100129 0.154679 1.093 0 0 0 0.502731 -0.634778 -0.330562 
276 2.55308 0.780195 -0.320851 0.838316 0 0 0 -0.251421 -0.566765 -0.547733 
427 2.22868 1.08023 0.208779 0.632712 0 0 0 -0.82242 -0.713987 -0.101776 
285 1.77615 0.218845 -0.0315082 0.864555 0 0 0 -0.185602 0.145297 0.517846 
436 2.35115 1.42219 -0.0512719 0.678328 0 0 0 -0.406557 -0.673971 -0.734141 
266 2.66025 0.93635 -0.843427 1.00718 0 0 0 0.0635735 -0.223775 -0.783954 
267 3.03037 0.60885 -0.0398111 0.865183 0 0 0 0.159059 -0.64376 -0.506135 
293 2.10191 1.07615 -0.870528 0.957156 0 0 0 -0.174106 -0.22363 -0.718726 
269 2.55512 0.949698 -0.706887 0.943091 0 0 0 -0.049512 -0.288857 -0.743543 
270 2.46766 0.612221 -0.432213 0.891629 0 0 0 -0.223502 -0.523991 -0.496712 
271 3.2313 -0.579433 -0.17608 1.23192 0 0 0 0.360722 -0.692763 -0.376339 
272 1.6467 0.823018 0.12851 0.702436 0 0 0 -0.205667 0.701067 1.55327 
284 2.0421 0.324118 -0.432478 0.936211 0 0 0 -0.243776 -0.335193 -0.149026 
290 2.38962 -0.690839 -0.214173 1.17656 0 0 0 0.0652886 -0.547447 -0.230053 
291 3.16122 0.334521 -0.492725 1.06555 0 0 0 0.325714 -0.499019 -0.575627 
294 3.06872 0.32758 0.682209 0.79401 0 0 0 0.101739 -0.942264 -0.433155 
23 1.96011 1.40534 1.23483 0.349079 0 0 0 -0.599627 -0.217051 0.0857782 
453 2.93384 0.913308 1.3622 0.602814 0 0 0 0.732837 -0.100575 0.132439 
18 1.90807 1.36094 1.34067 0.333034 0 0 0 -1.25072 0.0133062 0.29546 
298 2.04666 1.34271 1.25147 0.367169 0 0 0 -0.540434 -0.421535 0.0781943 
299 2.91921 0.965584 1.15319 0.600935 0 0 0 0.695798 -0.294017 -0.119158 
451 2.12579 1.28904 1.26587 0.385298 0 0 0 -0.254691 -0.637307 -0.0746766 
301 3.70182 0.535435 1.4268 0.900412 0 0 0 0.879134 -0.217175 0.0445926 
264 2.45148 0.855527 0.620125 0.597323 0 0 0 -0.523676 -0.843215 -0.416911 
445 2.28054 1.21985 1.24787 0.423472 0 0 0 0.555503 -0.751916 -0.307351 
304 2.19733 1.11985 1.1435 0.431067 0 0 0 2.27646 2.78641 2.37197 
41 2.86421 0.991059 0.872281 0.609245 0 0 0 0.493109 -0.669915 -0.497249 
306 1.99419 1.20525 1.4957 0.358717 0 0 0 -1.55157 -0.175079 0.0556493 
307 2.07216 1.04502 1.1928 0.425475 0 0 0 3.78046 7.11387 5.71566 
277 2.64747 1.39933 0.721805 0.54876 0 0 0 0.848629 -0.164914 -0.410687 
309 3.42368 0.409364 1.28612 0.825456 0 0 0 0.705409 -0.507602 -0.108081 
310 2.04761 -0.00925769 1.06794 0.725922 0 0 0 -0.566262 0.412289 0.0784912 
311 2.88348 1.04322 0.925477 0.602776 0 0 0 0.627626 -0.456728 -0.367889 
341 2.75568 1.06758 0.733254 0.594096 0 0 0 0.363305 -0.793595 -0.668214 
432 2.74186 1.44695 0.883125 0.554671 0 0 0 0.862996 0.249304 0.038874 
161 2.00056 1.43223 1.16426 0.363505 0 0 0 -0.070035 -0.338553 -0.117118 
182 2.69528 1.32605 0.523278 0.596686 0 0 0 0.459709 -0.519114 -0.622911 
316 2.92723 -0.308189 0.756846 0.924411 0 0 0 0.0547673 -0.866028 -0.307172 
317 3.34937 0.014791 0.768076 0.924398 0 0 0 0.394664 -0.767704 -0.28243 
275 3.4093 -0.82041 0.709982 1.195 0 0 0 0.430011 -0.788081 -0.184215 
33 2.65971 0.845093 1.48872 0.537872 0 0 0 0.731267 -0.584762 0.057677 
320 1.86541 0.0375313 0.931901 0.734203 0 0 0 -0.348788 1.04579 0.599281 
72 2.19326 1.16818 1.39318 0.403133 0 0 0 -0.136041 -0.76992 -0.0248049 
265 1.93826 -0.369082 0.732911 0.882172 0 0 0 -0.204915 0.0532954 0.157711 
501 2.42646 1.15684 1.21412 0.460777 0 0 0 0.925104 -0.612908 -0.32612 
56 2.5703 0.702987 0.532525 0.656289 0 0 0 -0.587875 -1.04466 -0.472243 
325 2.33716 1.10413 1.34222 0.440662 0 0 0 0.761402 -0.601287 0.0304503 
287 2.41139 -0.366537 0.555639 0.915704 0 0 0 -0.19078 -0.554731 -0.138709 
327 3.3612 1.249 1.48977 0.729282 0 0 0 0.602858 0.610919 0.465242 
329 1.95981 0.208871 1.14449 0.655284 0 0 0 -0.514401 1.36136 0.567948 
428 2.78133 0.813915 1.48194 0.571737 0 0 0 0.696734 -0.434587 0.0856525 
31 2.45657 0.720507 0.487633 0.649595 0 0 0 -0.729148 -0.862213 -0.283681 
283 1.78568 0.844306 0.902962 0.529925 0 0 0 2.21501 7.11751 5.72956 
326 2.49871 1.10644 1.22629 0.479727 0 0 0 0.91773 -0.587096 -0.275466 
470 3.20794 1.21787 1.38465 0.67538 0 0 0 0.604927 0.650644 0.479884 
313 2.78304 0.83726 1.4233 0.569373 0 0 0 0.688845 -0.469773 0.0304892 
457 1.88294 1.3176 1.42382 0.328054 0 0 0 -1.57496 0.173468 0.325435 
455 2.09929 1.46728 1.04026 0.396738 0 0 0 0.737335 -0.566882 -0.64479 
422 2.35313 1.29626 1.0816 0.446574 0 0 0 1.0342 -0.563879 -0.623648 
456 2.55983 0.341729 1.38463 0.628054 0 0 0 -0.349835 -1.08266 -0.53046 
474 1.85406 1.42 1.30336 0.322765 0 0 0 -0.756447 0.168793 0.00898185 
300 3.62897 -0.222319 1.47508 1.02441 0 0 0 0.628927 -0.62831 -0.0936838 
478 2.35708 1.45326 0.867203 0.466215 0 0 0 1.20525 -0.344452 -0.8127 
340 1.70263 1.43604 1.41147 0.286351 0 0 0 -0.969016 0.607229 -0.388307 
281 1.70783 0.0068438 0.314216 0.851724 0 0 0 -0.0686653 0.52507 0.73644 
333 2.95213 0.625806 2.57619 0.753149 0 0 0 0.71317 0.398761 0.502293 
323 1.96023 1.06257 1.74773 0.38267 0 0 0 -0.574193 -0.518593 -0.531204 
335 2.66602 0.847278 2.44812 0.646094 0 0 0 0.592436 0.83272 0.530742 
491 1.78687 1.17973 1.7055 0.338068 0 0 0 -0.880205 0.102383 -0.515587 
337 2.05362 -0.945725 1.91696 0.993529 0 0 0 -0.0302119 -0.872255 -0.198429 
338 3.03182 0.240145 2.16305 0.772455 0 0 0 0.621381 -0.400491 0.185015 
339 1.79311 0.243026 1.69179 0.597996 0 0 0 -0.162264 1.31185 -0.0847147 
370 1.65925 -0.976652 2.59511 1.0346 0 0 0 -0.0037204 -0.913982 -0.00498709 
452 2.42607 0.244127 1.74988 0.624614 0 0 0 -0.262867 -1.04642 -0.489073 
295 2.09994 0.574212 2.39619 0.559712 0 0 0 0.422641 -0.554894 0.449775 
296 2.19624 1.05236 1.56909 0.416346 0 0 0 0.052509 -0.767631 0.00165292 
344 2.37282 0.9608 1.94511 0.493171 0 0 0 0.094637 -0.747945 -0.195007 
345 3.40708 1.06476 2.12278 0.79571 0 0 0 0.617707 0.513861 0.408944 
346 2.01393 0.96027 1.86444 0.41594 0 0 0 0.212489 -0.860796 0.00191173 
364 1.68475 1.12265 1.87405 0.355485 0 0 0 0.0337302 -0.642639 -0.440967 
348 3.88722 1.46542 2.1892 0.984174 0 0 0 0.623102 0.14507 0.180689 
331 2.11756 0.995945 1.72374 0.415842 0 0 0 0.0795209 -0.764418 -0.0602099 
350 2.36019 -0.0946059 1.6119 0.719204 0 0 0 -0.476413 -0.84711 -0.611087 
351 1.77258 1.2331 1.64011 0.323701 0 0 0 -1.06181 0.264956 -0.192454 
352 2.46185 0.668521 2.2626 0.582333 0 0 0 0.676363 0.0573141 0.582528 
363 2.55574 -0.637624 2.03573 0.923299 0 0 0 0.0626251 -0.993197 -0.189403 
45 1.68419 1.14928 1.83489 0.346042 0 0 0 -0.0692542 -0.451373 -0.387309 
365 1.6938 0.222897 2.39009 0.619916 0 0 0 -0.246771 -1.20422 -0.522465 
356 3.26093 1.43479 2.49168 0.819987 0 0 0 0.0772048 0.442798 0.10864 
357 2.16286 1.0865 2.24831 0.502364 0 0 0 -1.19525 -1.26629 -1.34789 
358 2.14803 0.6664 2.60498 0.595299 0 0 0 0.56058 0.181471 0.638776 
359 3.56757 -0.600351 2.21029 1.1353 0 0 0 0.571194 -0.671622 0.0263262 
360 1.95003 0.186191 2.18312 0.617078 0 0 0 -0.29913 -1.06732 -0.548421 
361 2.06205 -0.717431 1.53364 0.916868 0 0 0 -0.165968 -0.667987 -0.288189 
362 2.41713 0.274348 1.96776 0.621372 0 0 0 -0.0196185 -1.05126 -0.26689 
460 1.97018 1.14592 1.60674 0.364135 0 0 0 -1.33179 -0.186254 -0.367974 
303 2.32215 1.05423 1.64055 0.44636 0 0 0 -0.243794 -1.64986 -0.782071 
393 1.97008 -0.328921 2.07153 0.770049 0 0 0 -0.341792 -0.895137 -0.523358 
324 2.45377 0.691628 1.9828 0.539929 0 0 0 0.658951 -0.447216 0.399809 
312 3.14154 1.31987 1.96638 0.699458 0 0 0 -0.0356533 0.799491 0.326159 
375 1.79871 0.918458 2.0944 0.426675 0 0 0 0.572403 -1.16249 0.509355 
459 2.65915 0.457157 1.80806 0.612564 0 0 0 0.369618 -0.819353 -0.0486788 
62 1.74291 1.05768 1.9291 0.377706 0 0 0 0.103516 -0.930991 -0.414934 
380 2.33975 0.664182 2.34272 0.573093 0 0 0 0.614345 -0.00926099 0.600934 
485 1.68786 1.16812 1.80446 0.339539 0 0 0 -0.171972 -0.32213 -0.330428 
510 2.07899 0.979134 1.78211 0.415852 0 0 0 0.124211 -0.791988 -0.0555617 
497 1.81804 0.609482 2.48231 0.54285 0 0 0 0.301628 -0.771582 0.409416 
347 1.77136 -0.881262 1.97401 0.962734 0 0 0 -0.0895683 -0.786565 -0.247527 
377 3.60723 1.30346 2.5684 0.933681 0 0 0 0.514243 0.272029 0.238895 
314 2.71491 0.74678 1.72331 0.570735 0 0 0 0.739709 -0.292772 0.267006 
388 1.7547 1.18522 1.72428 0.334976 0 0 0 -0.686804 0.0363861 -0.441912 
315 2.63579 0.314007 1.72365 0.638919 0 0 0 0.0537978 -1.04207 -0.326303 
472 2.09293 0.870488 1.94172 0.448093 0 0 0 0.491684 -0.963488 0.346193 
483 1.82859 0.756595 2.34807 0.493684 0 0 0 0.439363 -0.869973 0.607104 
481 2.18419 0.922713 1.7832 0.441244 0 0 0 0.450435 -0.865696 0.161264 
53 1.96945 0.837123 2.09145 0.454928 0 0 0 0.523546 -1.05336 0.546253 
484 1.5969 0.907438 2.25911 0.443747 0 0 0 0.520643 -1.21086 0.880193 
384 3.3199 -0.64218 2.68997 1.13434 0 0 0 0.468071 -0.689853 0.149527 
79 1.68551 1.09273 1.92022 0.36669 0 0 0 0.137706 -0.882887 -0.419407 
492 1.57913 1.14675 1.92413 0.353495 0 0 0 0.285132 -0.823664 -0.0686238 
102 1.57313 0.883409 2.31387 0.45629 0 0 0 0.432699 -1.15587 0.886053 
353 2.07856 1.26353 2.64018 0.588622 0 0 0 -0.784953 0.435463 -1.2651 
462 2.05822 1.16867 1.5 0.374842 0 0 0 -1.12477 -0.441448 -0.00750711 
366 3.18681 0.394559 3.69956 1.11941 0 0 0 0.42785 -0.0589636 0.661256 
89 1.72107 0.843361 2.90213 0.612809 0 0 0 0.333678 0.563419 0.677285 
368 3.28497 -0.261777 3.55747 1.21015 0 0 0 0.427467 -0.424277 0.520477 
369 3.64678 0.246238 3.45704 1.1909 0 0 0 0.608266 -0.163268 0.482317 
378 2.68148 0.577429 2.86987 0.757392 0 0 0 0.589609 0.356557 0.599837 
389 2.14752 0.922805 3.36328 0.790333 0 0 0 0.301164 0.639933 0.697746 
95 1.59937 0.244862 3.84569 0.991726 0 0 0 0.0259943 -0.174654 0.844421 
373 1.65834 -0.0884611 2.8068 0.767134 0 0 0 -0.127107 -0.98399 -0.0239016 
390 2.59699 1.19523 3.71533 0.975797 0 0 0 0.204645 0.334118 0.633325 
86 1.82023 1.15323 3.19897 0.705231 0 0 0 0.238569 0.999388 0.374342 
376 2.3167 1.03751 3.19033 0.758194 0 0 0 0.302533 0.831227 0.47405 
391 3.65086 0.0254028 3.455 1.22492 0 0 0 0.59152 -0.276209 0.462933 
236 1.54662 0.573469 2.76919 0.603728 0 0 0 0.0079624 -0.614124 0.469208 
379 2.2848 0.0643882 2.74733 0.757383 0 0 0 0.197678 -0.711357 0.26304 
392 3.16307 0.164081 2.91473 0.933109 0 0 0 0.56188 -0.181144 0.368099 
381 3.33651 -0.184166 3.45156 1.17626 0 0 0 0.468461 -0.388441 0.486801 
115 1.62185 0.856729 2.99928 0.635537 0 0 0 0.269732 0.566779 0.73845 
386 3.19116 1.24291 3.66153 1.08252 0 0 0 0.343941 0.202035 0.542285 
97 1.83972 0.614675 2.73122 0.599049 0 0 0 0.341743 -0.192297 0.590658 
385 2.36353 -0.0875429 3.34842 0.945013 0 0 0 0.184309 -0.438183 0.551905 
413 2.04561 3.55204 0.256291 0.937594 0 0 0 0.0167839 0.82688 0.106749 
396 3.29248 3.22369 0.0353789 1.0748 0 0 0 0.396755 0.490321 -0.151132 
417 1.86394 3.11945 -0.42152 0.938948 0 0 0 0.0259727 0.635525 -0.497426 
398 3.25696 2.67494 0.143852 0.921572 0 0 0 0.465728 0.363352 -0.024808 
418 3.60253 2.06813 -0.0315395 0.979935 0 0 0 0.668182 0.10328 -0.267779 
400 3.51106 2.53616 -0.069359 1.01263 0 0 0 0.566668 0.207827 -0.261319 
420 1.73365 2.37769 -0.458366 0.802559 0 0 0 0.0173773 0.149963 -0.821974 
414 2.02101 2.40556 -0.00567503 0.688316 0 0 0 0.194027 0.747595 -0.386225 
416 2.84934 3.42506 -0.151611 1.0695 0 0 0 0.20737 0.613225 -0.261568 
404 3.3127 3.00276 -0.201169 1.07257 0 0 0 0.424777 0.366711 -0.332239 
415 3.39604 3.43407 0.0890907 1.15433 0 0 0 0.404615 0.538801 -0.151414 
322 1.89506 1.81395 -0.137584 0.663463 0 0 0 -0.322314 -0.680455 -0.73657 
407 3.49973 1.68272 -0.386592 1.01346 0 0 0 0.577606 0.0301378 -0.50284 
408 2.0203 1.93863 -0.607184 0.832005 0 0 0 -0.0249686 -0.176081 -0.869666 
202 2.56613 1.60661 0.174902 0.644143 0 0 0 0.24279 -0.252921 -0.7042 
410 3.59069 2.9862 -0.00985191 1.11004 0 0 0 0.546398 0.338195 -0.221805 
411 1.93646 3.67859 -0.355093 1.08848 0 0 0 -0.0202915 0.765222 -0.418135 
289 2.40056 1.93837 0.244711 0.614264 0 0 0 0.514103 0.450135 -0.390123 
262 1.74618 2.15121 0.279793 0.555168 0 0 0 0.0127175 0.577639 -0.810503 
12 2.05403 1.71887 0.758038 0.438056 0 0 0 1.01309 -0.0352762 -1.31531 
419 2.13204 2.72408 0.899586 0.661815 0 0 0 -0.342911 -0.253316 0.907363 
406 2.42478 3.61753 0.659942 0.970487 0 0 0 -0.0178991 0.633411 0.325807 
5 1.83387 1.60258 1.06898 0.35052 0 0 0 0.518105 -0.00482333 -0.439389 
282 2.10939 1.7138 0.7252 0.451017 0 0 0 1.02958 -0.00762028 -1.22507 
332 2.94217 1.87249 1.48281 0.658017 0 0 0 -1.34662 0.0500507 0.272332 
273 1.97812 2.02246 0.498344 0.505727 0 0 0 0.418157 0.71572 -0.889699 
465 1.55317 1.80293 1.02062 0.352751 0 0 0 0.423433 0.413139 0.116503 
473 2.46735 1.59649 0.666432 0.518462 0 0 0 0.967261 0.0092668 -0.462014 
431 2.32608 2.05447 0.519981 0.560179 0 0 0 0.72405 0.993819 0.163107 
14 1.55419 1.93329 0.828385 0.405067 0 0 0 0.0452484 0.830767 -0.972267 
292 1.85025 1.93215 0.623197 0.458612 0 0 0 0.520203 0.633275 -1.45569 
434 2.75645 2.12254 0.776661 0.640351 0 0 0 0.275918 0.828468 0.976975 
435 2.27548 2.78875 1.36395 0.724153 0 0 0 -1.28374 -1.59757 0.0353063 
449 1.78492 1.65286 1.04032 0.351594 0 0 0 0.619948 0.0966861 -0.444165 
397 2.83484 3.18348 0.75131 0.894631 0 0 0 -0.0118956 0.462727 0.500417 
503 1.69433 1.53292 1.28278 0.296977 0 0 0 0.0869168 0.668202 -1.17538 
439 2.23608 1.68881 0.721613 0.470072 0 0 0 0.997421 -0.149411 -1.01175 
440 3.40613 2.58476 1.18372 0.890002 0 0 0 0.0148032 0.22599 0.341524 
321 3.75635 1.95027 1.30417 0.908667 0 0 0 0.52274 0.204467 0.235071 
442 2.01408 1.55506 0.987739 0.389569 0 0 0 0.846752 -0.376253 -0.680721 
280 3.36552 1.92081 0.844519 0.776136 0 0 0 0.563159 0.495312 0.460946 
409 2.06936 2.09247 1.00962 0.487082 0 0 0 -3.00237 -4.83845 -2.50934 
132 1.60202 2.674 1.2318 0.597754 0 0 0 -0.896874 -2.87815 -0.340903 
412 3.37692 2.95078 0.915984 0.958067 0 0 0 0.185442 0.354269 0.329061 
467 2.39566 1.7078 0.607562 0.518877 0 0 0 0.911658 0.1849 -0.454097 
475 1.63586 1.75674 1.01821 0.351082 0 0 0 0.571784 0.319994 -0.170144 
297 1.88583 2.11885 0.468265 0.516637 0 0 0 0.269567 0.900458 -0.8109 
258 1.88163 2.0785 0.490082 0.505803 0 0 0 0.292662 0.819119 -0.959261 
21 1.95024 1.79309 0.736987 0.433786 0 0 0 0.834922 0.192521 -1.45169 
155 1.57048 2.57303 1.0308 0.556276 0 0 0 -0.930816 -1.97382 -0.346332 
152 1.64318 3.26844 0.896397 0.775455 0 0 0 0.145043 0.320244 0.577046 
330 3.25835 2.11222 1.26292 0.765142 0 0 0 -0.227407 0.346548 0.517376 
50 2.10971 2.0188 0.461294 0.528913 0 0 0 0.523284 0.760767 -0.5241 
11 1.827 1.65768 0.998589 0.364158 0 0 0 0.725956 0.0561384 -0.479235 
221 3.06292 2.07824 0.89301 0.704358 0 0 0 0.191706 0.675881 0.805535 
74 3.0486 1.89688 0.613141 0.69712 0 0 0 0.733929 0.698606 0.481374 
446 2.36993 1.57697 0.416036 0.551073 0 0 0 0.338357 -0.38125 -0.777635 
395 2.2081 3.17316 0.332808 0.823204 0 0 0 0.0906723 0.789278 0.380116 
259 2.6154 1.55377 0.447522 0.589887 0 0 0 0.615092 -0.134985 -0.484159 
421 3.45212 3.42163 0.546131 1.11866 0 0 0 0.356761 0.514225 0.0955145 
454 1.56662 1.58655 1.31649 0.280872 0 0 0 0.559297 0.530547 -1.02827 
46 1.85724 1.59487 1.06018 0.354941 0 0 0 0.538997 -0.0521451 -0.419208 
342 1.94864 1.51663 1.09143 0.362944 0 0 0 0.365519 -0.248017 -0.311654 
468 1.84503 1.61503 1.04262 0.356901 0 0 0 0.604957 -0.0199361 -0.435529 
3 1.71464 1.71188 1.01633 0.352867 0 0 0 0.641731 0.223051 -0.361669 
305 1.96778 2.68476 0.388917 0.661758 0 0 0 0.243338 1.21749 0.507547 
197 2.25482 2.3121 0.348901 0.622002 0 0 0 0.537119 1.2149 0.278957 
405 2.37908 2.74231 0.381575 0.727045 0 0 0 0.265644 0.922377 0.602317 
401 2.75365 3.61333 0.332402 1.03903 0 0 0 0.115523 0.715404 0.107315 
13 1.55311 1.67704 1.20137 0.307976 0 0 0 0.785256 0.491518 -0.794695 
387 2.43189 1.68887 2.1791 0.610117 0 0 0 -3.33268 -1.77734 -2.9576 
482 2.51487 2.75821 2.0488 0.826883 0 0 0 -1.56777 -1.3339 -0.988788 
463 2.97195 2.60116 1.62743 0.818331 0 0 0 -1.07679 -0.446853 -0.0860652 
394 2.64217 1.6578 2.44453 0.691169 0 0 0 -1.51708 -0.0734208 -1.27247 
319 3.26548 1.82336 1.59356 0.744787 0 0 0 -0.412118 0.388311 0.342376 
500 3.11263 2.32837 2.11933 0.848982 0 0 0 -0.956568 -0.383037 -0.424588 
487 2.72995 2.14152 2.33656 0.768562 0 0 0 -1.73827 -0.883141 -1.23838 
502 2.94167 3.12339 2.45848 1.05466 0 0 0 -0.570336 -0.288434 -0.388155 
499 3.04773 2.90835 2.59199 1.0427 0 0 0 -0.532299 -0.292068 -0.370324 
429 3.27854 2.24372 1.5145 0.807218 0 0 0 -0.495929 0.0821243 0.23996 
504 1.83956 1.98449 2.3036 0.597552 0 0 0 -3.80763 -5.34079 -5.67669 
383 3.18367 1.5004 2.61693 0.827667 0 0 0 -0.0343939 0.389497 0.0164103 
99 1.58531 1.59037 3.49474 0.813437 0 0 0 0.149988 0.61935 0.283839 
382 2.94579 1.66321 3.32611 0.956236 0 0 0 0.0216793 0.231212 0.173935 
374 2.17945 1.70019 3.15936 0.782231 0 0 0 -0.40898 0.359919 -0.575192 
367 2.15103 1.73257 3.16272 0.78398 0 0 0 -0.427404 0.315488 -0.617723 
512 1.68195 3.18105 2.91328 0.986986 0 0 0 -0.181813 -0.379595 -0.491412 
498 3.03601 3.15207 3.07828 1.20085 0 0 0 -0.264345 -0.140538 -0.154729 
508 2.36176 2.26392 2.93277 0.848653 0 0 0 -1.00142 -0.572079 -1.04114 
488 2.76679 3.03525 3.02365 1.10813 0 0 0 -0.447061 -0.241923 -0.294049 
100 1.61345 1.74365 3.65537 0.886142 0 0 0 0.0867505 0.432672 0.364276 
245 1.53525 1.87342 3.55191 0.862726 0 0 0 0.113813 0.405968 0.174806 
ITEM: TIMESTEP
740919
ITEM: NUMBER OF ATOMS
512
ITEM: BOX BOUNDS ss ss ss
-8.1988304040437454e-01 3.8875120101141034e+00
-9.7693552394909078e-01 3.9476017366228966e+00
-9.1281994132074906e-01 3.9096273972560476e+00
ITEM: ATOMS id x y z width_SPH x_COM y_COM z_COM vx vy vz 
263 1.46291 0.88658 -0.255336 0.797052 0 0 0 -0.184384 0.0652846 0.617667 
403 1.47176 1.28214 -0.572766 0.836229 0 0 0 -0.296151 -0.41789 -0.281604 
25 0.482325 0.121032 0.00277543 1.02263 0 0 0 0.431071 0.529143 0.569942 
279 1.31897 1.03444 -0.484999 0.850875 0 0 0 -0.189052 -0.1658 0.10689 
402 1.48864 1.32749 -0.648027 0.856461 0 0 0 -0.2815 -0.409927 -0.421818 
16 0.28397 0.665584 0.14802 0.902203 0 0 0 0.586607 0.59204 0.780374 
8 0.54885 0.851566 0.116522 0.825729 0 0 0 0.734506 0.682663 1.15151 
131 1.20623 1.40831 0.666072 0.51759 0 0 0 4.80209 6.68648 7.3854 
217 -0.458206 1.32447 1.07566 0.827558 0 0 0 -0.140205 -0.412275 -0.139891 
2 -0.191094 0.578917 0.378226 0.976755 0 0 0 0.269484 0.355316 0.381151 
24 0.947316 0.538077 0.655912 0.73203 0 0 0 1.69008 2.78533 2.58771 
129 -0.0272389 1.21936 0.471868 0.809151 0 0 0 0.46498 -0.111319 0.50437 
224 -0.038173 1.2323 1.0979 0.718726 0 0 0 1.00094 -0.0777412 0.267237 
78 0.717489 0.416287 1.446 0.684304 0 0 0 2.0861 2.9475 0.72589 
67 0.0566801 0.170707 1.35969 0.867432 0 0 0 0.646872 0.692238 0.00585609 
22 1.10961 0.78226 0.476542 0.689886 0 0 0 1.54623 2.71455 3.19774 
125 0.0919221 1.14992 0.334149 0.817637 0 0 0 0.529052 0.0432047 0.639744 
10 0.362732 0.340208 0.337056 0.920791 0 0 0 0.74327 0.865788 0.897126 
68 -0.629258 1.10997 1.49534 0.8723 0 0 0 -0.401475 -0.268309 -0.303183 
116 -0.467662 -0.224837 2.43602 1.06883 0 0 0 -0.510447 -0.413943 -0.0581832 
39 1.33122 1.26246 1.96203 0.349428 0 0 0 -0.24822 -0.392763 0.562035 
57 -0.136591 -0.184233 1.60661 0.978298 0 0 0 0.0863105 0.0850663 -0.196874 
111 1.47859 0.661618 1.94949 0.479304 0 0 0 3.06065 4.57999 2.61097 
59 0.836231 1.31492 2.27397 0.459129 0 0 0 -1.05523 -0.0553223 0.98507 
183 0.484314 1.33661 2.61272 0.586945 0 0 0 -0.675421 -0.0650093 0.479691 
80 1.06797 1.32418 2.08948 0.39489 0 0 0 -0.907336 0.0277769 0.821306 
103 -0.666449 -0.192849 2.21681 1.11079 0 0 0 -0.541717 -0.319408 -0.0821354 
63 -0.481046 0.335769 1.67077 0.939106 0 0 0 -0.201758 0.0269393 -0.274236 
64 0.692276 1.25101 1.95541 0.46814 0 0 0 1.81271 3.52157 2.44696 
65 1.41229 1.12562 2.09167 0.384753 0 0 0 0.113508 -1.07848 0.468897 
66 0.536324 -0.153296 1.5622 0.845278 0 0 0 0.649451 0.683621 -0.164171 
27 1.41507 1.3286 1.80372 0.309629 0 0 0 -0.411551 -0.393658 1.39395 
343 1.489 1.48457 1.52633 0.252367 0 0 0 0.0620356 0.089073 -0.0237491 
69 0.578508 1.29327 2.42893 0.533073 0 0 0 -0.969992 -0.283508 0.404178 
82 0.156001 0.76012 1.618 0.699974 0 0 0 1.16231 0.799997 -0.325272 
71 0.319325 -0.0268598 1.59758 0.843494 0 0 0 0.618236 0.6133 -0.223023 
509 1.47935 1.4766 1.54574 0.254225 0 0 0 0.18244 0.0867053 -0.118273 
226 0.739719 1.28996 2.43124 0.50412 0 0 0 -0.860262 -0.174971 0.697977 
511 1.41956 1.17052 2.0196 0.366044 0 0 0 0.0941892 -0.908657 0.297271 
118 0.968937 0.167091 2.50851 0.690237 0 0 0 -0.380101 -0.897097 -0.669413 
26 1.04232 1.47276 1.91231 0.366375 0 0 0 -0.425583 0.305327 0.348142 
77 0.568463 0.474335 2.28658 0.658595 0 0 0 -0.193261 -0.4875 -0.883517 
92 0.627969 -0.707376 2.33072 0.983501 0 0 0 -0.056269 -0.633964 -0.231832 
107 0.249773 0.442635 2.19694 0.72425 0 0 0 -0.0884624 -0.275264 -0.803413 
122 1.04947 0.384895 2.37967 0.613128 0 0 0 -0.287004 -0.858505 -0.736356 
94 1.18309 0.612661 2.42577 0.545584 0 0 0 -0.173024 -1.01253 -0.0157987 
247 0.952664 1.10213 2.48174 0.497488 0 0 0 -0.611935 -0.522918 0.847345 
73 1.44161 0.794428 2.54929 0.516407 0 0 0 0.0603577 -0.778577 0.68512 
87 0.756026 0.283347 2.07373 0.669735 0 0 0 0.352346 0.328737 -0.886047 
84 -0.667108 1.05545 2.40896 0.902829 0 0 0 -0.847648 -0.267152 -0.180989 
507 1.18214 1.13119 2.2489 0.425771 0 0 0 -0.485956 -0.575607 1.2412 
169 1.39493 0.991792 2.28373 0.436528 0 0 0 0.174924 -1.07738 1.11083 
85 0.770573 -0.606566 1.99598 0.927264 0 0 0 0.0904888 -0.34143 -0.356416 
371 1.36018 0.868785 2.51445 0.500149 0 0 0 -0.0254011 -0.820969 0.806141 
448 0.609042 1.2891 1.89857 0.483821 0 0 0 1.71745 3.16724 1.99173 
328 0.993111 0.774311 2.21876 0.511073 0 0 0 0.604094 0.591783 0.631526 
112 0.97345 1.266 2.2244 0.433461 0 0 0 -0.947405 -0.0536095 1.19685 
40 0.542465 1.29074 2.42961 0.540921 0 0 0 -0.994475 -0.331636 0.322508 
496 1.48486 1.48105 1.5348 0.253068 0 0 0 0.119655 0.0927533 -0.0759742 
42 1.22245 1.29781 2.00116 0.362852 0 0 0 -0.557097 -0.188649 0.501248 
237 1.1156 1.25582 2.14125 0.402224 0 0 0 -0.810529 -0.183995 0.9835 
494 1.38749 1.1901 2.0175 0.364349 0 0 0 -0.0150105 -0.801148 0.357377 
181 0.316497 1.14153 2.56082 0.627438 0 0 0 -0.95783 -0.732088 -0.0855111 
81 -0.121096 -0.621645 2.09638 1.08734 0 0 0 -0.196992 -0.422689 -0.131277 
83 1.18469 -0.506689 2.52987 0.870696 0 0 0 -0.14238 -0.821284 -0.309915 
232 0.998005 1.01239 2.54917 0.515986 0 0 0 -0.467535 -0.616708 0.771081 
93 -0.508154 0.844908 2.0297 0.851665 0 0 0 -0.540505 -0.298775 -0.444173 
61 1.51203 0.359935 1.94817 0.56653 0 0 0 0.589559 1.39728 -0.113145 
349 1.50386 -0.381649 1.57127 0.808644 0 0 0 -0.129198 0.234016 -0.291421 
253 1.16405 1.08585 2.39571 0.460851 0 0 0 -0.611566 -0.906995 0.937582 
193 -0.727532 1.42163 1.55279 0.877437 0 0 0 -0.696321 -0.372885 -0.303486 
506 1.46209 1.27674 1.83872 0.320019 0 0 0 -0.221746 -0.637765 0.942549 
44 -0.248208 1.37175 1.89731 0.712934 0 0 0 -0.599092 -0.71759 -0.652022 
32 1.23784 1.37168 1.88979 0.337 0 0 0 -0.418005 -0.0102864 0.780439 
493 1.20601 1.42553 1.84334 0.331299 0 0 0 -0.25159 0.0107593 0.833727 
9 1.40197 1.32544 1.82113 0.313668 0 0 0 -0.524685 -0.595535 1.18552 
218 1.31592 1.40023 1.78918 0.309644 0 0 0 -0.538583 -0.471002 1.28624 
200 -0.243773 1.45154 1.90837 0.706232 0 0 0 -0.68994 -0.735866 -0.614248 
486 1.31685 1.26323 1.98201 0.354058 0 0 0 0.423744 0.776666 1.34873 
98 0.192038 0.505965 2.67417 0.762684 0 0 0 -0.547788 -0.679279 -0.31941 
113 1.36474 -0.76776 2.84603 0.99332 0 0 0 -0.051918 -0.877643 0.0551724 
114 -0.662822 0.667392 3.0988 1.0467 0 0 0 -0.730327 -0.208074 0.292161 
108 0.827864 -0.37505 3.19939 0.96703 0 0 0 -0.179661 -0.683321 0.269361 
163 0.568716 0.925246 2.79803 0.645969 0 0 0 -0.628993 -0.714736 0.303373 
60 0.824461 1.36372 3.15258 0.691635 0 0 0 0.333321 0.629431 0.835943 
117 0.983523 0.117895 3.70191 0.978821 0 0 0 -0.1291 -0.308782 0.718547 
51 0.407863 1.42257 2.78812 0.642072 0 0 0 -0.346583 0.249815 0.656792 
88 1.42973 0.53892 3.62921 0.869879 0 0 0 0.0063798 0.015277 0.894938 
109 -0.521011 -0.195167 3.25587 1.19582 0 0 0 -0.575234 -0.438261 0.393263 
90 -0.819598 0.596004 2.78624 1.05283 0 0 0 -0.798703 -0.216512 0.112031 
91 0.794653 1.1685 3.90935 0.962245 0 0 0 -0.00640092 0.133376 0.951545 
227 1.33614 1.35544 2.76354 0.562284 0 0 0 -0.0936922 0.239785 -0.63792 
438 0.692846 1.45415 3.02108 0.66565 0 0 0 0.310316 0.68142 0.831907 
119 0.719811 0.0526562 3.43824 0.932512 0 0 0 -0.230066 -0.438123 0.511967 
430 1.20336 0.667927 2.80486 0.606696 0 0 0 -0.284902 -0.688804 0.484957 
96 1.21336 -0.443189 3.49594 1.03711 0 0 0 -0.0580972 -0.627555 0.498004 
121 -0.478884 0.852545 3.15732 0.981833 0 0 0 -0.686114 -0.196811 0.337559 
110 0.00052573 -0.178571 2.91004 0.989034 0 0 0 -0.415647 -0.54574 0.0950869 
120 -0.757152 1.33216 2.86286 0.982959 0 0 0 -0.855531 -0.0638538 0.19264 
104 0.101177 -0.598308 3.21263 1.14764 0 0 0 -0.345982 -0.642433 0.341684 
101 0.537343 0.503475 3.11842 0.786339 0 0 0 -0.405484 -0.525518 0.336941 
238 1.23272 1.23413 2.83499 0.574663 0 0 0 0.182206 0.586788 0.304309 
123 -0.316986 2.86792 -0.691705 1.18977 0 0 0 -0.540335 0.32979 -0.659815 
159 0.397829 3.05214 -0.625387 1.0548 0 0 0 -0.285718 0.503077 -0.690774 
142 1.18785 3.80509 -0.0596183 1.05791 0 0 0 -0.106357 0.892009 -0.316696 
126 -0.541275 3.21742 0.184409 1.10844 0 0 0 -0.644967 0.551738 -0.319692 
127 0.80551 2.06303 -0.832087 0.949855 0 0 0 -0.270555 -0.262301 -0.886183 
158 0.896474 2.14782 -0.502461 0.825353 0 0 0 -0.343745 -0.410897 -0.874055 
143 -0.162425 2.5139 -0.78899 1.13562 0 0 0 -0.507469 0.116801 -0.73518 
149 1.11663 2.1868 -0.912538 0.958569 0 0 0 -0.152832 -0.115959 -0.939875 
151 1.36321 3.36621 0.288898 0.844524 0 0 0 0.0302181 0.959208 0.0450281 
274 1.33477 2.01645 -0.0268079 0.636671 0 0 0 -0.366982 -0.743739 -0.663847 
157 0.0134423 1.643 0.128941 0.82107 0 0 0 -0.211105 -0.666837 -0.103393 
156 -0.609028 1.93331 -0.650126 1.19061 0 0 0 -0.599141 -0.0660172 -0.549855 
130 0.986171 2.15088 0.267691 0.593015 0 0 0 -0.524937 -0.340165 -0.635005 
148 0.698616 1.49458 -0.23256 0.791591 0 0 0 -0.0750211 -0.610812 0.0774315 
137 -0.708162 2.86987 0.246399 1.07808 0 0 0 -0.787211 0.323148 -0.310875 
138 0.424975 2.62752 -0.593781 0.963032 0 0 0 -0.356594 0.182121 -0.803837 
141 0.160029 1.997 -0.415259 0.914399 0 0 0 -0.476551 -0.434293 -0.672648 
140 0.862149 2.60215 -0.809085 0.979758 0 0 0 -0.19227 0.196975 -0.875607 
443 1.31898 2.0852 0.116076 0.599076 0 0 0 -0.363286 -0.428209 -0.737798 
444 1.48154 2.23981 0.0627823 0.620901 0 0 0 -0.259594 0.134122 -0.78705 
136 1.03226 1.89169 0.22151 0.59717 0 0 0 -0.148981 -0.793367 0.0687764 
268 1.46276 2.00807 0.113332 0.589761 0 0 0 -0.280096 -0.513193 -0.711771 
146 0.824173 2.05113 0.253741 0.615594 0 0 0 -0.451168 -0.790433 -0.379366 
180 0.816321 2.50706 0.789622 0.565314 0 0 0 -0.421989 1.23139 -0.29928 
190 0.821832 3.29161 1.17401 0.773674 0 0 0 0.338236 0.751384 0.367143 
178 -0.546736 3.08541 1.13917 0.97406 0 0 0 -0.646015 0.581688 -0.0204844 
220 0.89907 2.23257 1.45456 0.460906 0 0 0 -1.92834 -2.57289 -1.96278 
189 1.01701 2.26104 0.814595 0.487552 0 0 0 -0.947563 1.11262 -0.606362 
165 1.04879 2.30438 0.745465 0.502535 0 0 0 -0.824577 1.15655 -0.661789 
128 1.38577 3.34334 1.25181 0.793523 0 0 0 0.238312 -0.0104501 0.379262 
185 0.700688 3.36968 1.30718 0.807798 0 0 0 0.306453 0.749867 0.317383 
168 0.779366 2.05425 1.00595 0.471617 0 0 0 -0.205732 1.53641 0.706415 
186 -0.767698 1.72337 0.481582 0.98353 0 0 0 -0.740635 -0.285025 -0.211627 
170 0.55674 2.28227 0.547179 0.609206 0 0 0 -0.639411 -0.127216 -0.555091 
171 0.284591 3.56153 0.91582 0.929537 0 0 0 -0.124097 0.922006 0.0251823 
175 -0.673992 2.64647 1.34235 0.922315 0 0 0 -0.83815 0.285617 -0.0589378 
124 0.946512 2.13445 1.0301 0.44806 0 0 0 -1.0336 1.02046 -0.156156 
187 -0.341975 2.06187 0.381157 0.853132 0 0 0 -0.732636 -0.502035 -0.361218 
134 1.44029 2.99975 0.715262 0.686526 0 0 0 0.237592 0.772251 0.575624 
198 1.10453 2.48525 1.32488 0.51969 0 0 0 -1.07323 -2.52527 -1.23757 
426 1.5256 1.8097 1.03415 0.350828 0 0 0 0.3743 0.399477 0.236537 
147 1.22188 1.9207 1.15987 0.365564 0 0 0 -0.68212 -0.6134 0.427019 
133 1.04449 2.31189 0.324241 0.588103 0 0 0 -0.518642 0.365561 -0.734262 
188 0.398829 2.22613 0.467429 0.652193 0 0 0 -0.608891 -0.528064 -0.525439 
20 1.40122 1.64925 1.36986 0.284343 0 0 0 1.58821 -0.490981 -0.210436 
216 -0.0737816 2.3515 1.33666 0.682757 0 0 0 -0.676867 0.162974 -0.232999 
206 -0.717441 1.91108 1.19378 0.879573 0 0 0 -0.880911 -0.367042 -0.250319 
154 -0.280091 3.20781 0.526565 0.9784 0 0 0 -0.53319 0.672506 -0.188906 
144 1.30247 2.01088 0.912941 0.407618 0 0 0 -0.672855 1.05423 -0.238423 
423 1.18173 2.03444 0.977321 0.411241 0 0 0 -0.851352 1.06115 0.0834385 
135 -0.226255 3.1214 0.410251 0.958211 0 0 0 -0.535659 0.632111 -0.247133 
192 0.529692 2.18854 0.465834 0.623395 0 0 0 -0.589964 -0.541647 -0.501817 
194 0.171577 2.21543 0.651667 0.670491 0 0 0 -0.636093 -0.568305 -0.48012 
196 0.990081 2.8906 1.10309 0.640601 0 0 0 0.388187 0.633293 0.419029 
203 0.532325 2.55462 0.54105 0.655195 0 0 0 -0.461087 0.62389 -0.448617 
150 1.41059 1.88557 0.988769 0.370978 0 0 0 2.87188 5.46236 3.79005 
214 -0.0711035 1.80496 0.79184 0.711168 0 0 0 -0.19025 -1.00773 -0.172927 
425 1.42104 1.95119 0.905404 0.394391 0 0 0 -0.268477 0.944398 -0.302284 
48 0.228421 2.29403 0.62342 0.667391 0 0 0 -0.652838 -0.340629 -0.509609 
162 1.52738 1.51565 1.44983 0.254791 0 0 0 -0.400387 0.113568 0.320307 
177 0.870214 1.99607 1.31465 0.416626 0 0 0 -0.428053 0.917063 0.359002 
139 0.90101 3.94732 0.7486 1.02061 0 0 0 -0.0239455 0.908768 -0.0296456 
461 1.38949 1.75363 1.23162 0.316837 0 0 0 0.788764 0.0389175 0.353362 
210 0.26161 2.17599 0.847563 0.616 0 0 0 -0.594598 -0.510717 -0.434906 
480 1.02343 2.02374 1.13293 0.409869 0 0 0 -0.664032 0.947536 0.473113 
28 1.05077 1.83854 1.40401 0.360317 0 0 0 0.745387 0.12264 0.746377 
489 0.558851 2.27473 1.21427 0.519894 0 0 0 -0.640031 0.853577 -0.177994 
4 1.22246 1.72084 1.42292 0.315213 0 0 0 1.31355 -0.333597 0.539019 
19 1.14084 2.47427 0.428791 0.58536 0 0 0 -0.345429 1.10182 -0.529071 
336 0.479584 2.37429 1.1893 0.555287 0 0 0 -0.451939 0.940806 -0.147878 
469 1.0405 2.01732 1.12836 0.406969 0 0 0 -0.641586 0.936153 0.520216 
308 0.417193 2.38389 1.20765 0.568908 0 0 0 -0.422013 0.882998 -0.1444 
15 1.22459 1.8628 1.21613 0.350381 0 0 0 0.329912 0.109415 1.24211 
424 1.33272 2.62684 0.397187 0.61837 0 0 0 -0.0725381 1.2974 -0.162104 
7 1.37249 2.12815 0.709262 0.457162 0 0 0 -0.584482 1.11293 -1.16698 
174 1.2968 1.80757 1.23499 0.332179 0 0 0 0.573415 -0.12496 0.946337 
6 1.09486 1.81937 1.39359 0.350537 0 0 0 0.885988 -0.0217967 0.820409 
458 0.50935 2.15864 1.40969 0.503691 0 0 0 -0.692665 0.732836 -0.0556049 
433 1.53015 1.83936 0.985043 0.363365 0 0 0 0.317727 0.587874 0.0927845 
437 1.46749 2.04177 0.748697 0.434923 0 0 0 -0.336964 1.01711 -1.23231 
153 1.27973 1.81894 1.23334 0.335817 0 0 0 0.531803 -0.101208 1.03841 
286 1.4825 2.02989 0.753369 0.432213 0 0 0 -0.289551 0.996554 -1.23864 
195 0.960329 1.93965 1.32813 0.392723 0 0 0 -0.004137 0.669692 0.653904 
399 1.51634 1.93623 0.866636 0.397933 0 0 0 -0.429518 0.219829 -1.13879 
354 0.50341 2.10106 1.49637 0.495893 0 0 0 -0.740951 0.714481 0.0203621 
372 1.50625 1.49957 1.49052 0.251512 0 0 0 -0.213054 0.0451161 0.264196 
164 0.232473 1.81996 1.47903 0.555413 0 0 0 -0.187051 -0.251064 -0.150825 
17 1.50459 1.49817 1.49392 0.251439 0 0 0 -0.188139 0.0475477 0.24031 
52 0.953889 1.86576 1.44847 0.38025 0 0 0 0.395555 0.462921 0.490527 
145 0.944091 3.68323 0.319778 0.962029 0 0 0 -0.0697333 0.942557 -0.136527 
256 0.558346 2.11604 1.73864 0.496382 0 0 0 -0.760113 0.519769 0.090632 
495 1.0431 1.64388 1.68229 0.346147 0 0 0 0.726453 0.28428 0.134338 
248 0.868778 1.5629 1.93386 0.401684 0 0 0 -0.734049 0.724697 0.574557 
43 0.148919 2.3144 1.81884 0.623843 0 0 0 -0.1869 0.906604 0.491368 
76 0.906798 1.57912 1.88406 0.389081 0 0 0 -0.517975 0.646481 0.347148 
450 0.854476 1.64817 1.83468 0.397157 0 0 0 -0.471447 0.832844 0.328221 
166 1.19151 3.39112 1.71318 0.833435 0 0 0 0.311549 -0.187259 0.0848076 
70 0.97513 2.32044 2.3029 0.608753 0 0 0 0.374639 -1.55702 -1.46663 
199 -0.163992 2.48213 2.51655 0.815895 0 0 0 -0.221956 0.751758 0.499425 
223 -0.313713 3.51999 2.20263 1.0656 0 0 0 -0.342994 0.730769 0.185297 
201 -0.0323005 3.0138 1.68138 0.815641 0 0 0 -0.0812642 0.978491 0.26742 
243 0.900446 2.03172 2.39422 0.562177 0 0 0 0.102833 -1.11853 -1.3564 
191 0.402007 2.14628 2.61255 0.667711 0 0 0 0.537611 1.16211 0.686837 
204 0.494256 3.8316 2.13436 1.03917 0 0 0 0.0831377 0.663347 0.133754 
49 0.769417 1.87247 1.59107 0.417372 0 0 0 -0.387938 1.00494 0.294937 
160 0.914956 1.82328 1.54462 0.382719 0 0 0 0.276437 0.470679 0.187974 
207 0.786911 2.75748 2.50756 0.754782 0 0 0 0.726066 0.142279 -0.116916 
208 1.03097 2.3911 1.63945 0.518091 0 0 0 -1.29688 -4.15701 -2.3223 
209 0.529454 2.2009 1.58261 0.507848 0 0 0 -0.583116 0.77841 0.0883884 
447 0.197365 2.26426 2.14673 0.639122 0 0 0 0.0858228 1.11296 0.777296 
211 0.711173 3.69218 1.79547 0.94362 0 0 0 0.228623 0.561478 0.1522 
212 0.655033 3.2858 1.83326 0.812311 0 0 0 0.469037 0.508443 0.273234 
213 0.0678186 3.4769 2.25792 0.980741 0 0 0 -0.0320901 0.748341 0.229383 
490 1.46129 1.49805 1.53103 0.253854 0 0 0 1.29223 -0.711137 0.128596 
215 0.794994 3.88391 2.27497 1.06153 0 0 0 0.148999 0.502796 0.0716946 
184 1.5004 1.49456 1.50257 0.251402 0 0 0 -0.121576 0.05741 0.17169 
55 0.266688 2.26505 1.5319 0.574509 0 0 0 -0.404403 0.671146 0.0856479 
505 0.361112 1.60465 2.26191 0.548762 0 0 0 -0.983691 0.180588 0.29485 
255 1.2108 2.61047 2.17651 0.668957 0 0 0 0.0489037 -2.31926 -1.57553 
479 0.0168441 2.36862 2.04038 0.686487 0 0 0 -0.169986 0.920349 0.583084 
173 -0.124534 1.91621 1.83532 0.659829 0 0 0 -0.837745 -0.402921 -0.215175 
318 0.34987 1.78873 2.07953 0.534862 0 0 0 -0.899005 0.41372 0.360441 
54 0.430616 1.94054 1.8001 0.50288 0 0 0 -0.875885 0.602248 0.284631 
34 0.259992 2.18277 1.85537 0.577331 0 0 0 -0.275818 0.845167 0.514626 
172 0.165964 2.12749 1.58858 0.582573 0 0 0 -0.604297 0.131417 -0.0735034 
229 1.08131 2.33348 2.53379 0.661705 0 0 0 0.497482 -1.05239 -1.40601 
234 1.04409 1.64647 1.67795 0.345828 0 0 0 0.744901 0.277171 0.135881 
252 1.15751 1.61768 1.62228 0.318147 0 0 0 1.06401 -0.2504 0.524661 
235 1.04833 1.62 1.71022 0.345715 0 0 0 0.626077 0.289133 0.162444 
29 0.843073 1.72179 1.74557 0.396694 0 0 0 -0.258783 0.87786 0.216121 
513 0.66069 1.56778 2.09005 0.460314 0 0 0 -1.20277 0.513734 0.742819 
241 1.0601 1.60521 1.72045 0.343451 0 0 0 0.600698 0.255507 0.207205 
38 0.320515 1.75881 2.2745 0.566249 0 0 0 -0.693059 0.511568 0.471378 
35 0.252083 1.76159 2.40264 0.603926 0 0 0 -0.54391 0.55681 0.510714 
30 0.500206 1.66022 2.12088 0.499532 0 0 0 -1.10758 0.44083 0.496593 
239 -0.586853 2.64442 2.57886 0.974139 0 0 0 -0.577166 0.458323 0.298067 
233 0.904608 1.60663 1.8497 0.386761 0 0 0 -0.399212 0.669481 0.256701 
75 0.829564 1.66229 1.83748 0.403139 0 0 0 -0.564117 0.86753 0.365785 
219 1.50021 1.49439 1.50297 0.251406 0 0 0 -0.118397 0.0579685 0.168289 
167 1.5004 1.49455 1.50259 0.251402 0 0 0 -0.121437 0.0574341 0.171543 
466 1.5002 1.49438 1.503 0.251406 0 0 0 -0.118169 0.0580089 0.168044 
471 1.50021 1.49439 1.50297 0.251406 0 0 0 -0.118441 0.0579607 0.168336 
36 1.50028 1.49445 1.50282 0.251404 0 0 0 -0.119616 0.057754 0.169594 
278 1.50195 1.49591 1.49935 0.251391 0 0 0 -0.146721 0.0532325 0.198257 
37 1.50088 1.49497 1.50157 0.251396 0 0 0 -0.129489 0.0561142 0.180027 
58 1.50159 1.49559 1.5001 0.251391 0 0 0 -0.140977 0.0542399 0.192116 
47 1.07812 1.7557 1.49969 0.343427 0 0 0 1.02043 -0.136273 0.347768 
477 1.50167 1.49566 1.49993 0.251391 0 0 0 -0.142196 0.0539505 0.193525 
355 1.50134 1.49537 1.50063 0.251392 0 0 0 -0.136807 0.0548261 0.187859 
334 1.50104 1.49511 1.50125 0.251394 0 0 0 -0.131905 0.0556408 0.182679 
476 1.50097 1.49505 1.50139 0.251395 0 0 0 -0.130832 0.0558211 0.181543 
179 1.50088 1.49498 1.50157 0.251396 0 0 0 -0.129425 0.0560591 0.18005 
222 1.50059 1.49472 1.50219 0.251399 0 0 0 -0.124587 0.0568871 0.174904 
302 1.50065 1.49478 1.50205 0.251398 0 0 0 -0.125674 0.0566997 0.176062 
176 1.50066 1.49478 1.50204 0.251398 0 0 0 -0.125734 0.0566894 0.176126 
225 0.922811 2.39726 3.41235 0.888288 0 0 0 0.37368 0.377034 0.3118 
106 0.302739 2.02715 3.35323 0.857241 0 0 0 0.120793 0.569728 0.780084 
249 -0.498563 2.47087 2.81672 0.959173 0 0 0 -0.536683 0.431533 0.394132 
228 -0.108659 3.23446 3.60257 1.22453 0 0 0 -0.28162 0.494546 0.579487 
254 -0.486122 2.76307 3.5122 1.1744 0 0 0 -0.471136 0.385436 0.584951 
230 0.506969 3.71141 2.99961 1.13779 0 0 0 0.0269069 0.555025 0.264736 
231 0.569903 2.2762 3.57918 0.935089 0 0 0 0.214653 0.45793 0.686151 
242 0.544178 2.40528 3.25163 0.856903 0 0 0 0.388562 0.605952 0.516853 
246 -0.356555 2.01124 3.52012 1.04153 0 0 0 -0.460418 0.227394 0.669545 
464 0.277933 1.66567 2.73315 0.660818 0 0 0 -0.253194 0.600737 0.673427 
205 0.789509 1.62298 3.04757 0.674938 0 0 0 0.588807 0.903122 0.63976 
251 0.368726 3.45847 3.03809 1.07462 0 0 0 0.0473318 0.574842 0.331769 
105 -0.172736 1.52945 3.72937 1.04181 0 0 0 -0.383876 0.075503 0.777715 
250 0.796415 3.13054 3.39931 1.05193 0 0 0 0.168008 0.346716 0.318562 
244 1.25516 2.37352 3.45388 0.901675 0 0 0 0.225143 0.194216 0.0630358 
240 -0.316579 3.69299 3.4091 1.33894 0 0 0 -0.398564 0.574299 0.443193 
257 3.62637 1.21803 -0.278452 1.02738 0 0 0 0.662282 -0.0959433 -0.447612 
441 1.86625 1.15928 0.0293934 0.661003 0 0 0 -0.675373 -0.36966 0.601586 
288 3.67371 0.85792 0.0530702 0.991894 0 0 0 0.717083 -0.235562 -0.334335 
260 3.1323 0.827982 -0.609117 1.01911 0 0 0 0.333838 -0.27432 -0.675073 
261 3.52398 -0.100129 0.154679 1.093 0 0 0 0.502732 -0.634779 -0.330563 
276 2.55308 0.780195 -0.320851 0.838316 0 0 0 -0.251421 -0.566766 -0.547732 
427 2.22868 1.08023 0.208779 0.632712 0 0 0 -0.82242 -0.713987 -0.101772 
285 1.77615 0.218845 -0.0315076 0.864555 0 0 0 -0.1856 0.145297 0.517846 
436 2.35115 1.42219 -0.0512727 0.678328 0 0 0 -0.406559 -0.673973 -0.73414 
266 2.66025 0.93635 -0.843428 1.00718 0 0 0 0.0635734 -0.223776 -0.783953 
267 3.03037 0.608849 -0.0398116 0.865183 0 0 0 0.159059 -0.643761 -0.506135 
293 2.10191 1.07615 -0.870529 0.957156 0 0 0 -0.174106 -0.223631 -0.718725 
269 2.55512 0.949698 -0.706887 0.943091 0 0 0 -0.049512 -0.288858 -0.743543 
270 2.46766 0.612221 -0.432213 0.891629 0 0 0 -0.223502 -0.523991 -0.496712 
271 3.2313 -0.579434 -0.17608 1.23192 0 0 0 0.360722 -0.692763 -0.376339 
272 1.6467 0.823019 0.128511 0.702436 0 0 0 -0.205663 0.701071 1.55328 
284 2.0421 0.324118 -0.432478 0.936211 0 0 0 -0.243775 -0.335194 -0.149025 
290 2.38962 -0.69084 -0.214174 1.17656 0 0 0 0.0652895 -0.547448 -0.230054 
291 3.16122 0.334521 -0.492726 1.06555 0 0 0 0.325714 -0.49902 -0.575627 
294 3.06872 0.327579 0.682209 0.79401 0 0 0 0.101739 -0.942264 -0.433156 
23 1.96011 1.40533 1.23484 0.349079 0 0 0 -0.599635 -0.217034 0.0857788 
453 2.93384 0.913307 1.3622 0.602814 0 0 0 0.732836 -0.100577 0.132438 
18 1.90807 1.36094 1.34067 0.333034 0 0 0 -1.25072 0.0133362 0.295468 
298 2.04666 1.34271 1.25147 0.367169 0 0 0 -0.540438 -0.421522 0.0781944 
299 2.91921 0.965583 1.15319 0.600935 0 0 0 0.695797 -0.29402 -0.11916 
451 2.12579 1.28904 1.26587 0.385298 0 0 0 -0.25469 -0.637299 -0.0746783 
301 3.70182 0.535434 1.4268 0.900413 0 0 0 0.879133 -0.217176 0.0445914 
264 2.45148 0.855526 0.620125 0.597323 0 0 0 -0.523674 -0.843215 -0.41691 
445 2.28054 1.21985 1.24787 0.423472 0 0 0 0.555502 -0.751921 -0.30736 
304 2.19734 1.11985 1.1435 0.431067 0 0 0 2.27644 2.78632 2.3719 
41 2.86421 0.991059 0.872281 0.609246 0 0 0 0.493108 -0.669919 -0.497252 
306 1.99419 1.20525 1.4957 0.358717 0 0 0 -1.55157 -0.175057 0.0556601 
307 2.07216 1.04503 1.19281 0.425472 0 0 0 3.78048 7.11379 5.71561 
277 2.64747 1.39933 0.721805 0.54876 0 0 0 0.848626 -0.164917 -0.410688 
309 3.42368 0.409364 1.28612 0.825456 0 0 0 0.705409 -0.507604 -0.108082 
310 2.04761 -0.00925728 1.06794 0.725922 0 0 0 -0.56626 0.412291 0.0784894 
311 2.88348 1.04322 0.925477 0.602777 0 0 0 0.627625 -0.456731 -0.367892 
341 2.75568 1.06758 0.733253 0.594096 0 0 0 0.363304 -0.793599 -0.668217 
432 2.74186 1.44695 0.883125 0.554671 0 0 0 0.862992 0.249303 0.0388748 
161 2.00055 1.43223 1.16425 0.363505 0 0 0 -0.0700421 -0.338542 -0.117121 
182 2.69528 1.32604 0.523277 0.596687 0 0 0 0.459707 -0.519118 -0.622913 
316 2.92723 -0.30819 0.756846 0.924412 0 0 0 0.0547681 -0.866028 -0.307174 
317 3.34937 0.0147903 0.768076 0.924399 0 0 0 0.394664 -0.767705 -0.282431 
275 3.4093 -0.82041 0.709982 1.195 0 0 0 0.430012 -0.788081 -0.184216 
33 2.65971 0.845093 1.48872 0.537873 0 0 0 0.731265 -0.584766 0.0576734 
320 1.86541 0.0375324 0.931901 0.734203 0 0 0 -0.348785 1.04579 0.599281 
72 2.19326 1.16818 1.39318 0.403133 0 0 0 -0.136041 -0.769925 -0.0248114 
265 1.93826 -0.369082 0.732911 0.882173 0 0 0 -0.204913 0.0532946 0.157709 
501 2.42646 1.15684 1.21412 0.460778 0 0 0 0.9251 -0.612915 -0.326128 
56 2.5703 0.702986 0.532525 0.656289 0 0 0 -0.587875 -1.04465 -0.472242 
325 2.33716 1.10413 1.34222 0.440662 0 0 0 0.761397 -0.601301 0.030438 
287 2.41139 -0.366537 0.555639 0.915705 0 0 0 -0.190778 -0.554732 -0.13871 
327 3.3612 1.249 1.48977 0.729283 0 0 0 0.602855 0.610917 0.465241 
329 1.95981 0.208872 1.14449 0.655284 0 0 0 -0.514394 1.36136 0.567949 
428 2.78133 0.813914 1.48194 0.571737 0 0 0 0.696733 -0.43459 0.0856499 
31 2.45657 0.720506 0.487633 0.649595 0 0 0 -0.729147 -0.862211 -0.283679 
283 1.78569 0.844313 0.902967 0.529922 0 0 0 2.21513 7.11768 5.72968 
326 2.49871 1.10644 1.22629 0.479728 0 0 0 0.917726 -0.587102 -0.275472 
470 3.20794 1.21787 1.38465 0.67538 0 0 0 0.604924 0.650642 0.479883 
313 2.78304 0.837259 1.4233 0.569373 0 0 0 0.688844 -0.469776 0.0304866 
457 1.88294 1.3176 1.42382 0.328054 0 0 0 -1.57495 0.173502 0.325448 
455 2.09929 1.46728 1.04026 0.396739 0 0 0 0.737335 -0.566871 -0.644791 
422 2.35314 1.29626 1.0816 0.446574 0 0 0 1.0342 -0.563883 -0.623656 
456 2.55983 0.341728 1.38463 0.628054 0 0 0 -0.349834 -1.08266 -0.530464 
474 1.85406 1.42 1.30336 0.322765 0 0 0 -0.756453 0.168818 0.00898573 
300 3.62897 -0.22232 1.47508 1.02441 0 0 0 0.628927 -0.628311 -0.0936847 
478 2.35708 1.45326 0.867203 0.466216 0 0 0 1.20524 -0.344455 -0.812702 
340 1.70263 1.43604 1.41147 0.286351 0 0 0 -0.969031 0.607259 -0.388301 
281 1.70783 0.00684432 0.314217 0.851724 0 0 0 -0.0686629 0.525071 0.73644 
333 2.95213 0.625806 2.57619 0.753149 0 0 0 0.713169 0.398761 0.502292 
323 1.96023 1.06256 1.74772 0.38267 0 0 0 -0.574201 -0.518591 -0.531206 
335 2.66602 0.847279 2.44812 0.646094 0 0 0 0.592434 0.832723 0.530739 
491 1.78686 1.17973 1.7055 0.338068 0 0 0 -0.880198 0.102427 -0.51555 
337 2.05362 -0.945726 1.91696 0.993529 0 0 0 -0.0302116 -0.872256 -0.19843 
338 3.03182 0.240145 2.16305 0.772456 0 0 0 0.621381 -0.400492 0.185014 
339 1.79311 0.243027 1.69179 0.597996 0 0 0 -0.162257 1.31186 -0.0847118 
370 1.65925 -0.976653 2.59511 1.0346 0 0 0 -0.0037208 -0.913983 -0.00498756 
452 2.42607 0.244126 1.74988 0.624615 0 0 0 -0.262867 -1.04642 -0.489078 
295 2.09994 0.574211 2.39619 0.559712 0 0 0 0.422639 -0.554895 0.449771 
296 2.19624 1.05236 1.56909 0.416346 0 0 0 0.0525061 -0.767644 0.00164294 
344 2.37282 0.960799 1.94511 0.493171 0 0 0 0.0946327 -0.747943 -0.195013 
345 3.40708 1.06476 2.12278 0.79571 0 0 0 0.617705 0.51386 0.408943 
346 2.01393 0.960269 1.86444 0.41594 0 0 0 0.212479 -0.860807 0.00189955 
364 1.68475 1.12265 1.87405 0.355486 0 0 0 0.0337279 -0.642591 -0.440939 
348 3.88722 1.46542 2.1892 0.984175 0 0 0 0.623101 0.145069 0.180689 
331 2.11756 0.995944 1.72374 0.415842 0 0 0 0.0795152 -0.764431 -0.0602213 
350 2.36019 -0.0946068 1.6119 0.719204 0 0 0 -0.476412 -0.847111 -0.611089 
351 1.77258 1.2331 1.64011 0.3237 0 0 0 -1.06181 0.264985 -0.192424 
352 2.46185 0.668521 2.2626 0.582333 0 0 0 0.676362 0.0573163 0.582524 
363 2.55574 -0.637625 2.03573 0.9233 0 0 0 0.0626253 -0.993198 -0.189404 
45 1.68419 1.14928 1.83489 0.346042 0 0 0 -0.0692552 -0.451323 -0.387277 
365 1.6938 0.222896 2.39009 0.619916 0 0 0 -0.246775 -1.20423 -0.522469 
356 3.26093 1.43479 2.49168 0.819987 0 0 0 0.0772023 0.442798 0.10864 
357 2.16286 1.0865 2.24831 0.502364 0 0 0 -1.19525 -1.26629 -1.3479 
358 2.14803 0.6664 2.60498 0.595299 0 0 0 0.560579 0.181475 0.638774 
359 3.56757 -0.600351 2.21029 1.1353 0 0 0 0.571194 -0.671623 0.0263254 
360 1.95002 0.18619 2.18312 0.617078 0 0 0 -0.299132 -1.06733 -0.548425 
361 2.06205 -0.717431 1.53364 0.916869 0 0 0 -0.165967 -0.667989 -0.28819 
362 2.41713 0.274347 1.96776 0.621372 0 0 0 -0.0196186 -1.05126 -0.266895 
460 1.97017 1.14592 1.60674 0.364134 0 0 0 -1.33179 -0.186234 -0.367962 
303 2.32215 1.05423 1.64055 0.44636 0 0 0 -0.243787 -1.64986 -0.782064 
393 1.97008 -0.328922 2.07153 0.770049 0 0 0 -0.341792 -0.895138 -0.523359 
324 2.45377 0.691628 1.9828 0.53993 0 0 0 0.65895 -0.447217 0.399802 
312 3.14154 1.31987 1.96638 0.699458 0 0 0 -0.0356578 0.79949 0.326158 
375 1.79871 0.918457 2.0944 0.426675 0 0 0 0.572384 -1.16249 0.509343 
459 2.65915 0.457156 1.80806 0.612564 0 0 0 0.369619 -0.819357 -0.0486831 
62 1.74291 1.05768 1.9291 0.377706 0 0 0 0.103503 -0.930969 -0.414928 
380 2.33975 0.664182 2.34272 0.573094 0 0 0 0.614344 -0.00925845 0.60093 
485 1.68786 1.16812 1.80446 0.339539 0 0 0 -0.171973 -0.322084 -0.330393 
510 2.07899 0.979134 1.78211 0.415852 0 0 0 0.124204 -0.792001 -0.0555735 
497 1.81804 0.609481 2.48231 0.54285 0 0 0 0.301622 -0.771583 0.409411 
347 1.77136 -0.881263 1.97401 0.962734 0 0 0 -0.0895683 -0.786566 -0.247528 
377 3.60723 1.30346 2.5684 0.933681 0 0 0 0.514241 0.272028 0.238895 
314 2.71491 0.74678 1.72331 0.570736 0 0 0 0.739708 -0.292773 0.267003 
388 1.7547 1.18522 1.72428 0.334976 0 0 0 -0.6868 0.0364285 -0.441875 
315 2.63579 0.314006 1.72365 0.638919 0 0 0 0.0537981 -1.04208 -0.326307 
472 2.09293 0.870487 1.94172 0.448093 0 0 0 0.491676 -0.963496 0.346181 
483 1.82859 0.756594 2.34807 0.493684 0 0 0 0.439354 -0.86997 0.607096 
481 2.18419 0.922712 1.7832 0.441244 0 0 0 0.45043 -0.865707 0.161252 
53 1.96945 0.837122 2.09145 0.454928 0 0 0 0.523535 -1.05337 0.546241 
484 1.5969 0.907437 2.25911 0.443748 0 0 0 0.520625 -1.21086 0.880182 
384 3.3199 -0.642181 2.68997 1.13434 0 0 0 0.468071 -0.689853 0.149527 
79 1.68551 1.09273 1.92022 0.36669 0 0 0 0.137697 -0.882851 -0.419391 
492 1.57913 1.14675 1.92413 0.353495 0 0 0 0.285131 -0.823613 -0.0685977 
102 1.57313 0.883408 2.31387 0.45629 0 0 0 0.432684 -1.15587 0.886043 
353 2.07855 1.26353 2.64018 0.588622 0 0 0 -0.784963 0.435462 -1.26511 
462 2.05822 1.16867 1.5 0.374842 0 0 0 -1.12478 -0.44144 -0.00750489 
366 3.18681 0.394559 3.69956 1.11941 0 0 0 0.427849 -0.0589634 0.661255 
89 1.72108 0.843362 2.90213 0.612809 0 0 0 0.333675 0.563425 0.677284 
368 3.28497 -0.261778 3.55747 1.21015 0 0 0 0.427466 -0.424277 0.520476 
369 3.64678 0.246238 3.45704 1.1909 0 0 0 0.608266 -0.163268 0.482316 
378 2.68148 0.577429 2.86987 0.757392 0 0 0 0.589607 0.356557 0.599836 
389 2.14753 0.922805 3.36328 0.790333 0 0 0 0.301162 0.639934 0.697745 
95 1.59937 0.244861 3.84569 0.991727 0 0 0 0.0259937 -0.174654 0.84442 
373 1.65834 -0.0884621 2.8068 0.767134 0 0 0 -0.127108 -0.98399 -0.0239031 
390 2.59699 1.19523 3.71533 0.975797 0 0 0 0.204645 0.334119 0.633324 
86 1.82023 1.15323 3.19897 0.705231 0 0 0 0.238567 0.999391 0.37434 
376 2.3167 1.03752 3.19033 0.758194 0 0 0 0.302532 0.831229 0.474049 
391 3.65086 0.0254025 3.455 1.22492 0 0 0 0.591519 -0.276209 0.462933 
236 1.54662 0.573469 2.76919 0.603729 0 0 0 0.00795781 -0.614124 0.469206 
379 2.2848 0.0643875 2.74733 0.757384 0 0 0 0.197677 -0.711358 0.263038 
392 3.16307 0.164081 2.91473 0.933109 0 0 0 0.561879 -0.181145 0.368098 
381 3.33651 -0.184166 3.45156 1.17626 0 0 0 0.46846 -0.388441 0.4868 
115 1.62185 0.856729 2.99928 0.635538 0 0 0 0.26973 0.566784 0.738449 
386 3.19116 1.24291 3.66153 1.08252 0 0 0 0.34394 0.202036 0.542284 
97 1.83972 0.614675 2.73122 0.599049 0 0 0 0.34174 -0.192295 0.590657 
385 2.36353 -0.0875433 3.34842 0.945013 0 0 0 0.184308 -0.438183 0.551904 
413 2.04561 3.55204 0.256291 0.937594 0 0 0 0.0167835 0.826879 0.10675 
396 3.29248 3.22369 0.0353788 1.0748 0 0 0 0.396755 0.490321 -0.151132 
417 1.86394 3.11945 -0.421521 0.938948 0 0 0 0.0259724 0.635523 -0.497425 
398 3.25696 2.67494 0.143852 0.921572 0 0 0 0.465727 0.363351 -0.0248076 
418 3.60253 2.06813 -0.0315398 0.979936 0 0 0 0.668181 0.103279 -0.267779 
400 3.51106 2.53616 -0.0693593 1.01263 0 0 0 0.566667 0.207826 -0.261319 
420 1.73365 2.37769 -0.458367 0.802559 0 0 0 0.0173763 0.149962 -0.821972 
414 2.02101 2.40556 -0.00567542 0.688316 0 0 0 0.194025 0.747593 -0.386222 
416 2.84934 3.42506 -0.151611 1.0695 0 0 0 0.207369 0.613225 -0.261568 
404 3.3127 3.00276 -0.20117 1.07257 0 0 0 0.424777 0.366711 -0.332239 
415 3.39604 3.43407 0.0890905 1.15433 0 0 0 0.404614 0.5388 -0.151414 
322 1.89506 1.81395 -0.137584 0.663463 0 0 0 -0.322316 -0.680457 -0.736568 
407 3.49973 1.68272 -0.386593 1.01346 0 0 0 0.577605 0.0301369 -0.502839 
408 2.0203 1.93863 -0.607185 0.832006 0 0 0 -0.0249695 -0.176082 -0.869664 
202 2.56613 1.60661 0.174901 0.644144 0 0 0 0.242787 -0.252924 -0.7042 
410 3.59069 2.9862 -0.00985213 1.11005 0 0 0 0.546397 0.338194 -0.221805 
411 1.93646 3.67859 -0.355093 1.08848 0 0 0 -0.0202915 0.765222 -0.418134 
289 2.40056 1.93837 0.24471 0.614264 0 0 0 0.5141 0.450133 -0.390121 
262 1.74618 2.15121 0.279793 0.555168 0 0 0 0.0127132 0.577635 -0.810497 
12 2.05403 1.71887 0.758036 0.438057 0 0 0 1.01308 -0.0352726 -1.3153 
419 2.13204 2.72408 0.899587 0.661814 0 0 0 -0.342916 -0.25332 0.907362 
406 2.42478 3.61753 0.659942 0.970487 0 0 0 -0.0178999 0.633411 0.325808 
5 1.83387 1.60258 1.06898 0.35052 0 0 0 0.518086 -0.00482215 -0.439394 
282 2.10939 1.7138 0.725199 0.451017 0 0 0 1.02957 -0.00761998 -1.22507 
332 2.94217 1.87249 1.48281 0.658016 0 0 0 -1.34663 0.0500469 0.272329 
273 1.97812 2.02246 0.498343 0.505728 0 0 0 0.418149 0.715717 -0.88969 
465 1.55317 1.80293 1.02062 0.352751 0 0 0 0.42341 0.413133 0.116489 
473 2.46735 1.59649 0.666431 0.518462 0 0 0 0.967256 0.00926435 -0.462012 
431 2.32608 2.05447 0.519981 0.56018 0 0 0 0.724045 0.993817 0.163113 
14 1.55419 1.93329 0.828384 0.405067 0 0 0 0.0452487 0.830785 -0.972252 
292 1.85025 1.93216 0.623196 0.458612 0 0 0 0.520193 0.633275 -1.45568 
434 2.75645 2.12254 0.776662 0.640351 0 0 0 0.275912 0.828465 0.976976 
435 2.27548 2.78875 1.36395 0.724153 0 0 0 -1.28374 -1.59757 0.0353034 
449 1.78492 1.65286 1.04032 0.351594 0 0 0 0.619926 0.0966848 -0.444172 
397 2.83484 3.18348 0.751311 0.894631 0 0 0 -0.0118973 0.462727 0.500417 
503 1.69433 1.53292 1.28277 0.296977 0 0 0 0.0868961 0.668201 -1.17539 
439 2.23608 1.68881 0.721612 0.470073 0 0 0 0.997412 -0.149411 -1.01175 
440 3.40613 2.58476 1.18372 0.890002 0 0 0 0.014801 0.22599 0.341524 
321 3.75635 1.95027 1.30417 0.908667 0 0 0 0.522738 0.204466 0.23507 
442 2.01408 1.55506 0.987738 0.389569 0 0 0 0.846748 -0.37624 -0.68072 
280 3.36552 1.92081 0.84452 0.776136 0 0 0 0.563157 0.495311 0.460946 
409 2.06936 2.09247 1.00962 0.48708 0 0 0 -3.0024 -4.83848 -2.5094 
132 1.60202 2.674 1.2318 0.597753 0 0 0 -0.896893 -2.87817 -0.34092 
412 3.37692 2.95078 0.915984 0.958068 0 0 0 0.18544 0.354269 0.329061 
467 2.39566 1.70781 0.607561 0.518877 0 0 0 0.911652 0.184897 -0.454093 
475 1.63586 1.75674 1.01821 0.351082 0 0 0 0.571759 0.319989 -0.170157 
297 1.88583 2.11885 0.468265 0.516637 0 0 0 0.269561 0.900455 -0.810891 
258 1.88163 2.0785 0.490081 0.505804 0 0 0 0.292655 0.819117 -0.959252 
21 1.95025 1.79309 0.736985 0.433787 0 0 0 0.834912 0.192526 -1.45168 
155 1.57048 2.57303 1.0308 0.556276 0 0 0 -0.93083 -1.97383 -0.346347 
152 1.64318 3.26844 0.896398 0.775456 0 0 0 0.145042 0.320243 0.577047 
330 3.25835 2.11222 1.26292 0.765142 0 0 0 -0.227411 0.346547 0.517375 
50 2.10971 2.0188 0.461294 0.528913 0 0 0 0.523278 0.760765 -0.524093 
11 1.827 1.65768 0.998588 0.364158 0 0 0 0.725939 0.0561406 -0.479239 
221 3.06292 2.07824 0.893011 0.704358 0 0 0 0.191701 0.67588 0.805535 
74 3.0486 1.89688 0.613141 0.69712 0 0 0 0.733926 0.698604 0.481375 
446 2.36993 1.57697 0.416035 0.551073 0 0 0 0.338352 -0.381254 -0.777636 
395 2.2081 3.17316 0.332808 0.823204 0 0 0 0.0906714 0.789277 0.380117 
259 2.6154 1.55377 0.447521 0.589888 0 0 0 0.615089 -0.134989 -0.48416 
421 3.45212 3.42163 0.546131 1.11866 0 0 0 0.35676 0.514225 0.0955147 
454 1.56662 1.58655 1.31649 0.280872 0 0 0 0.559279 0.53055 -1.02829 
46 1.85724 1.59487 1.06018 0.354941 0 0 0 0.538979 -0.0521433 -0.419213 
342 1.94864 1.51663 1.09143 0.362944 0 0 0 0.365508 -0.248011 -0.311658 
468 1.84503 1.61503 1.04262 0.356901 0 0 0 0.604939 -0.019935 -0.435535 
3 1.71464 1.71188 1.01633 0.352867 0 0 0 0.641707 0.223048 -0.361679 
305 1.96778 2.68476 0.388917 0.661759 0 0 0 0.243336 1.21749 0.50755 
197 2.25483 2.3121 0.348902 0.622002 0 0 0 0.537116 1.2149 0.278962 
405 2.37908 2.74231 0.381576 0.727046 0 0 0 0.265642 0.922375 0.602319 
401 2.75365 3.61333 0.332402 1.03903 0 0 0 0.115522 0.715404 0.107316 
13 1.55311 1.67704 1.20137 0.307976 0 0 0 0.785208 0.491484 -0.79474 
387 2.43189 1.68887 2.17909 0.610116 0 0 0 -3.33271 -1.77737 -2.95763 
482 2.51487 2.75821 2.0488 0.826882 0 0 0 -1.56778 -1.3339 -0.98879 
463 2.97195 2.60116 1.62743 0.818331 0 0 0 -1.0768 -0.446853 -0.0860657 
394 2.64217 1.6578 2.44453 0.691168 0 0 0 -1.51709 -0.0734229 -1.27248 
319 3.26548 1.82336 1.59356 0.744787 0 0 0 -0.412122 0.38831 0.342375 
500 3.11263 2.32837 2.11933 0.848982 0 0 0 -0.956573 -0.383036 -0.424588 
487 2.72995 2.14152 2.33656 0.768561 0 0 0 -1.73828 -0.883144 -1.23839 
502 2.94167 3.12339 2.45848 1.05466 0 0 0 -0.570338 -0.288432 -0.388154 
499 3.04773 2.90835 2.59199 1.0427 0 0 0 -0.532302 -0.292066 -0.370323 
429 3.27854 2.24372 1.5145 0.807218 0 0 0 -0.495933 0.0821243 0.23996 
504 1.83956 1.98449 2.30359 0.597549 0 0 0 -3.80772 -5.34092 -5.6768 
383 3.18367 1.5004 2.61693 0.827667 0 0 0 -0.0343964 0.389497 0.0164102 
99 1.58531 1.59037 3.49474 0.813438 0 0 0 0.149988 0.619352 0.283839 
382 2.94579 1.66321 3.32611 0.956236 0 0 0 0.0216781 0.231214 0.173934 
374 2.17945 1.70019 3.15936 0.782231 0 0 0 -0.408982 0.359921 -0.575194 
367 2.15103 1.73257 3.16272 0.783979 0 0 0 -0.427405 0.31549 -0.617724 
512 1.68194 3.18104 2.91328 0.986986 0 0 0 -0.181814 -0.379592 -0.491412 
498 3.03601 3.15207 3.07828 1.20085 0 0 0 -0.264346 -0.140536 -0.154728 
508 2.36176 2.26392 2.93277 0.848653 0 0 0 -1.00142 -0.572078 -1.04114 
488 2.76679 3.03525 3.02365 1.10813 0 0 0 -0.447063 -0.241921 -0.294048 
100 1.61345 1.74365 3.65537 0.886142 0 0 0 0.0867506 0.432674 0.364276 
245 1.53525 1.87342 3.55191 0.862726 0 0 0 0.113813 0.405971 0.174806 
ITEM: TIMESTEP
740920
ITEM: NUMBER OF ATOMS
512
ITEM: BOX BOUNDS ss ss ss
-8.1988304040437454e-01 3.8875120101141034e+00
-9.7693552394909078e-01 3.9476017366228966e+00
-9.1281994132074906e-01 3.9096273972560476e+00
ITEM: ATOMS id x y z width_SPH x_COM y_COM z_COM vx vy vz 
263 1.46291 0.88658 -0.255336 0.797052 0 0 0 -0.184382 0.0652842 0.617669 
403 1.47176 1.28213 -0.572766 0.836229 0 0 0 -0.296151 -0.417891 -0.281602 
25 0.482326 0.121033 0.002776 1.02263 0 0 0 0.431075 0.529143 0.569943 
279 1.31897 1.03444 -0.484999 0.850875 0 0 0 -0.189051 -0.165801 0.106892 
402 1.48863 1.32749 -0.648028 0.856461 0 0 0 -0.281499 -0.409927 -0.421816 
16 0.28397 0.665584 0.148021 0.902203 0 0 0 0.586613 0.59204 0.780377 
8 0.548851 0.851566 0.116523 0.825728 0 0 0 0.734513 0.682664 1.15151 
131 1.20623 1.40832 0.666079 0.517587 0 0 0 4.80225 6.68672 7.38557 
217 -0.458207 1.32447 1.07566 0.827558 0 0 0 -0.140201 -0.412274 -0.13989 
2 -0.191093 0.578918 0.378226 0.976755 0 0 0 0.269489 0.355316 0.381152 
24 0.947317 0.53808 0.655914 0.732029 0 0 0 1.69009 2.78535 2.58773 
129 -0.0272384 1.21936 0.471868 0.809151 0 0 0 0.464986 -0.111318 0.504372 
224 -0.038172 1.2323 1.0979 0.718725 0 0 0 1.00095 -0.0777392 0.26724 
78 0.717491 0.41629 1.446 0.684303 0 0 0 2.08612 2.94751 0.725901 
67 0.0566807 0.170708 1.35969 0.867432 0 0 0 0.646877 0.692239 0.00585781 
22 1.10962 0.782263 0.476545 0.689885 0 0 0 1.54625 2.71458 3.19776 
125 0.0919226 1.14992 0.334149 0.817637 0 0 0 0.529058 0.0432053 0.639746 
10 0.362733 0.340209 0.337057 0.92079 0 0 0 0.743276 0.865789 0.897128 
68 -0.629258 1.10997 1.49534 0.872301 0 0 0 -0.401472 -0.268309 -0.303182 
116 -0.467663 -0.224838 2.43602 1.06883 0 0 0 -0.510446 -0.413943 -0.058183 
39 1.33122 1.26246 1.96203 0.349428 0 0 0 -0.248205 -0.392723 0.562058 
57 -0.13659 -0.184233 1.60661 0.978298 0 0 0 0.0863129 0.085066 -0.196873 
111 1.47859 0.661623 1.94949 0.479303 0 0 0 3.06067 4.57998 2.611 
59 0.83623 1.31492 2.27397 0.459129 0 0 0 -1.05522 -0.0553212 0.985064 
183 0.484314 1.33661 2.61272 0.586945 0 0 0 -0.675417 -0.0650111 0.479691 
80 1.06797 1.32418 2.08948 0.39489 0 0 0 -0.907323 0.0277808 0.821302 
103 -0.66645 -0.192849 2.21681 1.11079 0 0 0 -0.541716 -0.319409 -0.082135 
63 -0.481046 0.335769 1.67077 0.939106 0 0 0 -0.201756 0.0269391 -0.274235 
64 0.692278 1.25101 1.95541 0.468139 0 0 0 1.8127 3.52155 2.44696 
65 1.41229 1.12562 2.09167 0.384753 0 0 0 0.113502 -1.07846 0.468897 
66 0.536325 -0.153295 1.5622 0.845278 0 0 0 0.649454 0.683622 -0.16417 
27 1.41507 1.3286 1.80373 0.309629 0 0 0 -0.411532 -0.393612 1.394 
343 1.489 1.48457 1.52633 0.252367 0 0 0 0.0620352 0.089078 -0.0237511 
69 0.578507 1.29327 2.42893 0.533074 0 0 0 -0.969985 -0.283512 0.404174 
82 0.156002 0.760121 1.618 0.699974 0 0 0 1.16232 0.8 -0.325269 
71 0.319326 -0.0268592 1.59758 0.843494 0 0 0 0.61824 0.613301 -0.223022 
509 1.47935 1.4766 1.54574 0.254225 0 0 0 0.182438 0.0867119 -0.118273 
226 0.739718 1.28996 2.43124 0.50412 0 0 0 -0.860252 -0.174971 0.697974 
511 1.41956 1.17052 2.0196 0.366044 0 0 0 0.0941947 -0.908614 0.297288 
118 0.968936 0.16709 2.50851 0.690237 0 0 0 -0.380102 -0.897097 -0.669415 
26 1.04232 1.47276 1.91231 0.366375 0 0 0 -0.425551 0.305347 0.348159 
77 0.568463 0.474335 2.28658 0.658595 0 0 0 -0.193259 -0.487499 -0.883519 
92 0.627969 -0.707377 2.33072 0.983501 0 0 0 -0.0562691 -0.633965 -0.231832 
107 0.249773 0.442635 2.19694 0.72425 0 0 0 -0.0884595 -0.275264 -0.803413 
122 1.04947 0.384894 2.37967 0.613128 0 0 0 -0.287006 -0.858505 -0.736359 
94 1.18309 0.61266 2.42577 0.545584 0 0 0 -0.173031 -1.01254 -0.0158056 
247 0.952664 1.10213 2.48174 0.497488 0 0 0 -0.61193 -0.522917 0.847339 
73 1.44161 0.794427 2.54929 0.516407 0 0 0 0.0603495 -0.778574 0.685115 
87 0.756026 0.283347 2.07373 0.669735 0 0 0 0.352348 0.328739 -0.886047 
84 -0.667109 1.05545 2.40896 0.902829 0 0 0 -0.847645 -0.267153 -0.180989 
507 1.18214 1.13119 2.2489 0.425772 0 0 0 -0.485958 -0.575605 1.24119 
169 1.39493 0.991791 2.28374 0.436528 0 0 0 0.174911 -1.07737 1.11082 
85 0.770573 -0.606567 1.99598 0.927264 0 0 0 0.0904891 -0.341431 -0.356416 
371 1.36018 0.868784 2.51445 0.500149 0 0 0 -0.0254087 -0.820964 0.806135 
448 0.609044 1.2891 1.89857 0.48382 0 0 0 1.71744 3.16723 1.99174 
328 0.993112 0.774312 2.21876 0.511072 0 0 0 0.60409 0.591775 0.631526 
112 0.973449 1.266 2.2244 0.433462 0 0 0 -0.947394 -0.0536098 1.19684 
40 0.542464 1.29074 2.42961 0.540921 0 0 0 -0.994468 -0.331641 0.322504 
496 1.48486 1.48105 1.5348 0.253068 0 0 0 0.119653 0.0927591 -0.075975 
42 1.22245 1.29781 2.00116 0.362852 0 0 0 -0.557073 -0.188613 0.501267 
237 1.1156 1.25582 2.14126 0.402224 0 0 0 -0.810523 -0.183993 0.983492 
494 1.38749 1.1901 2.0175 0.364349 0 0 0 -0.0150018 -0.801104 0.357396 
181 0.316496 1.14152 2.56082 0.627438 0 0 0 -0.957827 -0.732092 -0.0855144 
81 -0.121096 -0.621645 2.09638 1.08734 0 0 0 -0.196991 -0.422689 -0.131276 
83 1.18469 -0.506689 2.52987 0.870697 0 0 0 -0.14238 -0.821285 -0.309915 
232 0.998005 1.01239 2.54917 0.515987 0 0 0 -0.467533 -0.616707 0.771076 
93 -0.508155 0.844907 2.0297 0.851665 0 0 0 -0.540502 -0.298775 -0.444173 
61 1.51203 0.359936 1.94817 0.56653 0 0 0 0.589564 1.39728 -0.113138 
349 1.50386 -0.381648 1.57127 0.808644 0 0 0 -0.129197 0.234015 -0.291421 
253 1.16405 1.08585 2.39571 0.460851 0 0 0 -0.611563 -0.906984 0.937578 
193 -0.727533 1.42163 1.55279 0.877437 0 0 0 -0.696317 -0.372884 -0.303485 
506 1.46209 1.27674 1.83872 0.320019 0 0 0 -0.221761 -0.637762 0.942561 
44 -0.248209 1.37175 1.89731 0.712935 0 0 0 -0.599086 -0.717591 -0.652023 
32 1.23784 1.37168 1.88979 0.337001 0 0 0 -0.417987 -0.0102659 0.78046 
493 1.20601 1.42553 1.84334 0.331299 0 0 0 -0.251576 0.0107679 0.833746 
9 1.40197 1.32544 1.82113 0.313669 0 0 0 -0.524694 -0.595533 1.18554 
218 1.31592 1.40023 1.78918 0.309644 0 0 0 -0.538585 -0.471 1.28627 
200 -0.243774 1.45154 1.90837 0.706232 0 0 0 -0.689934 -0.735867 -0.614249 
486 1.31685 1.26323 1.98201 0.354058 0 0 0 0.423565 0.776389 1.34853 
98 0.192038 0.505964 2.67417 0.762684 0 0 0 -0.547787 -0.67928 -0.319412 
113 1.36474 -0.76776 2.84603 0.993321 0 0 0 -0.0519186 -0.877644 0.0551719 
114 -0.662823 0.667391 3.0988 1.0467 0 0 0 -0.730325 -0.208074 0.29216 
108 0.827864 -0.375051 3.19939 0.967031 0 0 0 -0.179661 -0.683321 0.26936 
163 0.568715 0.925246 2.79803 0.645969 0 0 0 -0.628992 -0.714738 0.30337 
60 0.824461 1.36372 3.15258 0.691635 0 0 0 0.333322 0.629433 0.835944 
117 0.983523 0.117895 3.70191 0.978821 0 0 0 -0.1291 -0.308782 0.718546 
51 0.407863 1.42257 2.78812 0.642073 0 0 0 -0.34658 0.249815 0.656793 
88 1.42973 0.53892 3.62921 0.86988 0 0 0 0.00637911 0.0152773 0.894937 
109 -0.521011 -0.195168 3.25587 1.19582 0 0 0 -0.575233 -0.438262 0.393263 
90 -0.819599 0.596004 2.78624 1.05283 0 0 0 -0.798702 -0.216513 0.112031 
91 0.794653 1.1685 3.90935 0.962245 0 0 0 -0.00640092 0.133376 0.951545 
227 1.33614 1.35544 2.76354 0.562283 0 0 0 -0.0936954 0.239788 -0.637922 
438 0.692846 1.45415 3.02108 0.66565 0 0 0 0.310319 0.681423 0.831908 
119 0.719811 0.0526558 3.43824 0.932512 0 0 0 -0.230066 -0.438123 0.511967 
430 1.20336 0.667926 2.80486 0.606696 0 0 0 -0.284906 -0.688805 0.484954 
96 1.21336 -0.44319 3.49594 1.03711 0 0 0 -0.0580978 -0.627555 0.498004 
121 -0.478885 0.852545 3.15732 0.981834 0 0 0 -0.686113 -0.196812 0.337559 
110 0.000525314 -0.178571 2.91004 0.989034 0 0 0 -0.415647 -0.54574 0.0950867 
120 -0.757152 1.33216 2.86286 0.98296 0 0 0 -0.855529 -0.0638541 0.19264 
104 0.101176 -0.598309 3.21263 1.14764 0 0 0 -0.345982 -0.642433 0.341683 
101 0.537343 0.503474 3.11842 0.786339 0 0 0 -0.405484 -0.525518 0.33694 
238 1.23272 1.23413 2.83499 0.574663 0 0 0 0.182207 0.586794 0.304308 
123 -0.316987 2.86792 -0.691706 1.18977 0 0 0 -0.540334 0.32979 -0.659813 
159 0.397829 3.05214 -0.625387 1.0548 0 0 0 -0.285717 0.503076 -0.690772 
142 1.18785 3.80509 -0.0596186 1.05791 0 0 0 -0.106357 0.892008 -0.316696 
126 -0.541275 3.21742 0.184409 1.10844 0 0 0 -0.644965 0.551738 -0.319691 
127 0.80551 2.06303 -0.832087 0.949855 0 0 0 -0.270554 -0.262301 -0.886181 
158 0.896474 2.14782 -0.502462 0.825353 0 0 0 -0.343743 -0.410897 -0.874052 
143 -0.162426 2.5139 -0.78899 1.13562 0 0 0 -0.507467 0.116801 -0.735179 
149 1.11663 2.1868 -0.912539 0.95857 0 0 0 -0.152831 -0.11596 -0.939872 
151 1.36321 3.36621 0.288898 0.844525 0 0 0 0.0302183 0.959207 0.045029 
274 1.33477 2.01644 -0.0268086 0.636671 0 0 0 -0.366982 -0.743742 -0.663841 
157 0.0134421 1.64299 0.12894 0.82107 0 0 0 -0.2111 -0.666836 -0.103391 
156 -0.609029 1.93331 -0.650127 1.19062 0 0 0 -0.599138 -0.0660171 -0.549853 
130 0.986171 2.15088 0.26769 0.593015 0 0 0 -0.524933 -0.34017 -0.634999 
148 0.698615 1.49458 -0.23256 0.791591 0 0 0 -0.0750172 -0.610811 0.077435 
137 -0.708162 2.86987 0.246399 1.07808 0 0 0 -0.787209 0.323148 -0.310874 
138 0.424975 2.62752 -0.593782 0.963033 0 0 0 -0.356592 0.182121 -0.803835 
141 0.160029 1.997 -0.415259 0.914399 0 0 0 -0.476548 -0.434292 -0.672646 
140 0.862149 2.60215 -0.809086 0.979759 0 0 0 -0.192269 0.196974 -0.875605 
443 1.31898 2.0852 0.116075 0.599077 0 0 0 -0.363286 -0.428214 -0.737792 
444 1.48154 2.23981 0.0627816 0.620902 0 0 0 -0.259596 0.134118 -0.787046 
136 1.03226 1.89169 0.22151 0.59717 0 0 0 -0.148976 -0.793369 0.0687867 
268 1.46276 2.00807 0.113331 0.589761 0 0 0 -0.280098 -0.513198 -0.711764 
146 0.824173 2.05113 0.253741 0.615594 0 0 0 -0.451162 -0.790437 -0.37936 
180 0.816321 2.50706 0.789621 0.565314 0 0 0 -0.421981 1.23139 -0.29928 
190 0.821832 3.29161 1.17401 0.773674 0 0 0 0.338237 0.751384 0.367144 
178 -0.546736 3.08541 1.13917 0.97406 0 0 0 -0.646013 0.581687 -0.020484 
220 0.899068 2.23257 1.45455 0.460905 0 0 0 -1.92834 -2.57284 -1.96276 
189 1.01701 2.26104 0.814594 0.487553 0 0 0 -0.947547 1.11262 -0.606356 
165 1.04879 2.30438 0.745465 0.502536 0 0 0 -0.824565 1.15655 -0.661783 
128 1.38577 3.34334 1.25181 0.793523 0 0 0 0.238311 -0.01045 0.379263 
185 0.700688 3.36968 1.30718 0.807798 0 0 0 0.306454 0.749866 0.317385 
168 0.779366 2.05425 1.00596 0.471617 0 0 0 -0.205717 1.5364 0.706404 
186 -0.767699 1.72337 0.481581 0.98353 0 0 0 -0.740631 -0.285025 -0.211626 
170 0.556739 2.28227 0.547179 0.609206 0 0 0 -0.639404 -0.127221 -0.555091 
171 0.284591 3.56153 0.91582 0.929537 0 0 0 -0.124096 0.922005 0.0251829 
175 -0.673993 2.64647 1.34235 0.922315 0 0 0 -0.838148 0.285616 -0.0589374 
124 0.946511 2.13445 1.0301 0.448061 0 0 0 -1.03357 1.02046 -0.156155 
187 -0.341976 2.06187 0.381157 0.853132 0 0 0 -0.732632 -0.502035 -0.361217 
134 1.44029 2.99975 0.715263 0.686526 0 0 0 0.237592 0.772249 0.575625 
198 1.10453 2.48525 1.32487 0.519689 0 0 0 -1.07325 -2.52527 -1.23758 
426 1.5256 1.8097 1.03415 0.350828 0 0 0 0.374276 0.39947 0.23652 
147 1.22188 1.9207 1.15987 0.365564 0 0 0 -0.682155 -0.613475 0.426951 
133 1.04449 2.31189 0.32424 0.588103 0 0 0 -0.518638 0.365556 -0.734257 
188 0.398828 2.22612 0.467428 0.652193 0 0 0 -0.608885 -0.528068 -0.525437 
20 1.40122 1.64925 1.36986 0.284342 0 0 0 1.5882 -0.490964 -0.210465 
216 -0.0737823 2.3515 1.33666 0.682758 0 0 0 -0.676864 0.162971 -0.232999 
206 -0.717441 1.91108 1.19378 0.879573 0 0 0 -0.880908 -0.367041 -0.250318 
154 -0.280091 3.20781 0.526565 0.9784 0 0 0 -0.533188 0.672505 -0.188905 
144 1.30247 2.01088 0.912941 0.407619 0 0 0 -0.672843 1.05425 -0.23841 
423 1.18172 2.03444 0.977321 0.411242 0 0 0 -0.851334 1.06116 0.0834451 
135 -0.226256 3.1214 0.410251 0.958211 0 0 0 -0.535656 0.63211 -0.247132 
192 0.529691 2.18854 0.465834 0.623395 0 0 0 -0.589956 -0.541651 -0.501815 
194 0.171576 2.21542 0.651667 0.670491 0 0 0 -0.636088 -0.568308 -0.48012 
196 0.990082 2.8906 1.10309 0.640602 0 0 0 0.388188 0.633293 0.419029 
203 0.532324 2.55462 0.541049 0.655196 0 0 0 -0.461082 0.623887 -0.448617 
150 1.41059 1.88557 0.988773 0.370977 0 0 0 2.87148 5.46172 3.78958 
214 -0.0711037 1.80496 0.791839 0.711169 0 0 0 -0.190243 -1.00773 -0.172925 
425 1.42104 1.95119 0.905403 0.394391 0 0 0 -0.268474 0.944415 -0.30227 
48 0.228421 2.29403 0.62342 0.667391 0 0 0 -0.652833 -0.340632 -0.509608 
162 1.52738 1.51565 1.44983 0.254791 0 0 0 -0.400387 0.113562 0.320305 
177 0.870213 1.99607 1.31465 0.416626 0 0 0 -0.428034 0.917065 0.358997 
139 0.90101 3.94732 0.7486 1.02061 0 0 0 -0.0239451 0.908768 -0.0296449 
461 1.38949 1.75363 1.23162 0.316837 0 0 0 0.788748 0.0389248 0.35332 
210 0.261609 2.17599 0.847563 0.616 0 0 0 -0.594591 -0.510722 -0.434906 
480 1.02343 2.02374 1.13293 0.40987 0 0 0 -0.664008 0.947543 0.473109 
28 1.05077 1.83854 1.40401 0.360317 0 0 0 0.7454 0.122639 0.746365 
489 0.558851 2.27473 1.21427 0.519894 0 0 0 -0.64002 0.853574 -0.177994 
4 1.22246 1.72084 1.42292 0.315213 0 0 0 1.31355 -0.333596 0.53899 
19 1.14084 2.47427 0.428791 0.585361 0 0 0 -0.345426 1.10181 -0.529067 
336 0.479584 2.37429 1.1893 0.555287 0 0 0 -0.451932 0.940805 -0.147879 
469 1.04049 2.01732 1.12836 0.406969 0 0 0 -0.641562 0.936161 0.520212 
308 0.417192 2.38389 1.20765 0.568908 0 0 0 -0.422007 0.882996 -0.1444 
15 1.22459 1.8628 1.21613 0.350381 0 0 0 0.329913 0.109404 1.24208 
424 1.33272 2.62684 0.397187 0.618371 0 0 0 -0.072537 1.2974 -0.162101 
7 1.37249 2.12815 0.709261 0.457162 0 0 0 -0.584476 1.11293 -1.16696 
174 1.2968 1.80757 1.23499 0.332179 0 0 0 0.573406 -0.124966 0.946293 
6 1.09486 1.81937 1.39359 0.350537 0 0 0 0.885996 -0.021801 0.82039 
458 0.509349 2.15864 1.40969 0.503691 0 0 0 -0.692654 0.732832 -0.0556038 
433 1.53015 1.83936 0.985043 0.363365 0 0 0 0.317711 0.587874 0.0927786 
437 1.46749 2.04177 0.748695 0.434924 0 0 0 -0.336962 1.01712 -1.2323 
153 1.27973 1.81894 1.23334 0.335817 0 0 0 0.531795 -0.101216 1.03837 
286 1.4825 2.0299 0.753368 0.432213 0 0 0 -0.289549 0.996563 -1.23863 
195 0.960329 1.93965 1.32813 0.392723 0 0 0 -0.00411919 0.669693 0.653895 
399 1.51634 1.93623 0.866635 0.397934 0 0 0 -0.429477 0.219912 -1.13873 
354 0.50341 2.10106 1.49637 0.495894 0 0 0 -0.74094 0.714478 0.0203638 
372 1.50625 1.49957 1.49052 0.251512 0 0 0 -0.21305 0.0451167 0.264191 
164 0.232472 1.81996 1.47903 0.555413 0 0 0 -0.18704 -0.251067 -0.150826 
17 1.50459 1.49817 1.49392 0.251439 0 0 0 -0.188135 0.0475488 0.240305 
52 0.953889 1.86577 1.44847 0.38025 0 0 0 0.39557 0.46292 0.490522 
145 0.944091 3.68323 0.319778 0.962029 0 0 0 -0.0697326 0.942556 -0.136526 
256 0.558345 2.11604 1.73864 0.496383 0 0 0 -0.760104 0.519775 0.0906397 
495 1.0431 1.64388 1.68229 0.346147 0 0 0 0.726471 0.284283 0.134354 
248 0.868777 1.5629 1.93386 0.401684 0 0 0 -0.734032 0.724691 0.574555 
43 0.148919 2.3144 1.81884 0.623843 0 0 0 -0.186897 0.906606 0.49137 
76 0.906797 1.57912 1.88406 0.389081 0 0 0 -0.517955 0.64648 0.347151 
450 0.854476 1.64818 1.83469 0.397157 0 0 0 -0.471431 0.832838 0.328221 
166 1.19151 3.39112 1.71318 0.833435 0 0 0 0.311548 -0.187258 0.0848088 
70 0.975131 2.32044 2.3029 0.608752 0 0 0 0.374628 -1.55703 -1.46663 
199 -0.163992 2.48214 2.51655 0.815895 0 0 0 -0.221954 0.751759 0.499426 
223 -0.313713 3.51999 2.20263 1.0656 0 0 0 -0.342993 0.73077 0.185298 
201 -0.0323005 3.0138 1.68138 0.815641 0 0 0 -0.0812618 0.978491 0.26742 
243 0.900446 2.03172 2.39422 0.562176 0 0 0 0.102823 -1.11854 -1.35639 
191 0.402007 2.14629 2.61255 0.667711 0 0 0 0.537614 1.16211 0.686839 
204 0.494256 3.8316 2.13436 1.03917 0 0 0 0.0831383 0.663348 0.133755 
49 0.769416 1.87247 1.59107 0.417372 0 0 0 -0.387926 1.00493 0.294937 
160 0.914956 1.82328 1.54462 0.382719 0 0 0 0.27646 0.470691 0.187985 
207 0.786912 2.75748 2.50756 0.754782 0 0 0 0.726066 0.142282 -0.116915 
208 1.03097 2.3911 1.63945 0.51809 0 0 0 -1.29692 -4.15703 -2.32233 
209 0.529453 2.2009 1.58261 0.507848 0 0 0 -0.583108 0.778412 0.0883932 
447 0.197365 2.26426 2.14673 0.639122 0 0 0 0.0858265 1.11297 0.777299 
211 0.711174 3.69218 1.79547 0.94362 0 0 0 0.228624 0.561479 0.152201 
212 0.655033 3.2858 1.83326 0.812311 0 0 0 0.469039 0.508444 0.273235 
213 0.0678186 3.4769 2.25792 0.980741 0 0 0 -0.0320889 0.748342 0.229384 
490 1.46129 1.49805 1.53103 0.253854 0 0 0 1.29219 -0.7111 0.128584 
215 0.794994 3.88391 2.27497 1.06153 0 0 0 0.148999 0.502797 0.0716959 
184 1.5004 1.49456 1.50257 0.251402 0 0 0 -0.121572 0.0574123 0.171685 
55 0.266688 2.26505 1.5319 0.574509 0 0 0 -0.4044 0.671145 0.0856492 
505 0.361111 1.60465 2.26191 0.548763 0 0 0 -0.983685 0.180586 0.294848 
255 1.2108 2.61046 2.17651 0.668956 0 0 0 0.0488938 -2.31927 -1.57554 
479 0.0168439 2.36862 2.04038 0.686487 0 0 0 -0.169983 0.92035 0.583085 
173 -0.124534 1.91621 1.83532 0.65983 0 0 0 -0.837743 -0.402924 -0.215177 
318 0.349869 1.78873 2.07953 0.534863 0 0 0 -0.898998 0.41372 0.36044 
54 0.430615 1.94054 1.8001 0.502881 0 0 0 -0.875875 0.602246 0.284632 
34 0.259992 2.18277 1.85537 0.577331 0 0 0 -0.275814 0.845169 0.514628 
172 0.165963 2.12749 1.58858 0.582573 0 0 0 -0.604293 0.131414 -0.073504 
229 1.08131 2.33348 2.53378 0.661704 0 0 0 0.497476 -1.05239 -1.40601 
234 1.0441 1.64647 1.67795 0.345828 0 0 0 0.74492 0.277173 0.135897 
252 1.15751 1.61768 1.62228 0.318147 0 0 0 1.06401 -0.250411 0.524672 
235 1.04833 1.62 1.71022 0.345715 0 0 0 0.626097 0.289138 0.162462 
29 0.843073 1.72179 1.74557 0.396695 0 0 0 -0.258769 0.877853 0.216123 
513 0.660689 1.56778 2.09005 0.460314 0 0 0 -1.20275 0.513734 0.742816 
241 1.0601 1.60521 1.72045 0.343451 0 0 0 0.600718 0.25551 0.207224 
38 0.320514 1.75881 2.2745 0.566249 0 0 0 -0.693054 0.511569 0.471379 
35 0.252082 1.7616 2.40264 0.603927 0 0 0 -0.543906 0.556811 0.510716 
30 0.500205 1.66022 2.12088 0.499532 0 0 0 -1.10757 0.44083 0.496591 
239 -0.586854 2.64442 2.57886 0.97414 0 0 0 -0.577165 0.458323 0.298068 
233 0.904607 1.60663 1.8497 0.386761 0 0 0 -0.399192 0.66948 0.256705 
75 0.829564 1.66229 1.83748 0.403139 0 0 0 -0.564104 0.86752 0.365783 
219 1.50021 1.49439 1.50297 0.251406 0 0 0 -0.118394 0.0579709 0.168284 
167 1.5004 1.49455 1.50259 0.251402 0 0 0 -0.121434 0.0574365 0.171538 
466 1.5002 1.49438 1.503 0.251406 0 0 0 -0.118166 0.0580113 0.168039 
471 1.50021 1.49439 1.50297 0.251406 0 0 0 -0.118438 0.0579631 0.168331 
36 1.50028 1.49445 1.50282 0.251404 0 0 0 -0.119613 0.0577564 0.169589 
278 1.50195 1.49591 1.49935 0.251391 0 0 0 -0.146718 0.0532344 0.198252 
37 1.50088 1.49498 1.50157 0.251396 0 0 0 -0.129486 0.0561164 0.180022 
58 1.50159 1.49559 1.50011 0.251391 0 0 0 -0.140973 0.0542419 0.192111 
47 1.07812 1.7557 1.49969 0.343426 0 0 0 1.02044 -0.136271 0.347766 
477 1.50167 1.49566 1.49993 0.251391 0 0 0 -0.142193 0.0539524 0.19352 
355 1.50134 1.49537 1.50063 0.251392 0 0 0 -0.136804 0.0548282 0.187854 
334 1.50104 1.49511 1.50125 0.251394 0 0 0 -0.131901 0.0556429 0.182674 
476 1.50097 1.49505 1.50139 0.251395 0 0 0 -0.130829 0.0558233 0.181538 
179 1.50088 1.49498 1.50157 0.251396 0 0 0 -0.129422 0.0560613 0.180045 
222 1.50059 1.49472 1.50219 0.251399 0 0 0 -0.124583 0.0568894 0.174899 
302 1.50065 1.49478 1.50205 0.251398 0 0 0 -0.12567 0.056702 0.176057 
176 1.50066 1.49478 1.50204 0.251398 0 0 0 -0.125731 0.0566916 0.176121 
225 0.922811 2.39726 3.41235 0.888288 0 0 0 0.37368 0.377037 0.3118 
106 0.302739 2.02715 3.35324 0.857242 0 0 0 0.120795 0.569729 0.780085 
249 -0.498564 2.47087 2.81672 0.959174 0 0 0 -0.536682 0.431533 0.394132 
228 -0.108659 3.23446 3.60258 1.22453 0 0 0 -0.281619 0.494548 0.579488 
254 -0.486122 2.76307 3.5122 1.1744 0 0 0 -0.471135 0.385436 0.584951 
230 0.506969 3.71141 2.99961 1.13779 0 0 0 0.0269073 0.555027 0.264738 
231 0.569903 2.2762 3.57918 0.935089 0 0 0 0.214653 0.457932 0.686151 
242 0.544178 2.40528 3.25163 0.856903 0 0 0 0.388563 0.605954 0.516854 
246 -0.356555 2.01124 3.52012 1.04153 0 0 0 -0.460416 0.227394 0.669545 
464 0.277932 1.66567 2.73315 0.660818 0 0 0 -0.25319 0.600738 0.673429 
205 0.789509 1.62298 3.04757 0.674938 0 0 0 0.588809 0.903125 0.63976 
251 0.368726 3.45847 3.03809 1.07462 0 0 0 0.0473324 0.574844 0.33177 
105 -0.172736 1.52945 3.72937 1.04181 0 0 0 -0.383875 0.075503 0.777714 
250 0.796415 3.13054 3.39931 1.05193 0 0 0 0.168008 0.346719 0.318563 
244 1.25516 2.37352 3.45388 0.901675 0 0 0 0.225143 0.19422 0.0630365 
240 -0.31658 3.69299 3.4091 1.33894 0 0 0 -0.398563 0.5743 0.443194 
257 3.62637 1.21803 -0.278452 1.02738 0 0 0 0.662281 -0.0959443 -0.447612 
441 1.86625 1.15928 0.029394 0.661003 0 0 0 -0.675371 -0.369659 0.601591 
288 3.67371 0.85792 0.0530699 0.991895 0 0 0 0.717082 -0.235563 -0.334335 
260 3.1323 0.827982 -0.609118 1.01911 0 0 0 0.333837 -0.27432 -0.675073 
261 3.52398 -0.10013 0.154678 1.093 0 0 0 0.502732 -0.63478 -0.330564 
276 2.55308 0.780194 -0.320852 0.838317 0 0 0 -0.251421 -0.566767 -0.547732 
427 2.22868 1.08023 0.208779 0.632712 0 0 0 -0.822419 -0.713987 -0.101768 
285 1.77615 0.218845 -0.0315071 0.864555 0 0 0 -0.185598 0.145296 0.517847 
436 2.35115 1.42219 -0.0512734 0.678329 0 0 0 -0.406561 -0.673975 -0.734139 
266 2.66025 0.936349 -0.843429 1.00718 0 0 0 0.0635734 -0.223777 -0.783953 
267 3.03037 0.608848 -0.0398121 0.865183 0 0 0 0.159059 -0.643761 -0.506136 
293 2.10191 1.07614 -0.87053 0.957156 0 0 0 -0.174105 -0.223632 -0.718724 
269 2.55512 0.949697 -0.706888 0.943091 0 0 0 -0.049512 -0.288858 -0.743542 
270 2.46766 0.61222 -0.432214 0.89163 0 0 0 -0.223502 -0.523992 -0.496712 
271 3.2313 -0.579435 -0.17608 1.23192 0 0 0 0.360722 -0.692764 -0.37634 
272 1.6467 0.82302 0.128513 0.702435 0 0 0 -0.205658 0.701075 1.55329 
284 2.0421 0.324118 -0.432478 0.936212 0 0 0 -0.243774 -0.335195 -0.149025 
290 2.38962 -0.69084 -0.214174 1.17656 0 0 0 0.0652903 -0.547449 -0.230055 
291 3.16122 0.33452 -0.492727 1.06555 0 0 0 0.325714 -0.499021 -0.575627 
294 3.06872 0.327578 0.682208 0.794011 0 0 0 0.101739 -0.942265 -0.433157 
23 1.96011 1.40533 1.23484 0.349079 0 0 0 -0.599642 -0.217018 0.0857794 
453 2.93384 0.913307 1.3622 0.602815 0 0 0 0.732835 -0.100579 0.132437 
18 1.90807 1.36094 1.34067 0.333034 0 0 0 -1.25072 0.0133661 0.295476 
298 2.04666 1.34271 1.25147 0.367169 0 0 0 -0.540442 -0.421508 0.0781945 
299 2.91921 0.965583 1.15319 0.600935 0 0 0 0.695796 -0.294023 -0.119162 
451 2.12579 1.28904 1.26587 0.385298 0 0 0 -0.25469 -0.637291 -0.07468 
301 3.70183 0.535434 1.4268 0.900413 0 0 0 0.879132 -0.217178 0.0445903 
264 2.45148 0.855525 0.620124 0.597323 0 0 0 -0.523673 -0.843215 -0.416909 
445 2.28054 1.21985 1.24787 0.423473 0 0 0 0.5555 -0.751927 -0.307369 
304 2.19734 1.11986 1.1435 0.431067 0 0 0 2.27643 2.78624 2.37183 
41 2.86421 0.991058 0.87228 0.609246 0 0 0 0.493107 -0.669923 -0.497255 
306 1.99418 1.20525 1.4957 0.358717 0 0 0 -1.55157 -0.175034 0.055671 
307 2.07217 1.04504 1.19281 0.42547 0 0 0 3.78051 7.11371 5.71556 
277 2.64747 1.39933 0.721804 0.548761 0 0 0 0.848623 -0.16492 -0.410689 
309 3.42368 0.409363 1.28612 0.825456 0 0 0 0.705409 -0.507605 -0.108083 
310 2.04761 -0.00925687 1.06794 0.725922 0 0 0 -0.566257 0.412293 0.0784876 
311 2.88348 1.04322 0.925476 0.602777 0 0 0 0.627625 -0.456734 -0.367894 
341 2.75568 1.06758 0.733253 0.594097 0 0 0 0.363302 -0.793603 -0.668219 
432 2.74186 1.44695 0.883125 0.554672 0 0 0 0.862988 0.249302 0.0388756 
161 2.00055 1.43222 1.16425 0.363505 0 0 0 -0.0700493 -0.338532 -0.117124 
182 2.69528 1.32604 0.523277 0.596687 0 0 0 0.459705 -0.519122 -0.622915 
316 2.92723 -0.308191 0.756846 0.924412 0 0 0 0.054769 -0.866029 -0.307175 
317 3.34937 0.0147895 0.768076 0.924399 0 0 0 0.394665 -0.767706 -0.282432 
275 3.4093 -0.820411 0.709982 1.195 0 0 0 0.430012 -0.788082 -0.184217 
33 2.65971 0.845092 1.48872 0.537873 0 0 0 0.731263 -0.58477 0.0576698 
320 1.86541 0.0375334 0.931902 0.734203 0 0 0 -0.348781 1.04579 0.59928 
72 2.19325 1.16818 1.39318 0.403133 0 0 0 -0.136042 -0.76993 -0.024818 
265 1.93826 -0.369082 0.732911 0.882173 0 0 0 -0.204912 0.0532938 0.157708 
501 2.42646 1.15684 1.21412 0.460778 0 0 0 0.925096 -0.612922 -0.326135 
56 2.5703 0.702985 0.532524 0.656289 0 0 0 -0.587875 -1.04465 -0.472241 
325 2.33716 1.10413 1.34222 0.440663 0 0 0 0.761393 -0.601314 0.0304257 
287 2.41139 -0.366538 0.555639 0.915705 0 0 0 -0.190777 -0.554733 -0.138711 
327 3.3612 1.249 1.48977 0.729283 0 0 0 0.602853 0.610915 0.46524 
329 1.95981 0.208874 1.14449 0.655284 0 0 0 -0.514388 1.36137 0.567951 
428 2.78133 0.813914 1.48194 0.571737 0 0 0 0.696732 -0.434593 0.0856473 
31 2.45657 0.720505 0.487633 0.649596 0 0 0 -0.729146 -0.86221 -0.283677 
283 1.78569 0.84432 0.902973 0.529919 0 0 0 2.21525 7.11786 5.72981 
326 2.49871 1.10644 1.22629 0.479728 0 0 0 0.917722 -0.587108 -0.275478 
470 3.20794 1.21787 1.38466 0.67538 0 0 0 0.604921 0.650641 0.479883 
313 2.78304 0.837259 1.4233 0.569373 0 0 0 0.688843 -0.46978 0.030484 
457 1.88294 1.3176 1.42382 0.328054 0 0 0 -1.57495 0.173536 0.325462 
455 2.09929 1.46728 1.04026 0.396739 0 0 0 0.737334 -0.566859 -0.644792 
422 2.35314 1.29626 1.0816 0.446575 0 0 0 1.03419 -0.563887 -0.623663 
456 2.55983 0.341727 1.38463 0.628055 0 0 0 -0.349833 -1.08267 -0.530468 
474 1.85406 1.42 1.30336 0.322765 0 0 0 -0.75646 0.168844 0.00898961 
300 3.62897 -0.22232 1.47508 1.02441 0 0 0 0.628927 -0.628312 -0.0936856 
478 2.35708 1.45326 0.867202 0.466216 0 0 0 1.20523 -0.344457 -0.812704 
340 1.70263 1.43604 1.41147 0.28635 0 0 0 -0.969047 0.607289 -0.388295 
281 1.70783 0.00684485 0.314218 0.851724 0 0 0 -0.0686606 0.525071 0.73644 
333 2.95213 0.625806 2.57619 0.753149 0 0 0 0.713167 0.398761 0.50229 
323 1.96023 1.06256 1.74772 0.38267 0 0 0 -0.574208 -0.518589 -0.531208 
335 2.66603 0.84728 2.44812 0.646095 0 0 0 0.592431 0.832725 0.530736 
491 1.78686 1.17973 1.7055 0.338068 0 0 0 -0.88019 0.10247 -0.515513 
337 2.05362 -0.945727 1.91696 0.993529 0 0 0 -0.0302114 -0.872258 -0.198431 
338 3.03182 0.240145 2.16305 0.772456 0 0 0 0.62138 -0.400494 0.185012 
339 1.79311 0.243028 1.69179 0.597996 0 0 0 -0.162249 1.31186 -0.084709 
370 1.65925 -0.976654 2.59511 1.0346 0 0 0 -0.00372119 -0.913984 -0.00498804 
452 2.42607 0.244125 1.74988 0.624615 0 0 0 -0.262866 -1.04642 -0.489083 
295 2.09994 0.574211 2.39619 0.559712 0 0 0 0.422636 -0.554896 0.449767 
296 2.19624 1.05236 1.56909 0.416347 0 0 0 0.0525031 -0.767657 0.00163296 
344 2.37282 0.960798 1.94511 0.493171 0 0 0 0.0946283 -0.74794 -0.195019 
345 3.40708 1.06476 2.12278 0.79571 0 0 0 0.617703 0.513858 0.408942 
346 2.01393 0.960268 1.86444 0.41594 0 0 0 0.212469 -0.860819 0.00188737 
364 1.68475 1.12265 1.87405 0.355486 0 0 0 0.0337255 -0.642542 -0.440911 
348 3.88722 1.46542 2.1892 0.984175 0 0 0 0.623099 0.145069 0.180689 
331 2.11756 0.995943 1.72374 0.415842 0 0 0 0.0795095 -0.764444 -0.0602327 
350 2.36019 -0.0946076 1.6119 0.719205 0 0 0 -0.476411 -0.847112 -0.611092 
351 1.77258 1.2331 1.64011 0.3237 0 0 0 -1.06181 0.265014 -0.192395 
352 2.46185 0.668521 2.2626 0.582333 0 0 0 0.676362 0.0573185 0.58252 
363 2.55574 -0.637626 2.03573 0.9233 0 0 0 0.0626255 -0.993199 -0.189405 
45 1.68419 1.14928 1.83489 0.346042 0 0 0 -0.0692563 -0.451274 -0.387244 
365 1.6938 0.222895 2.39009 0.619916 0 0 0 -0.246779 -1.20423 -0.522472 
356 3.26093 1.43479 2.49168 0.819987 0 0 0 0.0771999 0.442798 0.10864 
357 2.16286 1.0865 2.24831 0.502363 0 0 0 -1.19526 -1.26629 -1.34791 
358 2.14803 0.6664 2.60498 0.595299 0 0 0 0.560577 0.181478 0.638772 
359 3.56757 -0.600352 2.21029 1.1353 0 0 0 0.571194 -0.671623 0.0263247 
360 1.95002 0.186189 2.18312 0.617078 0 0 0 -0.299135 -1.06733 -0.548429 
361 2.06205 -0.717432 1.53364 0.916869 0 0 0 -0.165967 -0.66799 -0.288192 
362 2.41713 0.274346 1.96775 0.621372 0 0 0 -0.0196186 -1.05126 -0.2669 
460 1.97017 1.14592 1.60674 0.364134 0 0 0 -1.33179 -0.186214 -0.367951 
303 2.32215 1.05423 1.64055 0.446361 0 0 0 -0.243781 -1.64985 -0.782058 
393 1.97008 -0.328923 2.07153 0.770049 0 0 0 -0.341793 -0.89514 -0.52336 
324 2.45377 0.691627 1.9828 0.53993 0 0 0 0.658949 -0.447217 0.399796 
312 3.14154 1.31987 1.96638 0.699458 0 0 0 -0.0356623 0.799488 0.326156 
375 1.79871 0.918456 2.0944 0.426676 0 0 0 0.572365 -1.16249 0.509332 
459 2.65915 0.457155 1.80806 0.612565 0 0 0 0.369619 -0.81936 -0.0486873 
62 1.74291 1.05768 1.9291 0.377706 0 0 0 0.10349 -0.930947 -0.414921 
380 2.33975 0.664182 2.34272 0.573094 0 0 0 0.614343 -0.00925591 0.600926 
485 1.68786 1.16812 1.80446 0.339539 0 0 0 -0.171974 -0.322037 -0.330359 
510 2.07899 0.979133 1.78211 0.415852 0 0 0 0.124197 -0.792014 -0.0555854 
497 1.81804 0.60948 2.48231 0.542851 0 0 0 0.301616 -0.771584 0.409407 
347 1.77136 -0.881264 1.97401 0.962734 0 0 0 -0.0895682 -0.786567 -0.247528 
377 3.60723 1.30346 2.5684 0.933681 0 0 0 0.514239 0.272028 0.238895 
314 2.71491 0.74678 1.72331 0.570736 0 0 0 0.739707 -0.292775 0.267 
388 1.7547 1.18522 1.72428 0.334976 0 0 0 -0.686796 0.0364709 -0.441838 
315 2.63579 0.314005 1.72365 0.638919 0 0 0 0.0537984 -1.04208 -0.326311 
472 2.09293 0.870486 1.94172 0.448093 0 0 0 0.491669 -0.963503 0.346168 
483 1.82859 0.756593 2.34807 0.493684 0 0 0 0.439344 -0.869968 0.607088 
481 2.18419 0.922711 1.7832 0.441244 0 0 0 0.450425 -0.865718 0.16124 
53 1.96945 0.837121 2.09145 0.454928 0 0 0 0.523524 -1.05337 0.546229 
484 1.5969 0.907435 2.25911 0.443748 0 0 0 0.520607 -1.21085 0.880171 
384 3.3199 -0.642182 2.68997 1.13434 0 0 0 0.46807 -0.689854 0.149526 
79 1.68551 1.09273 1.92022 0.36669 0 0 0 0.137687 -0.882815 -0.419375 
492 1.57913 1.14675 1.92413 0.353495 0 0 0 0.285129 -0.823562 -0.0685715 
102 1.57313 0.883407 2.31387 0.456291 0 0 0 0.432668 -1.15586 0.886032 
353 2.07855 1.26353 2.64018 0.588622 0 0 0 -0.784973 0.435461 -1.26512 
462 2.05822 1.16867 1.5 0.374841 0 0 0 -1.12478 -0.441432 -0.00750267 
366 3.18681 0.394559 3.69956 1.11941 0 0 0 0.427848 -0.0589633 0.661255 
89 1.72108 0.843363 2.90214 0.612809 0 0 0 0.333672 0.563431 0.677283 
368 3.28497 -0.261778 3.55747 1.21015 0 0 0 0.427465 -0.424277 0.520475 
369 3.64678 0.246238 3.45704 1.1909 0 0 0 0.608265 -0.163268 0.482315 
378 2.68148 0.577429 2.86987 0.757393 0 0 0 0.589606 0.356558 0.599834 
389 2.14753 0.922806 3.36328 0.790333 0 0 0 0.301161 0.639936 0.697744 
95 1.59937 0.244861 3.84569 0.991727 0 0 0 0.025993 -0.174654 0.844419 
373 1.65834 -0.0884631 2.8068 0.767134 0 0 0 -0.12711 -0.983991 -0.0239046 
390 2.59699 1.19523 3.71533 0.975798 0 0 0 0.204644 0.33412 0.633324 
86 1.82023 1.15323 3.19897 0.705231 0 0 0 0.238566 0.999393 0.374339 
376 2.3167 1.03752 3.19033 0.758194 0 0 0 0.30253 0.83123 0.474048 
391 3.65086 0.0254023 3.45501 1.22492 0 0 0 0.591518 -0.27621 0.462932 
236 1.54662 0.573468 2.76919 0.603729 0 0 0 0.00795322 -0.614124 0.469204 
379 2.2848 0.0643867 2.74733 0.757384 0 0 0 0.197676 -0.711359 0.263037 
392 3.16307 0.164081 2.91473 0.933109 0 0 0 0.561878 -0.181145 0.368097 
381 3.33651 -0.184166 3.45156 1.17626 0 0 0 0.46846 -0.388441 0.486799 
115 1.62185 0.85673 2.99928 0.635538 0 0 0 0.269727 0.566789 0.738448 
386 3.19116 1.24291 3.66153 1.08252 0 0 0 0.343939 0.202037 0.542284 
97 1.83972 0.614675 2.73122 0.599049 0 0 0 0.341737 -0.192293 0.590656 
385 2.36353 -0.0875438 3.34842 0.945014 0 0 0 0.184307 -0.438183 0.551903 
413 2.04561 3.55204 0.256291 0.937594 0 0 0 0.0167832 0.826879 0.10675 
396 3.29248 3.22369 0.0353786 1.0748 0 0 0 0.396754 0.49032 -0.151132 
417 1.86394 3.11945 -0.421521 0.938948 0 0 0 0.0259721 0.635522 -0.497423 
398 3.25696 2.67494 0.143852 0.921572 0 0 0 0.465726 0.36335 -0.0248072 
418 3.60253 2.06813 -0.0315401 0.979936 0 0 0 0.66818 0.103278 -0.267779 
400 3.51106 2.53616 -0.0693595 1.01263 0 0 0 0.566666 0.207825 -0.261319 
420 1.73365 2.37769 -0.458368 0.80256 0 0 0 0.0173754 0.14996 -0.82197 
414 2.02101 2.40556 -0.00567581 0.688317 0 0 0 0.194023 0.747591 -0.38622 
416 2.84934 3.42507 -0.151611 1.0695 0 0 0 0.207369 0.613224 -0.261567 
404 3.3127 3.00276 -0.20117 1.07257 0 0 0 0.424776 0.36671 -0.332238 
415 3.39604 3.43407 0.0890904 1.15433 0 0 0 0.404613 0.5388 -0.151414 
322 1.89506 1.81395 -0.137585 0.663463 0 0 0 -0.322319 -0.680459 -0.736565 
407 3.49973 1.68272 -0.386593 1.01347 0 0 0 0.577604 0.0301359 -0.502839 
408 2.0203 1.93863 -0.607186 0.832006 0 0 0 -0.0249704 -0.176083 -0.869662 
202 2.56613 1.60661 0.1749 0.644144 0 0 0 0.242784 -0.252927 -0.7042 
410 3.59069 2.9862 -0.00985235 1.11005 0 0 0 0.546396 0.338194 -0.221804 
411 1.93646 3.67859 -0.355093 1.08849 0 0 0 -0.0202915 0.765221 -0.418133 
289 2.40056 1.93837 0.24471 0.614264 0 0 0 0.514097 0.450131 -0.390119 
262 1.74618 2.15121 0.279792 0.555168 0 0 0 0.0127089 0.577631 -0.810491 
12 2.05403 1.71887 0.758035 0.438057 0 0 0 1.01307 -0.035269 -1.3153 
419 2.13204 2.72408 0.899587 0.661814 0 0 0 -0.342921 -0.253324 0.90736 
406 2.42478 3.61753 0.659942 0.970487 0 0 0 -0.0179008 0.633411 0.325808 
5 1.83387 1.60258 1.06898 0.35052 0 0 0 0.518066 -0.00482096 -0.439399 
282 2.10939 1.7138 0.725197 0.451018 0 0 0 1.02956 -0.00761967 -1.22506 
332 2.94216 1.87249 1.48281 0.658016 0 0 0 -1.34664 0.0500432 0.272326 
273 1.97812 2.02246 0.498342 0.505728 0 0 0 0.418141 0.715715 -0.889681 
465 1.55317 1.80293 1.02062 0.352751 0 0 0 0.423386 0.413127 0.116474 
473 2.46735 1.59649 0.666431 0.518462 0 0 0 0.96725 0.00926189 -0.462011 
431 2.32609 2.05447 0.519981 0.56018 0 0 0 0.72404 0.993816 0.163119 
14 1.55419 1.93329 0.828383 0.405068 0 0 0 0.0452489 0.830803 -0.972236 
292 1.85025 1.93216 0.623194 0.458613 0 0 0 0.520182 0.633274 -1.45566 
434 2.75645 2.12254 0.776663 0.640351 0 0 0 0.275905 0.828462 0.976978 
435 2.27548 2.78875 1.36395 0.724152 0 0 0 -1.28375 -1.59758 0.0353005 
449 1.78492 1.65286 1.04032 0.351595 0 0 0 0.619904 0.0966835 -0.444179 
397 2.83484 3.18348 0.751311 0.894631 0 0 0 -0.0118989 0.462728 0.500418 
503 1.69433 1.53292 1.28277 0.296977 0 0 0 0.0868755 0.668199 -1.1754 
439 2.23608 1.68881 0.721611 0.470073 0 0 0 0.997403 -0.149411 -1.01174 
440 3.40613 2.58476 1.18372 0.890002 0 0 0 0.0147989 0.22599 0.341524 
321 3.75635 1.95027 1.30417 0.908667 0 0 0 0.522737 0.204465 0.235069 
442 2.01408 1.55506 0.987737 0.389569 0 0 0 0.846744 -0.376228 -0.680719 
280 3.36552 1.92081 0.84452 0.776136 0 0 0 0.563154 0.495309 0.460945 
409 2.06936 2.09246 1.00961 0.487078 0 0 0 -3.00242 -4.83851 -2.50945 
132 1.60202 2.674 1.2318 0.597752 0 0 0 -0.896912 -2.87819 -0.340937 
412 3.37692 2.95079 0.915985 0.958068 0 0 0 0.185438 0.35427 0.329061 
467 2.39566 1.70781 0.607561 0.518878 0 0 0 0.911646 0.184895 -0.45409 
475 1.63586 1.75674 1.01821 0.351082 0 0 0 0.571733 0.319985 -0.17017 
297 1.88583 2.11885 0.468264 0.516637 0 0 0 0.269555 0.900453 -0.810882 
258 1.88163 2.0785 0.490081 0.505804 0 0 0 0.292648 0.819114 -0.959242 
21 1.95025 1.79309 0.736984 0.433787 0 0 0 0.834903 0.192532 -1.45167 
155 1.57048 2.57303 1.0308 0.556275 0 0 0 -0.930844 -1.97383 -0.346362 
152 1.64318 3.26844 0.896399 0.775456 0 0 0 0.145041 0.320243 0.577047 
330 3.25835 2.11222 1.26292 0.765142 0 0 0 -0.227414 0.346546 0.517374 
50 2.10971 2.0188 0.461293 0.528914 0 0 0 0.523272 0.760763 -0.524087 
11 1.827 1.65768 0.998588 0.364158 0 0 0 0.725921 0.0561428 -0.479244 
221 3.06292 2.07824 0.893012 0.704358 0 0 0 0.191697 0.675878 0.805535 
74 3.0486 1.89688 0.613142 0.697121 0 0 0 0.733923 0.698602 0.481376 
446 2.36993 1.57697 0.416034 0.551073 0 0 0 0.338347 -0.381259 -0.777636 
395 2.2081 3.17316 0.332809 0.823204 0 0 0 0.0906704 0.789277 0.380118 
259 2.61541 1.55377 0.447521 0.589888 0 0 0 0.615087 -0.134992 -0.48416 
421 3.45212 3.42163 0.546131 1.11866 0 0 0 0.356759 0.514225 0.0955148 
454 1.56663 1.58655 1.31649 0.280872 0 0 0 0.55926 0.530553 -1.02832 
46 1.85724 1.59487 1.06018 0.354941 0 0 0 0.538961 -0.0521415 -0.419218 
342 1.94864 1.51663 1.09143 0.362945 0 0 0 0.365496 -0.248004 -0.311662 
468 1.84503 1.61503 1.04262 0.356901 0 0 0 0.60492 -0.0199338 -0.43554 
3 1.71464 1.71188 1.01633 0.352867 0 0 0 0.641683 0.223045 -0.361688 
305 1.96778 2.68476 0.388918 0.661759 0 0 0 0.243334 1.21748 0.507553 
197 2.25483 2.3121 0.348902 0.622002 0 0 0 0.537112 1.2149 0.278966 
405 2.37908 2.74231 0.381576 0.727046 0 0 0 0.26564 0.922373 0.602321 
401 2.75365 3.61333 0.332402 1.03903 0 0 0 0.115522 0.715404 0.107316 
13 1.55311 1.67705 1.20137 0.307976 0 0 0 0.785161 0.49145 -0.794784 
387 2.43188 1.68887 2.17909 0.610115 0 0 0 -3.33275 -1.7774 -2.95766 
482 2.51487 2.75821 2.04879 0.826881 0 0 0 -1.56779 -1.3339 -0.988793 
463 2.97195 2.60116 1.62743 0.818331 0 0 0 -1.07681 -0.446853 -0.0860662 
394 2.64217 1.6578 2.44453 0.691168 0 0 0 -1.5171 -0.073425 -1.27249 
319 3.26548 1.82336 1.59356 0.744787 0 0 0 -0.412126 0.388309 0.342374 
500 3.11263 2.32837 2.11933 0.848982 0 0 0 -0.956578 -0.383036 -0.424588 
487 2.72995 2.14152 2.33655 0.768561 0 0 0 -1.73829 -0.883146 -1.23839 
502 2.94167 3.12339 2.45847 1.05466 0 0 0 -0.570341 -0.28843 -0.388153 
499 3.04773 2.90835 2.59199 1.0427 0 0 0 -0.532305 -0.292064 -0.370323 
429 3.27854 2.24372 1.5145 0.807218 0 0 0 -0.495937 0.0821242 0.239959 
504 1.83956 1.98448 2.30359 0.597546 0 0 0 -3.80781 -5.34104 -5.67691 
383 3.18367 1.5004 2.61693 0.827667 0 0 0 -0.0343989 0.389497 0.01641 
99 1.58531 1.59037 3.49474 0.813438 0 0 0 0.149988 0.619354 0.283839 
382 2.94579 1.66321 3.32612 0.956236 0 0 0 0.021677 0.231216 0.173934 
374 2.17945 1.70019 3.15936 0.782231 0 0 0 -0.408984 0.359924 -0.575195 
367 2.15103 1.73257 3.16271 0.783979 0 0 0 -0.427407 0.315493 -0.617726 
512 1.68194 3.18104 2.91328 0.986986 0 0 0 -0.181815 -0.379589 -0.491411 
498 3.03601 3.15207 3.07828 1.20085 0 0 0 -0.264348 -0.140534 -0.154728 
508 2.36176 2.26392 2.93277 0.848652 0 0 0 -1.00142 -0.572077 -1.04114 
488 2.76679 3.03524 3.02365 1.10813 0 0 0 -0.447065 -0.241918 -0.294048 
100 1.61345 1.74365 3.65537 0.886142 0 0 0 0.0867506 0.432676 0.364276 
245 1.53525 1.87342 3.55191 0.862726 0 0 0 0.113813 0.405974 0.174807 
ITEM: TIMESTEP
740921
ITEM: NUMBER OF ATOMS
512
ITEM: BOX BOUNDS ss ss ss
-8.1988304040437454e-01 3.8875120101141034e+00
-9.7693552394909078e-01 3.9476017366228966e+00
-9.1281994132074906e-01 3.9096273972560476e+00
ITEM: ATOMS id x y z width_SPH x_COM y_COM z_COM vx vy vz 
263 1.46291 0.886581 -0.255335 0.797052 0 0 0 -0.18438 0.0652839 0.617672 
403 1.47176 1.28213 -0.572767 0.836229 0 0 0 -0.29615 -0.417891 -0.2816 
25 0.482326 0.121033 0.00277657 1.02263 0 0 0 0.431079 0.529143 0.569945 
279 1.31897 1.03444 -0.484999 0.850875 0 0 0 -0.18905 -0.165802 0.106894 
402 1.48863 1.32749 -0.648028 0.856462 0 0 0 -0.281499 -0.409928 -0.421814 
16 0.283971 0.665585 0.148021 0.902203 0 0 0 0.586619 0.59204 0.780379 
8 0.548851 0.851567 0.116524 0.825728 0 0 0 0.73452 0.682665 1.15152 
131 1.20624 1.40833 0.666087 0.517583 0 0 0 4.80241 6.68696 7.38574 
217 -0.458207 1.32447 1.07566 0.827558 0 0 0 -0.140196 -0.412274 -0.139888 
2 -0.191093 0.578918 0.378226 0.976754 0 0 0 0.269494 0.355316 0.381153 
24 0.947319 0.538083 0.655917 0.732028 0 0 0 1.69011 2.78537 2.58775 
129 -0.0272379 1.21936 0.471869 0.809151 0 0 0 0.464993 -0.111318 0.504374 
224 -0.038171 1.2323 1.0979 0.718725 0 0 0 1.00096 -0.0777373 0.267243 
78 0.717493 0.416293 1.446 0.684302 0 0 0 2.08614 2.94753 0.725911 
67 0.0566814 0.170708 1.35969 0.867432 0 0 0 0.646881 0.69224 0.00585954 
22 1.10962 0.782265 0.476548 0.689883 0 0 0 1.54627 2.7146 3.19779 
125 0.0919232 1.14992 0.33415 0.817636 0 0 0 0.529065 0.043206 0.639749 
10 0.362733 0.340209 0.337058 0.92079 0 0 0 0.743283 0.86579 0.897131 
68 -0.629258 1.10997 1.49534 0.872301 0 0 0 -0.401468 -0.268308 -0.303181 
116 -0.467663 -0.224838 2.43602 1.06883 0 0 0 -0.510444 -0.413943 -0.0581827 
39 1.33122 1.26246 1.96203 0.349428 0 0 0 -0.24819 -0.392682 0.562082 
57 -0.13659 -0.184233 1.60661 0.978298 0 0 0 0.0863154 0.0850657 -0.196872 
111 1.47859 0.661627 1.94949 0.479301 0 0 0 3.06069 4.57996 2.61104 
59 0.836229 1.31492 2.27397 0.45913 0 0 0 -1.0552 -0.05532 0.985059 
183 0.484313 1.33661 2.61272 0.586945 0 0 0 -0.675413 -0.0650129 0.479691 
80 1.06797 1.32418 2.08948 0.394891 0 0 0 -0.90731 0.0277847 0.821298 
103 -0.666451 -0.19285 2.21681 1.11079 0 0 0 -0.541714 -0.319409 -0.0821346 
63 -0.481046 0.335769 1.67077 0.939106 0 0 0 -0.201753 0.0269389 -0.274234 
64 0.69228 1.25101 1.95541 0.468138 0 0 0 1.81268 3.52152 2.44696 
65 1.41229 1.12562 2.09167 0.384753 0 0 0 0.113495 -1.07844 0.468898 
66 0.536326 -0.153295 1.5622 0.845278 0 0 0 0.649456 0.683622 -0.164169 
27 1.41507 1.3286 1.80373 0.309629 0 0 0 -0.411514 -0.393566 1.39405 
343 1.489 1.48457 1.52633 0.252367 0 0 0 0.0620347 0.089083 -0.0237532 
69 0.578506 1.29327 2.42893 0.533074 0 0 0 -0.969979 -0.283516 0.40417 
82 0.156003 0.760122 1.618 0.699973 0 0 0 1.16233 0.800003 -0.325266 
71 0.319326 -0.0268586 1.59758 0.843494 0 0 0 0.618243 0.613302 -0.223021 
509 1.47935 1.4766 1.54574 0.254225 0 0 0 0.182435 0.0867185 -0.118272 
226 0.739717 1.28996 2.43124 0.50412 0 0 0 -0.860242 -0.174971 0.697971 
511 1.41956 1.17051 2.0196 0.366044 0 0 0 0.0942002 -0.908571 0.297305 
118 0.968936 0.167089 2.50851 0.690237 0 0 0 -0.380103 -0.897098 -0.669417 
26 1.04232 1.47276 1.91231 0.366376 0 0 0 -0.425518 0.305367 0.348177 
77 0.568463 0.474334 2.28658 0.658595 0 0 0 -0.193256 -0.487498 -0.883521 
92 0.627969 -0.707377 2.33072 0.983502 0 0 0 -0.0562692 -0.633965 -0.231832 
107 0.249773 0.442635 2.19694 0.72425 0 0 0 -0.0884566 -0.275263 -0.803414 
122 1.04947 0.384893 2.37967 0.613128 0 0 0 -0.287009 -0.858506 -0.736363 
94 1.18309 0.612659 2.42577 0.545584 0 0 0 -0.173038 -1.01254 -0.0158125 
247 0.952663 1.10213 2.48174 0.497489 0 0 0 -0.611925 -0.522915 0.847334 
73 1.44161 0.794426 2.54929 0.516407 0 0 0 0.0603412 -0.778571 0.685109 
87 0.756027 0.283347 2.07373 0.669735 0 0 0 0.352351 0.328742 -0.886047 
84 -0.66711 1.05545 2.40896 0.902829 0 0 0 -0.847643 -0.267153 -0.180989 
507 1.18214 1.13119 2.24891 0.425772 0 0 0 -0.485961 -0.575603 1.24118 
169 1.39493 0.99179 2.28374 0.436528 0 0 0 0.174897 -1.07737 1.11081 
85 0.770573 -0.606567 1.99597 0.927264 0 0 0 0.0904893 -0.341432 -0.356416 
371 1.36018 0.868783 2.51445 0.500149 0 0 0 -0.0254164 -0.82096 0.806128 
448 0.609045 1.28911 1.89857 0.483819 0 0 0 1.71744 3.16722 1.99174 
328 0.993113 0.774312 2.21876 0.511072 0 0 0 0.604087 0.591766 0.631525 
112 0.973448 1.266 2.2244 0.433462 0 0 0 -0.947383 -0.0536101 1.19683 
40 0.542463 1.29074 2.42961 0.540921 0 0 0 -0.994462 -0.331645 0.3225 
496 1.48486 1.48105 1.5348 0.253068 0 0 0 0.119652 0.0927649 -0.0759758 
42 1.22245 1.29781 2.00116 0.362852 0 0 0 -0.55705 -0.188576 0.501286 
237 1.1156 1.25582 2.14126 0.402224 0 0 0 -0.810517 -0.183991 0.983484 
494 1.38749 1.1901 2.0175 0.364349 0 0 0 -0.014993 -0.801061 0.357414 
181 0.316495 1.14152 2.56082 0.627438 0 0 0 -0.957824 -0.732095 -0.0855177 
81 -0.121096 -0.621646 2.09638 1.08734 0 0 0 -0.19699 -0.42269 -0.131276 
83 1.18469 -0.50669 2.52987 0.870697 0 0 0 -0.142381 -0.821285 -0.309916 
232 0.998004 1.01239 2.54917 0.515987 0 0 0 -0.467532 -0.616706 0.771071 
93 -0.508155 0.844907 2.0297 0.851665 0 0 0 -0.540499 -0.298775 -0.444172 
61 1.51203 0.359937 1.94817 0.566529 0 0 0 0.58957 1.39728 -0.11313 
349 1.50386 -0.381648 1.57126 0.808644 0 0 0 -0.129197 0.234014 -0.291422 
253 1.16405 1.08585 2.39571 0.460852 0 0 0 -0.611559 -0.906973 0.937574 
193 -0.727534 1.42163 1.55279 0.877437 0 0 0 -0.696314 -0.372884 -0.303484 
506 1.46209 1.27674 1.83872 0.320019 0 0 0 -0.221775 -0.637758 0.942573 
44 -0.248209 1.37175 1.89731 0.712935 0 0 0 -0.599081 -0.717592 -0.652023 
32 1.23784 1.37168 1.88979 0.337001 0 0 0 -0.41797 -0.0102454 0.780481 
493 1.20601 1.42553 1.84334 0.331299 0 0 0 -0.251563 0.0107764 0.833765 
9 1.40197 1.32544 1.82113 0.313669 0 0 0 -0.524702 -0.595531 1.18556 
218 1.31592 1.40023 1.78918 0.309645 0 0 0 -0.538587 -0.470999 1.28629 
200 -0.243775 1.45153 1.90837 0.706232 0 0 0 -0.689929 -0.735867 -0.61425 
486 1.31685 1.26323 1.98201 0.354058 0 0 0 0.423386 0.776112 1.34832 
98 0.192037 0.505963 2.67417 0.762684 0 0 0 -0.547786 -0.67928 -0.319413 
113 1.36474 -0.767761 2.84603 0.993321 0 0 0 -0.0519193 -0.877644 0.0551715 
114 -0.662823 0.667391 3.0988 1.0467 0 0 0 -0.730324 -0.208074 0.29216 
108 0.827864 -0.375052 3.19939 0.967031 0 0 0 -0.179662 -0.683322 0.269359 
163 0.568715 0.925245 2.79803 0.64597 0 0 0 -0.628991 -0.71474 0.303368 
60 0.824462 1.36373 3.15258 0.691635 0 0 0 0.333324 0.629435 0.835944 
117 0.983523 0.117895 3.70191 0.978821 0 0 0 -0.129101 -0.308782 0.718545 
51 0.407863 1.42257 2.78813 0.642073 0 0 0 -0.346577 0.249815 0.656794 
88 1.42973 0.53892 3.62921 0.86988 0 0 0 0.00637841 0.0152777 0.894936 
109 -0.521012 -0.195168 3.25588 1.19582 0 0 0 -0.575232 -0.438262 0.393263 
90 -0.8196 0.596004 2.78624 1.05283 0 0 0 -0.7987 -0.216513 0.112031 
91 0.794653 1.1685 3.90935 0.962245 0 0 0 -0.00640092 0.133376 0.951544 
227 1.33614 1.35544 2.76353 0.562283 0 0 0 -0.0936985 0.239791 -0.637923 
438 0.692847 1.45415 3.02108 0.66565 0 0 0 0.310322 0.681425 0.831909 
119 0.719811 0.0526553 3.43824 0.932512 0 0 0 -0.230067 -0.438123 0.511966 
430 1.20336 0.667926 2.80486 0.606696 0 0 0 -0.28491 -0.688805 0.484952 
96 1.21336 -0.44319 3.49594 1.03711 0 0 0 -0.0580985 -0.627555 0.498003 
121 -0.478886 0.852544 3.15732 0.981834 0 0 0 -0.686112 -0.196812 0.337559 
110 0.000524899 -0.178572 2.91004 0.989034 0 0 0 -0.415646 -0.54574 0.0950865 
120 -0.757153 1.33216 2.86286 0.98296 0 0 0 -0.855527 -0.0638544 0.19264 
104 0.101176 -0.598309 3.21263 1.14764 0 0 0 -0.345982 -0.642433 0.341683 
101 0.537342 0.503474 3.11842 0.78634 0 0 0 -0.405484 -0.525519 0.336939 
238 1.23272 1.23413 2.83499 0.574663 0 0 0 0.182207 0.5868 0.304306 
123 -0.316987 2.86792 -0.691707 1.18977 0 0 0 -0.540332 0.329789 -0.659812 
159 0.397829 3.05214 -0.625388 1.0548 0 0 0 -0.285716 0.503076 -0.690771 
142 1.18785 3.8051 -0.0596189 1.05791 0 0 0 -0.106356 0.892007 -0.316695 
126 -0.541276 3.21742 0.184408 1.10844 0 0 0 -0.644963 0.551737 -0.31969 
127 0.805509 2.06303 -0.832088 0.949856 0 0 0 -0.270552 -0.262301 -0.886178 
158 0.896474 2.14782 -0.502463 0.825354 0 0 0 -0.343742 -0.410898 -0.874049 
143 -0.162426 2.5139 -0.788991 1.13562 0 0 0 -0.507465 0.116801 -0.735177 
149 1.11663 2.1868 -0.91254 0.95857 0 0 0 -0.152831 -0.11596 -0.93987 
151 1.36321 3.36621 0.288898 0.844525 0 0 0 0.0302186 0.959205 0.04503 
274 1.33477 2.01644 -0.0268092 0.636672 0 0 0 -0.366983 -0.743745 -0.663836 
157 0.0134418 1.64299 0.12894 0.82107 0 0 0 -0.211095 -0.666835 -0.103389 
156 -0.609029 1.93331 -0.650127 1.19062 0 0 0 -0.599136 -0.0660171 -0.549852 
130 0.98617 2.15088 0.267689 0.593015 0 0 0 -0.524928 -0.340176 -0.634993 
148 0.698615 1.49458 -0.23256 0.791591 0 0 0 -0.0750133 -0.61081 0.0774385 
137 -0.708163 2.86988 0.246398 1.07808 0 0 0 -0.787206 0.323148 -0.310873 
138 0.424974 2.62752 -0.593783 0.963033 0 0 0 -0.356591 0.18212 -0.803833 
141 0.160028 1.997 -0.41526 0.914399 0 0 0 -0.476545 -0.434292 -0.672644 
140 0.862149 2.60215 -0.809087 0.979759 0 0 0 -0.192268 0.196974 -0.875603 
443 1.31898 2.0852 0.116074 0.599077 0 0 0 -0.363286 -0.428219 -0.737785 
444 1.48154 2.23981 0.0627808 0.620902 0 0 0 -0.259597 0.134114 -0.787043 
136 1.03226 1.89169 0.22151 0.59717 0 0 0 -0.14897 -0.79337 0.0687969 
268 1.46276 2.00807 0.113331 0.589761 0 0 0 -0.2801 -0.513203 -0.711757 
146 0.824173 2.05113 0.25374 0.615594 0 0 0 -0.451155 -0.79044 -0.379353 
180 0.816321 2.50706 0.789621 0.565314 0 0 0 -0.421972 1.23139 -0.29928 
190 0.821832 3.29161 1.17401 0.773674 0 0 0 0.338237 0.751383 0.367145 
178 -0.546737 3.08541 1.13917 0.974061 0 0 0 -0.646011 0.581687 -0.0204836 
220 0.899066 2.23256 1.45455 0.460904 0 0 0 -1.92834 -2.5728 -1.96274 
189 1.01701 2.26105 0.814594 0.487553 0 0 0 -0.947532 1.11262 -0.606351 
165 1.04879 2.30438 0.745464 0.502536 0 0 0 -0.824552 1.15654 -0.661777 
128 1.38577 3.34334 1.25181 0.793523 0 0 0 0.23831 -0.01045 0.379264 
185 0.700688 3.36968 1.30718 0.807798 0 0 0 0.306455 0.749866 0.317386 
168 0.779366 2.05426 1.00596 0.471617 0 0 0 -0.205702 1.53639 0.706393 
186 -0.7677 1.72337 0.481581 0.983531 0 0 0 -0.740628 -0.285024 -0.211624 
170 0.556739 2.28227 0.547178 0.609207 0 0 0 -0.639397 -0.127227 -0.55509 
171 0.284591 3.56153 0.91582 0.929537 0 0 0 -0.124095 0.922004 0.0251834 
175 -0.673994 2.64647 1.34235 0.922316 0 0 0 -0.838146 0.285616 -0.058937 
124 0.94651 2.13445 1.0301 0.448061 0 0 0 -1.03355 1.02046 -0.156154 
187 -0.341977 2.06187 0.381156 0.853132 0 0 0 -0.732628 -0.502035 -0.361215 
134 1.44029 2.99975 0.715263 0.686526 0 0 0 0.237591 0.772247 0.575625 
198 1.10453 2.48525 1.32487 0.519688 0 0 0 -1.07327 -2.52526 -1.2376 
426 1.5256 1.8097 1.03415 0.350828 0 0 0 0.374253 0.399463 0.236503 
147 1.22188 1.9207 1.15987 0.365564 0 0 0 -0.682191 -0.61355 0.426884 
133 1.04449 2.31189 0.324239 0.588103 0 0 0 -0.518635 0.365551 -0.734253 
188 0.398827 2.22612 0.467428 0.652193 0 0 0 -0.608879 -0.528071 -0.525436 
20 1.40122 1.64925 1.36986 0.284342 0 0 0 1.5882 -0.490947 -0.210494 
216 -0.073783 2.3515 1.33666 0.682758 0 0 0 -0.676862 0.162968 -0.233 
206 -0.717442 1.91108 1.19378 0.879573 0 0 0 -0.880904 -0.367041 -0.250317 
154 -0.280092 3.20781 0.526565 0.978401 0 0 0 -0.533186 0.672504 -0.188905 
144 1.30247 2.01088 0.912941 0.407619 0 0 0 -0.672832 1.05426 -0.238397 
423 1.18172 2.03444 0.977321 0.411242 0 0 0 -0.851315 1.06117 0.0834517 
135 -0.226256 3.1214 0.41025 0.958212 0 0 0 -0.535654 0.632109 -0.247131 
192 0.529691 2.18854 0.465833 0.623395 0 0 0 -0.589949 -0.541656 -0.501813 
194 0.171575 2.21542 0.651666 0.670491 0 0 0 -0.636082 -0.568311 -0.480119 
196 0.990082 2.8906 1.10309 0.640602 0 0 0 0.388188 0.633292 0.419029 
203 0.532324 2.55462 0.541049 0.655196 0 0 0 -0.461078 0.623885 -0.448617 
150 1.4106 1.88558 0.988777 0.370977 0 0 0 2.87107 5.46108 3.78911 
214 -0.0711039 1.80495 0.791839 0.711169 0 0 0 -0.190236 -1.00772 -0.172923 
425 1.42104 1.95119 0.905403 0.394391 0 0 0 -0.26847 0.944432 -0.302257 
48 0.22842 2.29403 0.623419 0.667391 0 0 0 -0.652828 -0.340635 -0.509608 
162 1.52738 1.51565 1.44983 0.254791 0 0 0 -0.400387 0.113557 0.320303 
177 0.870213 1.99607 1.31465 0.416627 0 0 0 -0.428015 0.917066 0.358993 
139 0.90101 3.94732 0.7486 1.02061 0 0 0 -0.0239447 0.908767 -0.0296442 
461 1.38949 1.75363 1.23162 0.316837 0 0 0 0.788732 0.0389322 0.353278 
210 0.261608 2.17599 0.847562 0.616 0 0 0 -0.594584 -0.510727 -0.434906 
480 1.02343 2.02374 1.13293 0.40987 0 0 0 -0.663984 0.94755 0.473105 
28 1.05077 1.83854 1.40401 0.360317 0 0 0 0.745413 0.122638 0.746353 
489 0.55885 2.27473 1.21427 0.519895 0 0 0 -0.64001 0.85357 -0.177995 
4 1.22246 1.72084 1.42292 0.315213 0 0 0 1.31354 -0.333595 0.538962 
19 1.14083 2.47427 0.42879 0.585361 0 0 0 -0.345422 1.10181 -0.529064 
336 0.479583 2.3743 1.1893 0.555287 0 0 0 -0.451925 0.940803 -0.147879 
469 1.04049 2.01732 1.12836 0.406969 0 0 0 -0.641539 0.936168 0.520207 
308 0.417192 2.38389 1.20765 0.568909 0 0 0 -0.422002 0.882994 -0.144401 
15 1.22459 1.8628 1.21613 0.350381 0 0 0 0.329913 0.109392 1.24205 
424 1.33272 2.62684 0.397187 0.618371 0 0 0 -0.0725359 1.29739 -0.162098 
7 1.37249 2.12816 0.70926 0.457162 0 0 0 -0.584471 1.11294 -1.16695 
174 1.2968 1.80757 1.23499 0.332179 0 0 0 0.573396 -0.124971 0.946249 
6 1.09486 1.81937 1.39359 0.350536 0 0 0 0.886003 -0.0218052 0.82037 
458 0.509348 2.15864 1.40969 0.503691 0 0 0 -0.692643 0.732829 -0.0556026 
433 1.53015 1.83936 0.985043 0.363365 0 0 0 0.317694 0.587875 0.0927726 
437 1.46749 2.04177 0.748694 0.434924 0 0 0 -0.336959 1.01712 -1.23228 
153 1.27973 1.81894 1.23334 0.335817 0 0 0 0.531787 -0.101224 1.03833 
286 1.4825 2.0299 0.753367 0.432213 0 0 0 -0.289547 0.996572 -1.23861 
195 0.960329 1.93965 1.32813 0.392723 0 0 0 -0.00410138 0.669693 0.653886 
399 1.51634 1.93623 0.866634 0.397934 0 0 0 -0.429437 0.219996 -1.13868 
354 0.503409 2.10106 1.49637 0.495894 0 0 0 -0.740929 0.714475 0.0203656 
372 1.50625 1.49957 1.49052 0.251512 0 0 0 -0.213046 0.0451173 0.264185 
164 0.232472 1.81996 1.47903 0.555413 0 0 0 -0.18703 -0.251071 -0.150827 
17 1.50459 1.49817 1.49392 0.251439 0 0 0 -0.188131 0.0475499 0.240299 
52 0.95389 1.86577 1.44847 0.38025 0 0 0 0.395585 0.462918 0.490518 
145 0.944091 3.68323 0.319778 0.96203 0 0 0 -0.069732 0.942555 -0.136525 
256 0.558344 2.11604 1.73864 0.496383 0 0 0 -0.760095 0.519781 0.0906474 
495 1.0431 1.64388 1.68229 0.346147 0 0 0 0.72649 0.284287 0.134371 
248 0.868777 1.5629 1.93386 0.401684 0 0 0 -0.734016 0.724685 0.574553 
43 0.148918 2.3144 1.81884 0.623843 0 0 0 -0.186894 0.906607 0.491373 
76 0.906797 1.57912 1.88406 0.389081 0 0 0 -0.517935 0.646479 0.347154 
450 0.854475 1.64818 1.83469 0.397157 0 0 0 -0.471415 0.832832 0.328222 
166 1.19151 3.39112 1.71318 0.833435 0 0 0 0.311548 -0.187258 0.08481 
70 0.975131 2.32044 2.3029 0.608752 0 0 0 0.374617 -1.55704 -1.46664 
199 -0.163992 2.48214 2.51655 0.815895 0 0 0 -0.221952 0.751759 0.499427 
223 -0.313713 3.51999 2.20263 1.0656 0 0 0 -0.342992 0.73077 0.185299 
201 -0.0323006 3.0138 1.68138 0.815641 0 0 0 -0.0812595 0.97849 0.267421 
243 0.900446 2.03172 2.39422 0.562176 0 0 0 0.102813 -1.11854 -1.35639 
191 0.402008 2.14629 2.61255 0.667711 0 0 0 0.537617 1.16212 0.686842 
204 0.494256 3.8316 2.13436 1.03917 0 0 0 0.0831388 0.663349 0.133756 
49 0.769416 1.87247 1.59107 0.417373 0 0 0 -0.387914 1.00493 0.294938 
160 0.914956 1.82328 1.54462 0.382719 0 0 0 0.276483 0.470704 0.187997 
207 0.786913 2.75748 2.50756 0.754782 0 0 0 0.726066 0.142284 -0.116914 
208 1.03097 2.39109 1.63945 0.518088 0 0 0 -1.29697 -4.15706 -2.32236 
209 0.529453 2.2009 1.58261 0.507848 0 0 0 -0.5831 0.778414 0.0883981 
447 0.197365 2.26426 2.14673 0.639122 0 0 0 0.0858302 1.11297 0.777301 
211 0.711174 3.69218 1.79547 0.94362 0 0 0 0.228625 0.561479 0.152202 
212 0.655034 3.2858 1.83326 0.812311 0 0 0 0.46904 0.508444 0.273236 
213 0.0678186 3.4769 2.25792 0.980741 0 0 0 -0.0320877 0.748343 0.229385 
490 1.46129 1.49805 1.53103 0.253854 0 0 0 1.29215 -0.711064 0.128573 
215 0.794994 3.88392 2.27497 1.06153 0 0 0 0.148999 0.502799 0.0716972 
184 1.5004 1.49456 1.50257 0.251402 0 0 0 -0.121569 0.0574147 0.17168 
55 0.266687 2.26506 1.5319 0.574509 0 0 0 -0.404396 0.671144 0.0856505 
505 0.36111 1.60465 2.26191 0.548763 0 0 0 -0.983679 0.180585 0.294846 
255 1.2108 2.61046 2.1765 0.668955 0 0 0 0.0488839 -2.31928 -1.57555 
479 0.0168437 2.36862 2.04038 0.686487 0 0 0 -0.16998 0.920351 0.583087 
173 -0.124535 1.91621 1.83532 0.65983 0 0 0 -0.83774 -0.402927 -0.215179 
318 0.349868 1.78873 2.07953 0.534863 0 0 0 -0.89899 0.413719 0.360438 
54 0.430614 1.94054 1.8001 0.502881 0 0 0 -0.875865 0.602245 0.284633 
34 0.259991 2.18277 1.85538 0.577331 0 0 0 -0.27581 0.845171 0.514631 
172 0.165962 2.12749 1.58858 0.582573 0 0 0 -0.60429 0.13141 -0.0735045 
229 1.08131 2.33348 2.53378 0.661704 0 0 0 0.497471 -1.0524 -1.40602 
234 1.0441 1.64647 1.67795 0.345827 0 0 0 0.744938 0.277176 0.135914 
252 1.15751 1.61768 1.62228 0.318147 0 0 0 1.064 -0.250421 0.524683 
235 1.04833 1.62 1.71022 0.345715 0 0 0 0.626117 0.289142 0.16248 
29 0.843072 1.72179 1.74557 0.396695 0 0 0 -0.258755 0.877847 0.216124 
513 0.660688 1.56778 2.09005 0.460315 0 0 0 -1.20274 0.513734 0.742813 
241 1.0601 1.60521 1.72045 0.343451 0 0 0 0.600737 0.255514 0.207243 
38 0.320514 1.75881 2.2745 0.566249 0 0 0 -0.693049 0.51157 0.47138 
35 0.252082 1.7616 2.40264 0.603927 0 0 0 -0.543903 0.556812 0.510718 
30 0.500204 1.66022 2.12088 0.499532 0 0 0 -1.10756 0.44083 0.496589 
239 -0.586854 2.64442 2.57886 0.97414 0 0 0 -0.577163 0.458323 0.298068 
233 0.904607 1.60663 1.8497 0.386761 0 0 0 -0.399171 0.669479 0.256709 
75 0.829563 1.66229 1.83748 0.40314 0 0 0 -0.564092 0.86751 0.36578 
219 1.50021 1.49439 1.50297 0.251406 0 0 0 -0.118391 0.0579733 0.168279 
167 1.5004 1.49455 1.50259 0.251402 0 0 0 -0.121431 0.0574388 0.171533 
466 1.5002 1.49438 1.503 0.251406 0 0 0 -0.118162 0.0580137 0.168034 
471 1.50021 1.49439 1.50297 0.251406 0 0 0 -0.118435 0.0579655 0.168326 
36 1.50028 1.49445 1.50282 0.251404 0 0 0 -0.11961 0.0577587 0.169584 
278 1.50195 1.49591 1.49935 0.251391 0 0 0 -0.146714 0.0532363 0.198247 
37 1.50088 1.49498 1.50157 0.251396 0 0 0 -0.129483 0.0561186 0.180016 
58 1.50159 1.49559 1.50011 0.251391 0 0 0 -0.14097 0.054244 0.192105 
47 1.07812 1.7557 1.49969 0.343426 0 0 0 1.02045 -0.136268 0.347764 
477 1.50167 1.49566 1.49993 0.251391 0 0 0 -0.14219 0.0539544 0.193515 
355 1.50134 1.49537 1.50063 0.251392 0 0 0 -0.1368 0.0548302 0.187849 
334 1.50104 1.49511 1.50125 0.251394 0 0 0 -0.131898 0.0556451 0.182669 
476 1.50097 1.49505 1.50139 0.251395 0 0 0 -0.130826 0.0558255 0.181533 
179 1.50088 1.49498 1.50157 0.251396 0 0 0 -0.129419 0.0560635 0.18004 
222 1.50059 1.49472 1.50219 0.251399 0 0 0 -0.12458 0.0568917 0.174894 
302 1.50065 1.49478 1.50205 0.251398 0 0 0 -0.125667 0.0567043 0.176052 
176 1.50066 1.49478 1.50204 0.251398 0 0 0 -0.125728 0.0566939 0.176116 
225 0.922811 2.39726 3.41235 0.888289 0 0 0 0.37368 0.37704 0.311801 
106 0.302739 2.02715 3.35324 0.857242 0 0 0 0.120796 0.56973 0.780086 
249 -0.498564 2.47087 2.81672 0.959174 0 0 0 -0.53668 0.431533 0.394133 
228 -0.108659 3.23446 3.60258 1.22453 0 0 0 -0.281618 0.494549 0.579489 
254 -0.486123 2.76307 3.5122 1.1744 0 0 0 -0.471134 0.385437 0.584952 
230 0.506969 3.71141 2.99961 1.13779 0 0 0 0.0269077 0.555028 0.264739 
231 0.569904 2.2762 3.57918 0.935089 0 0 0 0.214654 0.457934 0.686152 
242 0.544179 2.40528 3.25164 0.856904 0 0 0 0.388564 0.605956 0.516855 
246 -0.356556 2.01124 3.52012 1.04153 0 0 0 -0.460415 0.227394 0.669545 
464 0.277932 1.66567 2.73315 0.660818 0 0 0 -0.253187 0.600739 0.673431 
205 0.78951 1.62298 3.04757 0.674938 0 0 0 0.588812 0.903127 0.639761 
251 0.368726 3.45848 3.03809 1.07462 0 0 0 0.0473331 0.574845 0.331772 
105 -0.172736 1.52945 3.72937 1.04181 0 0 0 -0.383874 0.0755029 0.777714 
250 0.796415 3.13054 3.39931 1.05193 0 0 0 0.168008 0.346721 0.318564 
244 1.25516 2.37352 3.45388 0.901675 0 0 0 0.225143 0.194223 0.0630373 
240 -0.31658 3.69299 3.40911 1.33894 0 0 0 -0.398563 0.574301 0.443195 
257 3.62638 1.21803 -0.278453 1.02738 0 0 0 0.66228 -0.0959452 -0.447612 
441 1.86625 1.15928 0.0293946 0.661003 0 0 0 -0.67537 -0.369657 0.601595 
288 3.67371 0.857919 0.0530696 0.991895 0 0 0 0.717082 -0.235564 -0.334335 
260 3.1323 0.827982 -0.609119 1.01911 0 0 0 0.333837 -0.274321 -0.675073 
261 3.52398 -0.10013 0.154678 1.093 0 0 0 0.502732 -0.634781 -0.330565 
276 2.55308 0.780193 -0.320853 0.838317 0 0 0 -0.251421 -0.566767 -0.547732 
427 2.22868 1.08023 0.208779 0.632713 0 0 0 -0.822419 -0.713987 -0.101765 
285 1.77615 0.218846 -0.0315066 0.864555 0 0 0 -0.185597 0.145296 0.517848 
436 2.35115 1.42219 -0.0512741 0.678329 0 0 0 -0.406564 -0.673977 -0.734138 
266 2.66025 0.936349 -0.84343 1.00718 0 0 0 0.0635733 -0.223778 -0.783952 
267 3.03037 0.608848 -0.0398126 0.865184 0 0 0 0.159058 -0.643762 -0.506136 
293 2.10191 1.07614 -0.87053 0.957157 0 0 0 -0.174105 -0.223633 -0.718724 
269 2.55512 0.949697 -0.706889 0.943092 0 0 0 -0.049512 -0.288859 -0.743542 
270 2.46766 0.612219 -0.432214 0.89163 0 0 0 -0.223501 -0.523993 -0.496712 
271 3.2313 -0.579435 -0.176081 1.23192 0 0 0 0.360723 -0.692765 -0.376341 
272 1.6467 0.82302 0.128514 0.702435 0 0 0 -0.205653 0.701079 1.55329 
284 2.0421 0.324117 -0.432479 0.936212 0 0 0 -0.243773 -0.335195 -0.149025 
290 2.38962 -0.690841 -0.214174 1.17656 0 0 0 0.0652911 -0.54745 -0.230055 
291 3.16122 0.33452 -0.492727 1.06555 0 0 0 0.325714 -0.499021 -0.575628 
294 3.06872 0.327577 0.682208 0.794011 0 0 0 0.101739 -0.942266 -0.433158 
23 1.96011 1.40533 1.23484 0.349079 0 0 0 -0.59965 -0.217001 0.08578 
453 2.93384 0.913307 1.3622 0.602815 0 0 0 0.732834 -0.100581 0.132435 
18 1.90806 1.36094 1.34067 0.333034 0 0 0 -1.25072 0.0133961 0.295485 
298 2.04666 1.34271 1.25147 0.367169 0 0 0 -0.540445 -0.421495 0.0781947 
299 2.91921 0.965583 1.15319 0.600936 0 0 0 0.695796 -0.294026 -0.119164 
451 2.12579 1.28904 1.26587 0.385298 0 0 0 -0.254689 -0.637283 -0.0746817 
301 3.70183 0.535434 1.4268 0.900414 0 0 0 0.879132 -0.217179 0.0445892 
264 2.45148 0.855525 0.620124 0.597323 0 0 0 -0.523672 -0.843214 -0.416909 
445 2.28054 1.21985 1.24787 0.423473 0 0 0 0.555499 -0.751932 -0.307378 
304 2.19734 1.11986 1.1435 0.431066 0 0 0 2.27641 2.78615 2.37176 
41 2.86421 0.991057 0.87228 0.609246 0 0 0 0.493106 -0.669926 -0.497258 
306 1.99418 1.20525 1.4957 0.358717 0 0 0 -1.55157 -0.175011 0.0556818 
307 2.07217 1.04504 1.19282 0.425468 0 0 0 3.78053 7.11363 5.7155 
277 2.64747 1.39933 0.721804 0.548761 0 0 0 0.84862 -0.164923 -0.41069 
309 3.42368 0.409363 1.28612 0.825457 0 0 0 0.705409 -0.507607 -0.108084 
310 2.04761 -0.00925646 1.06794 0.725922 0 0 0 -0.566254 0.412295 0.0784858 
311 2.88348 1.04322 0.925476 0.602777 0 0 0 0.627624 -0.456738 -0.367897 
341 2.75568 1.06757 0.733252 0.594097 0 0 0 0.363301 -0.793607 -0.668222 
432 2.74186 1.44695 0.883125 0.554672 0 0 0 0.862983 0.249301 0.0388764 
161 2.00055 1.43222 1.16425 0.363505 0 0 0 -0.0700564 -0.338521 -0.117127 
182 2.69528 1.32604 0.523276 0.596687 0 0 0 0.459702 -0.519126 -0.622916 
316 2.92723 -0.308191 0.756845 0.924412 0 0 0 0.0547698 -0.86603 -0.307176 
317 3.34937 0.0147887 0.768076 0.924399 0 0 0 0.394665 -0.767707 -0.282433 
275 3.4093 -0.820412 0.709981 1.195 0 0 0 0.430012 -0.788083 -0.184218 
33 2.65971 0.845091 1.48872 0.537873 0 0 0 0.731261 -0.584774 0.0576661 
320 1.86541 0.0375345 0.931903 0.734202 0 0 0 -0.348778 1.0458 0.59928 
72 2.19325 1.16818 1.39318 0.403133 0 0 0 -0.136043 -0.769936 -0.0248245 
265 1.93826 -0.369082 0.732911 0.882173 0 0 0 -0.20491 0.053293 0.157706 
501 2.42646 1.15684 1.21412 0.460778 0 0 0 0.925092 -0.612929 -0.326143 
56 2.5703 0.702984 0.532524 0.65629 0 0 0 -0.587875 -1.04465 -0.47224 
325 2.33716 1.10413 1.34222 0.440663 0 0 0 0.761389 -0.601328 0.0304133 
287 2.41139 -0.366539 0.555639 0.915705 0 0 0 -0.190776 -0.554734 -0.138713 
327 3.3612 1.249 1.48977 0.729283 0 0 0 0.60285 0.610913 0.465239 
329 1.95981 0.208875 1.14449 0.655283 0 0 0 -0.514381 1.36138 0.567952 
428 2.78133 0.813914 1.48194 0.571738 0 0 0 0.696731 -0.434596 0.0856447 
31 2.45657 0.720505 0.487632 0.649596 0 0 0 -0.729145 -0.862209 -0.283676 
283 1.78569 0.844327 0.902979 0.529916 0 0 0 2.21537 7.11803 5.72994 
326 2.49871 1.10643 1.22629 0.479728 0 0 0 0.917718 -0.587114 -0.275484 
470 3.20795 1.21787 1.38466 0.67538 0 0 0 0.604918 0.650639 0.479882 
313 2.78304 0.837258 1.4233 0.569374 0 0 0 0.688842 -0.469783 0.0304813 
457 1.88294 1.3176 1.42382 0.328053 0 0 0 -1.57494 0.17357 0.325475 
455 2.09929 1.46728 1.04026 0.396739 0 0 0 0.737334 -0.566848 -0.644793 
422 2.35314 1.29626 1.0816 0.446575 0 0 0 1.03419 -0.563891 -0.623671 
456 2.55983 0.341726 1.38463 0.628055 0 0 0 -0.349833 -1.08267 -0.530472 
474 1.85406 1.42 1.30336 0.322765 0 0 0 -0.756467 0.168869 0.00899349 
300 3.62897 -0.222321 1.47508 1.02441 0 0 0 0.628926 -0.628313 -0.0936865 
478 2.35708 1.45326 0.867201 0.466217 0 0 0 1.20522 -0.34446 -0.812706 
340 1.70263 1.43604 1.41147 0.28635 0 0 0 -0.969062 0.607319 -0.38829 
281 1.70783 0.00684537 0.314218 0.851724 0 0 0 -0.0686582 0.525072 0.736441 
333 2.95214 0.625807 2.5762 0.75315 0 0 0 0.713166 0.398761 0.502289 
323 1.96023 1.06256 1.74772 0.382669 0 0 0 -0.574216 -0.518587 -0.53121 
335 2.66603 0.847281 2.44812 0.646095 0 0 0 0.592429 0.832727 0.530733 
491 1.78686 1.17973 1.70549 0.338068 0 0 0 -0.880183 0.102513 -0.515476 
337 2.05362 -0.945728 1.91696 0.99353 0 0 0 -0.0302112 -0.872259 -0.198431 
338 3.03182 0.240144 2.16305 0.772456 0 0 0 0.62138 -0.400495 0.185011 
339 1.79311 0.24303 1.69179 0.597995 0 0 0 -0.162241 1.31186 -0.0847062 
370 1.65925 -0.976655 2.59511 1.0346 0 0 0 -0.00372159 -0.913984 -0.00498851 
452 2.42607 0.244124 1.74988 0.624615 0 0 0 -0.262866 -1.04643 -0.489087 
295 2.09994 0.57421 2.39619 0.559712 0 0 0 0.422634 -0.554897 0.449762 
296 2.19624 1.05236 1.56909 0.416347 0 0 0 0.0525002 -0.767669 0.00162298 
344 2.37282 0.960798 1.94511 0.493171 0 0 0 0.0946239 -0.747938 -0.195025 
345 3.40708 1.06476 2.12278 0.79571 0 0 0 0.617701 0.513857 0.408941 
346 2.01393 0.960268 1.86444 0.41594 0 0 0 0.212459 -0.86083 0.00187519 
364 1.68475 1.12265 1.87405 0.355486 0 0 0 0.0337232 -0.642494 -0.440884 
348 3.88723 1.46542 2.1892 0.984175 0 0 0 0.623098 0.145068 0.180688 
331 2.11756 0.995942 1.72374 0.415842 0 0 0 0.0795039 -0.764457 -0.0602442 
350 2.36019 -0.0946085 1.6119 0.719205 0 0 0 -0.47641 -0.847113 -0.611094 
351 1.77258 1.2331 1.64011 0.3237 0 0 0 -1.0618 0.265043 -0.192365 
352 2.46185 0.668521 2.2626 0.582333 0 0 0 0.676361 0.0573206 0.582515 
363 2.55574 -0.637627 2.03573 0.9233 0 0 0 0.0626257 -0.9932 -0.189406 
45 1.68419 1.14928 1.83489 0.346042 0 0 0 -0.0692574 -0.451225 -0.387212 
365 1.6938 0.222894 2.39009 0.619916 0 0 0 -0.246783 -1.20423 -0.522476 
356 3.26093 1.43479 2.49168 0.819987 0 0 0 0.0771974 0.442797 0.10864 
357 2.16286 1.08649 2.24831 0.502363 0 0 0 -1.19527 -1.26629 -1.34791 
358 2.14803 0.666401 2.60499 0.595299 0 0 0 0.560575 0.181482 0.638771 
359 3.56757 -0.600353 2.2103 1.1353 0 0 0 0.571193 -0.671624 0.026324 
360 1.95002 0.186188 2.18312 0.617078 0 0 0 -0.299137 -1.06734 -0.548433 
361 2.06205 -0.717433 1.53364 0.916869 0 0 0 -0.165966 -0.667992 -0.288193 
362 2.41713 0.274345 1.96775 0.621372 0 0 0 -0.0196186 -1.05127 -0.266904 
460 1.97017 1.14592 1.60674 0.364134 0 0 0 -1.33179 -0.186195 -0.36794 
303 2.32215 1.05423 1.64055 0.446361 0 0 0 -0.243774 -1.64984 -0.782051 
393 1.97008 -0.328924 2.07153 0.770049 0 0 0 -0.341793 -0.895141 -0.523361 
324 2.45377 0.691627 1.9828 0.53993 0 0 0 0.658948 -0.447218 0.399789 
312 3.14154 1.31988 1.96638 0.699458 0 0 0 -0.0356668 0.799487 0.326155 
375 1.79871 0.918455 2.0944 0.426676 0 0 0 0.572346 -1.1625 0.50932 
459 2.65915 0.457155 1.80806 0.612565 0 0 0 0.369619 -0.819364 -0.0486916 
62 1.74291 1.05768 1.9291 0.377706 0 0 0 0.103477 -0.930926 -0.414914 
380 2.33975 0.664182 2.34272 0.573094 0 0 0 0.614342 -0.00925337 0.600922 
485 1.68786 1.16812 1.80446 0.339539 0 0 0 -0.171975 -0.32199 -0.330324 
510 2.07899 0.979132 1.78211 0.415853 0 0 0 0.12419 -0.792027 -0.0555972 
497 1.81804 0.60948 2.48231 0.542851 0 0 0 0.30161 -0.771585 0.409402 
347 1.77136 -0.881264 1.97401 0.962734 0 0 0 -0.0895682 -0.786569 -0.247529 
377 3.60723 1.30346 2.5684 0.933681 0 0 0 0.514238 0.272028 0.238894 
314 2.71491 0.74678 1.72331 0.570736 0 0 0 0.739705 -0.292776 0.266997 
388 1.75469 1.18522 1.72428 0.334976 0 0 0 -0.686792 0.0365133 -0.441801 
315 2.63579 0.314004 1.72365 0.638919 0 0 0 0.0537986 -1.04208 -0.326315 
472 2.09293 0.870485 1.94172 0.448093 0 0 0 0.491661 -0.963511 0.346156 
483 1.82859 0.756592 2.34807 0.493684 0 0 0 0.439334 -0.869966 0.60708 
481 2.18419 0.92271 1.7832 0.441244 0 0 0 0.45042 -0.865729 0.161229 
53 1.96946 0.83712 2.09146 0.454929 0 0 0 0.523513 -1.05337 0.546217 
484 1.5969 0.907434 2.25911 0.443748 0 0 0 0.520589 -1.21085 0.880159 
384 3.3199 -0.642183 2.68997 1.13434 0 0 0 0.46807 -0.689854 0.149525 
79 1.68551 1.09273 1.92022 0.36669 0 0 0 0.137678 -0.88278 -0.419359 
492 1.57913 1.14675 1.92413 0.353495 0 0 0 0.285127 -0.823512 -0.0685454 
102 1.57314 0.883406 2.31387 0.456291 0 0 0 0.432653 -1.15586 0.886022 
353 2.07855 1.26353 2.64018 0.588621 0 0 0 -0.784983 0.43546 -1.26513 
462 2.05822 1.16867 1.5 0.374841 0 0 0 -1.12478 -0.441423 -0.00750044 
366 3.18681 0.394559 3.69956 1.11941 0 0 0 0.427847 -0.0589632 0.661254 
89 1.72108 0.843363 2.90214 0.61281 0 0 0 0.33367 0.563436 0.677282 
368 3.28497 -0.261779 3.55747 1.21015 0 0 0 0.427464 -0.424277 0.520475 
369 3.64678 0.246238 3.45704 1.1909 0 0 0 0.608264 -0.163268 0.482314 
378 2.68148 0.57743 2.86987 0.757393 0 0 0 0.589605 0.356559 0.599833 
389 2.14753 0.922806 3.36328 0.790334 0 0 0 0.30116 0.639937 0.697743 
95 1.59937 0.244861 3.84569 0.991727 0 0 0 0.0259923 -0.174654 0.844418 
373 1.65834 -0.0884641 2.8068 0.767135 0 0 0 -0.127112 -0.983992 -0.0239061 
390 2.59699 1.19523 3.71533 0.975798 0 0 0 0.204643 0.334121 0.633323 
86 1.82023 1.15323 3.19897 0.705231 0 0 0 0.238564 0.999396 0.374337 
376 2.3167 1.03752 3.19033 0.758194 0 0 0 0.302529 0.831231 0.474046 
391 3.65086 0.025402 3.45501 1.22492 0 0 0 0.591517 -0.27621 0.462931 
236 1.54662 0.573467 2.76919 0.603729 0 0 0 0.00794863 -0.614124 0.469203 
379 2.2848 0.064386 2.74733 0.757384 0 0 0 0.197675 -0.71136 0.263035 
392 3.16307 0.164081 2.91473 0.93311 0 0 0 0.561877 -0.181145 0.368096 
381 3.33651 -0.184167 3.45156 1.17626 0 0 0 0.468459 -0.388442 0.486799 
115 1.62185 0.85673 2.99928 0.635538 0 0 0 0.269725 0.566793 0.738448 
386 3.19116 1.24291 3.66153 1.08252 0 0 0 0.343938 0.202038 0.542283 
97 1.83972 0.614675 2.73122 0.599049 0 0 0 0.341733 -0.192291 0.590655 
385 2.36353 -0.0875442 3.34842 0.945014 0 0 0 0.184307 -0.438183 0.551902 
413 2.04561 3.55204 0.256291 0.937595 0 0 0 0.0167828 0.826878 0.106751 
396 3.29248 3.22369 0.0353785 1.0748 0 0 0 0.396753 0.49032 -0.151131 
417 1.86394 3.11945 -0.421522 0.938949 0 0 0 0.0259718 0.635521 -0.497422 
398 3.25696 2.67494 0.143852 0.921572 0 0 0 0.465725 0.363349 -0.0248068 
418 3.60253 2.06813 -0.0315404 0.979936 0 0 0 0.668179 0.103277 -0.267778 
400 3.51106 2.53616 -0.0693598 1.01263 0 0 0 0.566665 0.207824 -0.261318 
420 1.73365 2.37769 -0.458369 0.80256 0 0 0 0.0173745 0.149959 -0.821967 
414 2.02101 2.40556 -0.00567619 0.688317 0 0 0 0.194021 0.747589 -0.386218 
416 2.84934 3.42507 -0.151611 1.0695 0 0 0 0.207368 0.613224 -0.261566 
404 3.3127 3.00276 -0.20117 1.07257 0 0 0 0.424775 0.36671 -0.332238 
415 3.39605 3.43407 0.0890902 1.15433 0 0 0 0.404612 0.5388 -0.151413 
322 1.89506 1.81395 -0.137586 0.663464 0 0 0 -0.322322 -0.680462 -0.736562 
407 3.49973 1.68272 -0.386594 1.01347 0 0 0 0.577603 0.0301349 -0.502839 
408 2.0203 1.93863 -0.607187 0.832006 0 0 0 -0.0249714 -0.176084 -0.86966 
202 2.56613 1.60661 0.174899 0.644144 0 0 0 0.242782 -0.252931 -0.7042 
410 3.59069 2.9862 -0.00985257 1.11005 0 0 0 0.546395 0.338193 -0.221804 
411 1.93646 3.67859 -0.355094 1.08849 0 0 0 -0.0202915 0.76522 -0.418132 
289 2.40057 1.93838 0.244709 0.614265 0 0 0 0.514094 0.450129 -0.390117 
262 1.74618 2.15121 0.279791 0.555169 0 0 0 0.0127045 0.577627 -0.810485 
12 2.05403 1.71887 0.758034 0.438058 0 0 0 1.01306 -0.0352654 -1.31529 
419 2.13204 2.72408 0.899588 0.661814 0 0 0 -0.342926 -0.253328 0.907359 
406 2.42478 3.61753 0.659943 0.970487 0 0 0 -0.0179016 0.633411 0.325809 
5 1.83387 1.60258 1.06898 0.35052 0 0 0 0.518047 -0.00481978 -0.439404 
282 2.10939 1.7138 0.725196 0.451018 0 0 0 1.02955 -0.00761937 -1.22506 
332 2.94216 1.87249 1.48282 0.658016 0 0 0 -1.34665 0.0500394 0.272323 
273 1.97812 2.02246 0.498341 0.505728 0 0 0 0.418134 0.715713 -0.889673 
465 1.55317 1.80293 1.02062 0.352751 0 0 0 0.423363 0.413122 0.11646 
473 2.46735 1.59649 0.666431 0.518463 0 0 0 0.967244 0.00925944 -0.462009 
431 2.32609 2.05447 0.519981 0.56018 0 0 0 0.724034 0.993815 0.163125 
14 1.55419 1.93329 0.828382 0.405068 0 0 0 0.0452492 0.830821 -0.97222 
292 1.85025 1.93216 0.623193 0.458613 0 0 0 0.520172 0.633273 -1.45565 
434 2.75645 2.12254 0.776664 0.640352 0 0 0 0.275899 0.828459 0.976979 
435 2.27548 2.78875 1.36395 0.724152 0 0 0 -1.28376 -1.59758 0.0352976 
449 1.78492 1.65286 1.04032 0.351595 0 0 0 0.619881 0.0966822 -0.444185 
397 2.83484 3.18348 0.751312 0.894632 0 0 0 -0.0119006 0.462728 0.500418 
503 1.69433 1.53292 1.28277 0.296978 0 0 0 0.0868548 0.668198 -1.17541 
439 2.23608 1.68881 0.72161 0.470073 0 0 0 0.997394 -0.149411 -1.01173 
440 3.40613 2.58476 1.18372 0.890002 0 0 0 0.0147967 0.22599 0.341523 
321 3.75635 1.95027 1.30417 0.908667 0 0 0 0.522735 0.204464 0.235069 
442 2.01408 1.55506 0.987736 0.38957 0 0 0 0.84674 -0.376216 -0.680717 
280 3.36552 1.92081 0.844521 0.776136 0 0 0 0.563152 0.495308 0.460945 
409 2.06935 2.09246 1.00961 0.487077 0 0 0 -3.00244 -4.83854 -2.50951 
132 1.60201 2.67399 1.2318 0.597751 0 0 0 -0.896931 -2.8782 -0.340953 
412 3.37692 2.95079 0.915985 0.958068 0 0 0 0.185437 0.35427 0.329061 
467 2.39566 1.70781 0.60756 0.518878 0 0 0 0.911639 0.184893 -0.454086 
475 1.63586 1.75674 1.01821 0.351082 0 0 0 0.571708 0.31998 -0.170183 
297 1.88583 2.11885 0.468263 0.516638 0 0 0 0.269548 0.90045 -0.810873 
258 1.88163 2.0785 0.49008 0.505804 0 0 0 0.292641 0.819111 -0.959232 
21 1.95025 1.79309 0.736982 0.433788 0 0 0 0.834893 0.192538 -1.45166 
155 1.57047 2.57303 1.0308 0.556274 0 0 0 -0.930859 -1.97384 -0.346378 
152 1.64318 3.26844 0.896399 0.775456 0 0 0 0.14504 0.320242 0.577048 
330 3.25835 2.11222 1.26292 0.765143 0 0 0 -0.227418 0.346546 0.517373 
50 2.10971 2.0188 0.461293 0.528914 0 0 0 0.523265 0.760762 -0.52408 
11 1.827 1.65768 0.998587 0.364159 0 0 0 0.725903 0.056145 -0.479248 
221 3.06293 2.07824 0.893013 0.704358 0 0 0 0.191693 0.675876 0.805535 
74 3.0486 1.89688 0.613142 0.697121 0 0 0 0.73392 0.698601 0.481377 
446 2.36993 1.57697 0.416034 0.551074 0 0 0 0.338341 -0.381264 -0.777637 
395 2.2081 3.17316 0.332809 0.823205 0 0 0 0.0906694 0.789276 0.380119 
259 2.61541 1.55377 0.44752 0.589888 0 0 0 0.615084 -0.134995 -0.48416 
421 3.45212 3.42163 0.546131 1.11866 0 0 0 0.356758 0.514225 0.095515 
454 1.56663 1.58655 1.31649 0.280872 0 0 0 0.559241 0.530556 -1.02834 
46 1.85724 1.59487 1.06018 0.354942 0 0 0 0.538943 -0.0521397 -0.419223 
342 1.94864 1.51663 1.09143 0.362945 0 0 0 0.365485 -0.247997 -0.311666 
468 1.84503 1.61503 1.04262 0.356902 0 0 0 0.604901 -0.0199326 -0.435545 
3 1.71464 1.71188 1.01633 0.352868 0 0 0 0.641658 0.223042 -0.361698 
305 1.96778 2.68476 0.388918 0.661759 0 0 0 0.243332 1.21748 0.507555 
197 2.25483 2.3121 0.348902 0.622003 0 0 0 0.537109 1.2149 0.278971 
405 2.37908 2.74231 0.381577 0.727046 0 0 0 0.265638 0.922372 0.602323 
401 2.75365 3.61333 0.332402 1.03903 0 0 0 0.115521 0.715404 0.107317 
13 1.55311 1.67705 1.20137 0.307977 0 0 0 0.785113 0.491416 -0.794828 
387 2.43188 1.68886 2.17909 0.610113 0 0 0 -3.33278 -1.77743 -2.9577 
482 2.51487 2.75821 2.04879 0.826881 0 0 0 -1.5678 -1.3339 -0.988796 
463 2.97195 2.60116 1.62743 0.81833 0 0 0 -1.07681 -0.446853 -0.0860667 
394 2.64217 1.6578 2.44452 0.691167 0 0 0 -1.51711 -0.0734271 -1.27249 
319 3.26547 1.82336 1.59356 0.744787 0 0 0 -0.41213 0.388307 0.342374 
500 3.11263 2.32837 2.11933 0.848981 0 0 0 -0.956583 -0.383036 -0.424588 
487 2.72995 2.14152 2.33655 0.76856 0 0 0 -1.7383 -0.883149 -1.2384 
502 2.94167 3.12339 2.45847 1.05466 0 0 0 -0.570343 -0.288429 -0.388153 
499 3.04773 2.90835 2.59199 1.0427 0 0 0 -0.532307 -0.292062 -0.370322 
429 3.27854 2.24372 1.5145 0.807218 0 0 0 -0.49594 0.0821242 0.239959 
504 1.83955 1.98448 2.30358 0.597543 0 0 0 -3.80789 -5.34117 -5.67702 
383 3.18367 1.5004 2.61693 0.827667 0 0 0 -0.0344013 0.389498 0.0164098 
99 1.58531 1.59037 3.49474 0.813438 0 0 0 0.149988 0.619356 0.283839 
382 2.94579 1.66321 3.32612 0.956236 0 0 0 0.0216758 0.231218 0.173934 
374 2.17945 1.70019 3.15936 0.782231 0 0 0 -0.408985 0.359926 -0.575197 
367 2.15103 1.73257 3.16271 0.783979 0 0 0 -0.427409 0.315495 -0.617727 
512 1.68194 3.18104 2.91328 0.986986 0 0 0 -0.181815 -0.379586 -0.49141 
498 3.03601 3.15207 3.07828 1.20085 0 0 0 -0.264349 -0.140532 -0.154727 
508 2.36175 2.26392 2.93277 0.848652 0 0 0 -1.00143 -0.572076 -1.04115 
488 2.76679 3.03524 3.02365 1.10813 0 0 0 -0.447066 -0.241916 -0.294047 
100 1.61345 1.74365 3.65538 0.886142 0 0 0 0.0867507 0.432679 0.364276 
245 1.53525 1.87342 3.55191 0.862727 0 0 0 0.113813 0.405977 0.174807 
ITEM: TIMESTEP
740922
ITEM: NUMBER OF ATOMS
512
ITEM: BOX BOUNDS ss ss ss
-8.1988304040437454e-01 3.8875120101141034e+00
-9.7693552394909078e-01 3.9476017366228966e+00
-9.1281994132074906e-01 3.9096273972560476e+00
ITEM: ATOMS id x y z width_SPH x_COM y_COM z_COM vx vy vz 
263 1.46291 0.886581 -0.255334 0.797052 0 0 0 -0.184379 0.0652836 0.617675 
403 1.47176 1.28213 -0.572767 0.836229 0 0 0 -0.296149 -0.417892 -0.281597 
25 0.482327 0.121034 0.00277714 1.02263 0 0 0 0.431083 0.529143 0.569946 
279 1.31897 1.03444 -0.484999 0.850875 0 0 0 -0.189048 -0.165803 0.106896 
402 1.48863 1.32749 -0.648029 0.856462 0 0 0 -0.281498 -0.409928 -0.421812 
16 0.283972 0.665585 0.148022 0.902202 0 0 0 0.586625 0.59204 0.780381 
8 0.548852 0.851568 0.116525 0.825728 0 0 0 0.734527 0.682666 1.15152 
131 1.20624 1.40833 0.666094 0.51758 0 0 0 4.80256 6.68721 7.38591 
217 -0.458207 1.32446 1.07566 0.827559 0 0 0 -0.140191 -0.412273 -0.139887 
2 -0.191093 0.578918 0.378227 0.976754 0 0 0 0.269499 0.355316 0.381155 
24 0.947321 0.538086 0.655919 0.732027 0 0 0 1.69013 2.78539 2.58776 
129 -0.0272375 1.21936 0.471869 0.80915 0 0 0 0.465 -0.111317 0.504376 
224 -0.03817 1.2323 1.0979 0.718725 0 0 0 1.00096 -0.0777353 0.267246 
78 0.717495 0.416296 1.446 0.684301 0 0 0 2.08616 2.94755 0.725922 
67 0.056682 0.170709 1.35969 0.867432 0 0 0 0.646886 0.692241 0.00586126 
22 1.10962 0.782268 0.476551 0.689882 0 0 0 1.54629 2.71462 3.19781 
125 0.0919237 1.14992 0.334151 0.817636 0 0 0 0.529072 0.0432067 0.639751 
10 0.362734 0.34021 0.337058 0.92079 0 0 0 0.743289 0.865791 0.897133 
68 -0.629259 1.10997 1.49534 0.872301 0 0 0 -0.401464 -0.268308 -0.30318 
116 -0.467664 -0.224839 2.43602 1.06883 0 0 0 -0.510443 -0.413943 -0.0581825 
39 1.33122 1.26246 1.96204 0.349429 0 0 0 -0.248176 -0.392642 0.562105 
57 -0.13659 -0.184233 1.60661 0.978298 0 0 0 0.0863178 0.0850654 -0.196871 
111 1.4786 0.661632 1.9495 0.4793 0 0 0 3.06071 4.57995 2.61108 
59 0.836228 1.31492 2.27397 0.45913 0 0 0 -1.05518 -0.0553189 0.985053 
183 0.484312 1.33661 2.61272 0.586945 0 0 0 -0.675409 -0.0650146 0.47969 
80 1.06797 1.32418 2.08948 0.394891 0 0 0 -0.907296 0.0277887 0.821294 
103 -0.666451 -0.19285 2.21681 1.11079 0 0 0 -0.541712 -0.319409 -0.0821342 
63 -0.481046 0.335769 1.67077 0.939106 0 0 0 -0.20175 0.0269386 -0.274233 
64 0.692281 1.25102 1.95542 0.468137 0 0 0 1.81267 3.5215 2.44696 
65 1.41229 1.12562 2.09167 0.384753 0 0 0 0.113488 -1.07842 0.468898 
66 0.536326 -0.153294 1.5622 0.845277 0 0 0 0.649459 0.683623 -0.164168 
27 1.41506 1.3286 1.80373 0.30963 0 0 0 -0.411495 -0.39352 1.39411 
343 1.489 1.48457 1.52633 0.252367 0 0 0 0.0620343 0.089088 -0.0237553 
69 0.578505 1.29327 2.42893 0.533074 0 0 0 -0.969972 -0.283519 0.404167 
82 0.156004 0.760123 1.618 0.699973 0 0 0 1.16234 0.800006 -0.325263 
71 0.319327 -0.026858 1.59758 0.843493 0 0 0 0.618246 0.613303 -0.22302 
509 1.47935 1.4766 1.54574 0.254225 0 0 0 0.182432 0.0867251 -0.118271 
226 0.739717 1.28996 2.43124 0.50412 0 0 0 -0.860232 -0.174971 0.697968 
511 1.41956 1.17051 2.0196 0.366045 0 0 0 0.0942057 -0.908528 0.297323 
118 0.968936 0.167089 2.50851 0.690238 0 0 0 -0.380104 -0.897098 -0.66942 
26 1.04232 1.47276 1.91231 0.366376 0 0 0 -0.425485 0.305387 0.348195 
77 0.568463 0.474334 2.28658 0.658595 0 0 0 -0.193254 -0.487497 -0.883523 
92 0.627969 -0.707378 2.33072 0.983502 0 0 0 -0.0562693 -0.633966 -0.231832 
107 0.249773 0.442634 2.19694 0.724251 0 0 0 -0.0884537 -0.275262 -0.803415 
122 1.04947 0.384892 2.37966 0.613129 0 0 0 -0.287011 -0.858507 -0.736366 
94 1.18309 0.612658 2.42577 0.545585 0 0 0 -0.173045 -1.01254 -0.0158194 
247 0.952662 1.10213 2.48174 0.497489 0 0 0 -0.61192 -0.522914 0.847328 
73 1.44161 0.794426 2.54929 0.516407 0 0 0 0.0603329 -0.778568 0.685104 
87 0.756027 0.283348 2.07373 0.669735 0 0 0 0.352353 0.328744 -0.886047 
84 -0.667111 1.05545 2.40896 0.90283 0 0 0 -0.84764 -0.267153 -0.180989 
507 1.18214 1.13119 2.24891 0.425773 0 0 0 -0.485963 -0.575601 1.24117 
169 1.39493 0.991789 2.28374 0.436529 0 0 0 0.174884 -1.07736 1.11079 
85 0.770574 -0.606567 1.99597 0.927264 0 0 0 0.0904896 -0.341433 -0.356416 
371 1.36018 0.868782 2.51445 0.500149 0 0 0 -0.025424 -0.820955 0.806122 
448 0.609047 1.28911 1.89858 0.483818 0 0 0 1.71743 3.16721 1.99175 
328 0.993113 0.774313 2.21877 0.511072 0 0 0 0.604083 0.591758 0.631524 
112 0.973447 1.266 2.2244 0.433462 0 0 0 -0.947372 -0.0536105 1.19682 
40 0.542462 1.29074 2.42961 0.540922 0 0 0 -0.994456 -0.331649 0.322496 
496 1.48486 1.48105 1.5348 0.253068 0 0 0 0.11965 0.0927707 -0.0759767 
42 1.22245 1.29781 2.00116 0.362853 0 0 0 -0.557026 -0.18854 0.501305 
237 1.1156 1.25582 2.14126 0.402225 0 0 0 -0.810511 -0.183989 0.983476 
494 1.38749 1.1901 2.0175 0.364349 0 0 0 -0.0149842 -0.801018 0.357433 
181 0.316494 1.14152 2.56082 0.627439 0 0 0 -0.957822 -0.732099 -0.0855209 
81 -0.121096 -0.621646 2.09638 1.08734 0 0 0 -0.196989 -0.42269 -0.131276 
83 1.18469 -0.506691 2.52987 0.870697 0 0 0 -0.142382 -0.821286 -0.309916 
232 0.998004 1.01239 2.54917 0.515987 0 0 0 -0.467531 -0.616705 0.771066 
93 -0.508156 0.844907 2.0297 0.851665 0 0 0 -0.540496 -0.298775 -0.444171 
61 1.51203 0.359939 1.94817 0.566529 0 0 0 0.589575 1.39728 -0.113123 
349 1.50386 -0.381648 1.57126 0.808644 0 0 0 -0.129196 0.234013 -0.291423 
253 1.16405 1.08585 2.39571 0.460852 0 0 0 -0.611556 -0.906962 0.93757 
193 -0.727534 1.42163 1.55279 0.877438 0 0 0 -0.69631 -0.372884 -0.303483 
506 1.46209 1.27674 1.83872 0.32002 0 0 0 -0.22179 -0.637754 0.942585 
44 -0.24821 1.37175 1.89731 0.712935 0 0 0 -0.599075 -0.717592 -0.652024 
32 1.23784 1.37168 1.88979 0.337001 0 0 0 -0.417953 -0.0102249 0.780502 
493 1.20601 1.42553 1.84334 0.3313 0 0 0 -0.25155 0.010785 0.833783 
9 1.40197 1.32544 1.82114 0.313669 0 0 0 -0.52471 -0.595528 1.18557 
218 1.31592 1.40023 1.78919 0.309645 0 0 0 -0.538589 -0.470998 1.28631 
200 -0.243775 1.45153 1.90837 0.706233 0 0 0 -0.689924 -0.735868 -0.614251 
486 1.31685 1.26323 1.98201 0.354058 0 0 0 0.423207 0.775835 1.34811 
98 0.192037 0.505963 2.67417 0.762684 0 0 0 -0.547784 -0.679281 -0.319415 
113 1.36474 -0.767762 2.84603 0.993321 0 0 0 -0.05192 -0.877644 0.055171 
114 -0.662824 0.667391 3.0988 1.0467 0 0 0 -0.730323 -0.208074 0.29216 
108 0.827864 -0.375052 3.19939 0.967031 0 0 0 -0.179663 -0.683322 0.269359 
163 0.568714 0.925244 2.79804 0.64597 0 0 0 -0.62899 -0.714742 0.303365 
60 0.824462 1.36373 3.15258 0.691635 0 0 0 0.333326 0.629437 0.835944 
117 0.983522 0.117894 3.70191 0.978822 0 0 0 -0.129101 -0.308782 0.718544 
51 0.407862 1.42257 2.78813 0.642073 0 0 0 -0.346574 0.249815 0.656796 
88 1.42973 0.53892 3.62921 0.86988 0 0 0 0.00637772 0.015278 0.894935 
109 -0.521012 -0.195168 3.25588 1.19582 0 0 0 -0.575232 -0.438262 0.393263 
90 -0.819601 0.596003 2.78624 1.05283 0 0 0 -0.798698 -0.216513 0.112031 
91 0.794653 1.1685 3.90935 0.962246 0 0 0 -0.00640092 0.133376 0.951544 
227 1.33614 1.35544 2.76353 0.562283 0 0 0 -0.0937017 0.239795 -0.637924 
438 0.692847 1.45415 3.02108 0.665651 0 0 0 0.310325 0.681427 0.83191 
119 0.719811 0.0526549 3.43824 0.932512 0 0 0 -0.230067 -0.438123 0.511965 
430 1.20336 0.667925 2.80487 0.606696 0 0 0 -0.284913 -0.688805 0.484949 
96 1.21336 -0.443191 3.49594 1.03711 0 0 0 -0.0580991 -0.627555 0.498002 
121 -0.478886 0.852544 3.15732 0.981834 0 0 0 -0.68611 -0.196812 0.337558 
110 0.000524483 -0.178573 2.91004 0.989034 0 0 0 -0.415646 -0.54574 0.0950863 
120 -0.757154 1.33216 2.86286 0.98296 0 0 0 -0.855526 -0.0638547 0.19264 
104 0.101175 -0.59831 3.21263 1.14764 0 0 0 -0.345982 -0.642433 0.341683 
101 0.537342 0.503473 3.11842 0.78634 0 0 0 -0.405484 -0.525519 0.336937 
238 1.23272 1.23413 2.83499 0.574663 0 0 0 0.182208 0.586806 0.304305 
123 -0.316988 2.86792 -0.691707 1.18977 0 0 0 -0.54033 0.329789 -0.65981 
159 0.397828 3.05214 -0.625389 1.0548 0 0 0 -0.285714 0.503075 -0.690769 
142 1.18785 3.8051 -0.0596193 1.05791 0 0 0 -0.106356 0.892006 -0.316694 
126 -0.541277 3.21742 0.184408 1.10844 0 0 0 -0.644961 0.551737 -0.319689 
127 0.805509 2.06303 -0.832089 0.949856 0 0 0 -0.270551 -0.262301 -0.886176 
158 0.896473 2.14782 -0.502464 0.825354 0 0 0 -0.34374 -0.410898 -0.874046 
143 -0.162427 2.5139 -0.788992 1.13562 0 0 0 -0.507463 0.116801 -0.735175 
149 1.11663 2.1868 -0.912541 0.95857 0 0 0 -0.15283 -0.11596 -0.939867 
151 1.36322 3.36621 0.288898 0.844525 0 0 0 0.0302189 0.959203 0.045031 
274 1.33477 2.01644 -0.0268099 0.636672 0 0 0 -0.366983 -0.743748 -0.66383 
157 0.0134416 1.64299 0.12894 0.82107 0 0 0 -0.211089 -0.666834 -0.103387 
156 -0.60903 1.93331 -0.650128 1.19062 0 0 0 -0.599133 -0.066017 -0.549851 
130 0.98617 2.15088 0.267689 0.593016 0 0 0 -0.524924 -0.340182 -0.634987 
148 0.698615 1.49458 -0.23256 0.791591 0 0 0 -0.0750094 -0.610809 0.077442 
137 -0.708164 2.86988 0.246398 1.07808 0 0 0 -0.787204 0.323147 -0.310872 
138 0.424974 2.62752 -0.593783 0.963033 0 0 0 -0.356589 0.18212 -0.803831 
141 0.160028 1.997 -0.415261 0.9144 0 0 0 -0.476542 -0.434292 -0.672641 
140 0.862149 2.60215 -0.809088 0.979759 0 0 0 -0.192267 0.196973 -0.875601 
443 1.31898 2.0852 0.116074 0.599077 0 0 0 -0.363287 -0.428224 -0.737779 
444 1.48154 2.23981 0.06278 0.620902 0 0 0 -0.259598 0.134111 -0.787039 
136 1.03226 1.89169 0.22151 0.597171 0 0 0 -0.148964 -0.793371 0.0688071 
268 1.46276 2.00807 0.11333 0.589762 0 0 0 -0.280102 -0.513208 -0.711751 
146 0.824172 2.05113 0.25374 0.615594 0 0 0 -0.451149 -0.790444 -0.379347 
180 0.81632 2.50706 0.789621 0.565315 0 0 0 -0.421964 1.23139 -0.299279 
190 0.821833 3.29161 1.17402 0.773674 0 0 0 0.338238 0.751382 0.367146 
178 -0.546738 3.08541 1.13917 0.974061 0 0 0 -0.646009 0.581686 -0.0204833 
220 0.899064 2.23256 1.45455 0.460904 0 0 0 -1.92833 -2.57275 -1.96272 
189 1.01701 2.26105 0.814593 0.487553 0 0 0 -0.947516 1.11261 -0.606346 
165 1.04879 2.30438 0.745463 0.502536 0 0 0 -0.824539 1.15654 -0.661771 
128 1.38577 3.34334 1.25181 0.793524 0 0 0 0.238309 -0.0104499 0.379265 
185 0.700689 3.36968 1.30718 0.807798 0 0 0 0.306457 0.749865 0.317387 
168 0.779366 2.05426 1.00596 0.471617 0 0 0 -0.205687 1.53637 0.706381 
186 -0.767701 1.72336 0.481581 0.983531 0 0 0 -0.740624 -0.285023 -0.211623 
170 0.556738 2.28227 0.547178 0.609207 0 0 0 -0.63939 -0.127232 -0.555089 
171 0.28459 3.56153 0.91582 0.929537 0 0 0 -0.124094 0.922003 0.0251839 
175 -0.673995 2.64647 1.34235 0.922316 0 0 0 -0.838143 0.285615 -0.0589367 
124 0.946509 2.13445 1.0301 0.448061 0 0 0 -1.03353 1.02046 -0.156154 
187 -0.341978 2.06187 0.381156 0.853133 0 0 0 -0.732624 -0.502034 -0.361214 
134 1.44029 2.99976 0.715264 0.686526 0 0 0 0.237591 0.772245 0.575626 
198 1.10453 2.48524 1.32487 0.519688 0 0 0 -1.07329 -2.52526 -1.23761 
426 1.5256 1.8097 1.03415 0.350829 0 0 0 0.37423 0.399456 0.236486 
147 1.22188 1.92069 1.15987 0.365564 0 0 0 -0.682226 -0.613626 0.426816 
133 1.04449 2.31189 0.324238 0.588104 0 0 0 -0.518631 0.365546 -0.734248 
188 0.398827 2.22612 0.467427 0.652193 0 0 0 -0.608872 -0.528075 -0.525435 
20 1.40122 1.64925 1.36986 0.284342 0 0 0 1.58819 -0.49093 -0.210522 
216 -0.0737836 2.3515 1.33666 0.682758 0 0 0 -0.676859 0.162965 -0.233 
206 -0.717443 1.91108 1.19378 0.879574 0 0 0 -0.880901 -0.367041 -0.250316 
154 -0.280092 3.20781 0.526565 0.978401 0 0 0 -0.533183 0.672503 -0.188904 
144 1.30246 2.01088 0.91294 0.407619 0 0 0 -0.67282 1.05428 -0.238385 
423 1.18172 2.03444 0.977321 0.411242 0 0 0 -0.851296 1.06118 0.0834582 
135 -0.226257 3.1214 0.41025 0.958212 0 0 0 -0.535652 0.632108 -0.24713 
192 0.52969 2.18854 0.465833 0.623396 0 0 0 -0.589941 -0.541661 -0.501811 
194 0.171575 2.21542 0.651666 0.670492 0 0 0 -0.636077 -0.568315 -0.480119 
196 0.990082 2.8906 1.10309 0.640602 0 0 0 0.388189 0.633292 0.419029 
203 0.532323 2.55462 0.541048 0.655196 0 0 0 -0.461074 0.623883 -0.448617 
150 1.4106 1.88558 0.988781 0.370977 0 0 0 2.87067 5.46044 3.78864 
214 -0.0711041 1.80495 0.791839 0.711169 0 0 0 -0.190229 -1.00772 -0.172921 
425 1.42104 1.95119 0.905403 0.394392 0 0 0 -0.268466 0.94445 -0.302243 
48 0.228419 2.29403 0.623419 0.667392 0 0 0 -0.652823 -0.340639 -0.509608 
162 1.52738 1.51565 1.44983 0.254791 0 0 0 -0.400386 0.113551 0.3203 
177 0.870212 1.99607 1.31465 0.416627 0 0 0 -0.427996 0.917068 0.358989 
139 0.90101 3.94732 0.7486 1.02061 0 0 0 -0.0239443 0.908767 -0.0296435 
461 1.38949 1.75363 1.23162 0.316837 0 0 0 0.788716 0.0389395 0.353236 
210 0.261608 2.17599 0.847562 0.616 0 0 0 -0.594577 -0.510732 -0.434906 
480 1.02343 2.02374 1.13293 0.40987 0 0 0 -0.66396 0.947557 0.4731 
28 1.05077 1.83854 1.40401 0.360317 0 0 0 0.745425 0.122636 0.746341 
489 0.558849 2.27473 1.21427 0.519895 0 0 0 -0.639999 0.853567 -0.177995 
4 1.22246 1.72084 1.42292 0.315212 0 0 0 1.31353 -0.333594 0.538934 
19 1.14083 2.47427 0.42879 0.585362 0 0 0 -0.345419 1.10181 -0.52906 
336 0.479583 2.3743 1.1893 0.555288 0 0 0 -0.451918 0.940801 -0.147879 
469 1.04049 2.01732 1.12836 0.406969 0 0 0 -0.641515 0.936176 0.520203 
308 0.417191 2.38389 1.20765 0.568909 0 0 0 -0.421996 0.882993 -0.144401 
15 1.22459 1.8628 1.21613 0.350381 0 0 0 0.329914 0.109381 1.24201 
424 1.33272 2.62684 0.397187 0.618371 0 0 0 -0.0725347 1.29739 -0.162095 
7 1.37249 2.12816 0.709258 0.457163 0 0 0 -0.584466 1.11294 -1.16693 
174 1.2968 1.80757 1.23499 0.332178 0 0 0 0.573387 -0.124976 0.946205 
6 1.09486 1.81937 1.39359 0.350536 0 0 0 0.88601 -0.0218094 0.820351 
458 0.509348 2.15864 1.40969 0.503691 0 0 0 -0.692633 0.732825 -0.0556014 
433 1.53015 1.83936 0.985043 0.363365 0 0 0 0.317677 0.587875 0.0927667 
437 1.46749 2.04177 0.748693 0.434924 0 0 0 -0.336957 1.01713 -1.23226 
153 1.27973 1.81894 1.23334 0.335817 0 0 0 0.531778 -0.101232 1.03828 
286 1.4825 2.0299 0.753366 0.432214 0 0 0 -0.289544 0.996581 -1.23859 
195 0.960329 1.93965 1.32813 0.392723 0 0 0 -0.00408357 0.669694 0.653878 
399 1.51634 1.93623 0.866633 0.397934 0 0 0 -0.429396 0.220079 -1.13862 
354 0.503408 2.10106 1.49637 0.495894 0 0 0 -0.740918 0.714472 0.0203674 
372 1.50625 1.49957 1.49053 0.251512 0 0 0 -0.213042 0.0451179 0.26418 
164 0.232472 1.81996 1.47903 0.555413 0 0 0 -0.187019 -0.251075 -0.150828 
17 1.50459 1.49817 1.49392 0.251439 0 0 0 -0.188127 0.047551 0.240293 
52 0.95389 1.86577 1.44847 0.38025 0 0 0 0.3956 0.462917 0.490514 
145 0.944091 3.68324 0.319778 0.96203 0 0 0 -0.0697314 0.942554 -0.136524 
256 0.558344 2.11604 1.73864 0.496383 0 0 0 -0.760086 0.519787 0.0906551 
495 1.0431 1.64388 1.68229 0.346147 0 0 0 0.726509 0.28429 0.134387 
248 0.868776 1.56291 1.93386 0.401684 0 0 0 -0.733999 0.724679 0.57455 
43 0.148918 2.3144 1.81884 0.623844 0 0 0 -0.186891 0.906608 0.491375 
76 0.906796 1.57912 1.88406 0.389082 0 0 0 -0.517915 0.646477 0.347157 
450 0.854475 1.64818 1.83469 0.397158 0 0 0 -0.4714 0.832826 0.328222 
166 1.19152 3.39112 1.71318 0.833435 0 0 0 0.311547 -0.187257 0.0848112 
70 0.975132 2.32044 2.3029 0.608751 0 0 0 0.374605 -1.55704 -1.46664 
199 -0.163993 2.48214 2.51655 0.815896 0 0 0 -0.22195 0.75176 0.499428 
223 -0.313714 3.51999 2.20263 1.0656 0 0 0 -0.342991 0.730771 0.1853 
201 -0.0323007 3.0138 1.68138 0.815641 0 0 0 -0.0812571 0.97849 0.267422 
243 0.900446 2.03172 2.39421 0.562175 0 0 0 0.102803 -1.11855 -1.35639 
191 0.402008 2.14629 2.61255 0.667711 0 0 0 0.537621 1.16212 0.686844 
204 0.494256 3.8316 2.13436 1.03918 0 0 0 0.0831393 0.66335 0.133757 
49 0.769415 1.87247 1.59107 0.417373 0 0 0 -0.387902 1.00492 0.294939 
160 0.914957 1.82328 1.54462 0.382719 0 0 0 0.276506 0.470716 0.188009 
207 0.786913 2.75748 2.50756 0.754782 0 0 0 0.726066 0.142287 -0.116913 
208 1.03097 2.39109 1.63944 0.518086 0 0 0 -1.29701 -4.15708 -2.32239 
209 0.529452 2.2009 1.58261 0.507848 0 0 0 -0.583091 0.778416 0.0884029 
447 0.197365 2.26426 2.14673 0.639123 0 0 0 0.0858339 1.11297 0.777304 
211 0.711174 3.69219 1.79547 0.94362 0 0 0 0.228625 0.56148 0.152203 
212 0.655034 3.28581 1.83326 0.812311 0 0 0 0.469041 0.508445 0.273237 
213 0.0678185 3.4769 2.25792 0.980741 0 0 0 -0.0320865 0.748344 0.229387 
490 1.46129 1.49804 1.53103 0.253854 0 0 0 1.29211 -0.711027 0.128562 
215 0.794995 3.88392 2.27497 1.06153 0 0 0 0.148999 0.5028 0.0716985 
184 1.5004 1.49456 1.50257 0.251402 0 0 0 -0.121566 0.057417 0.171675 
55 0.266687 2.26506 1.5319 0.574509 0 0 0 -0.404393 0.671143 0.0856518 
505 0.361109 1.60465 2.26192 0.548763 0 0 0 -0.983672 0.180583 0.294844 
255 1.2108 2.61046 2.1765 0.668954 0 0 0 0.048874 -2.31929 -1.57556 
479 0.0168436 2.36862 2.04038 0.686488 0 0 0 -0.169977 0.920352 0.583088 
173 -0.124536 1.91621 1.83532 0.65983 0 0 0 -0.837737 -0.40293 -0.215181 
318 0.349867 1.78873 2.07953 0.534863 0 0 0 -0.898983 0.413718 0.360437 
54 0.430614 1.94054 1.8001 0.502881 0 0 0 -0.875855 0.602243 0.284633 
34 0.259991 2.18277 1.85538 0.577331 0 0 0 -0.275806 0.845173 0.514634 
172 0.165962 2.12749 1.58858 0.582574 0 0 0 -0.604287 0.131406 -0.0735051 
229 1.08131 2.33348 2.53378 0.661703 0 0 0 0.497465 -1.0524 -1.40602 
234 1.0441 1.64647 1.67795 0.345827 0 0 0 0.744956 0.277179 0.13593 
252 1.15751 1.61768 1.62228 0.318147 0 0 0 1.064 -0.250431 0.524694 
235 1.04833 1.62 1.71022 0.345715 0 0 0 0.626138 0.289146 0.162499 
29 0.843072 1.72179 1.74557 0.396695 0 0 0 -0.258741 0.87784 0.216126 
513 0.660686 1.56778 2.09005 0.460315 0 0 0 -1.20272 0.513734 0.74281 
241 1.0601 1.60521 1.72045 0.343451 0 0 0 0.600756 0.255517 0.207261 
38 0.320513 1.75881 2.2745 0.56625 0 0 0 -0.693043 0.511571 0.471381 
35 0.252081 1.7616 2.40264 0.603927 0 0 0 -0.543899 0.556813 0.510719 
30 0.500203 1.66022 2.12088 0.499533 0 0 0 -1.10754 0.44083 0.496586 
239 -0.586855 2.64442 2.57886 0.97414 0 0 0 -0.577162 0.458323 0.298069 
233 0.904607 1.60663 1.8497 0.386762 0 0 0 -0.399151 0.669479 0.256714 
75 0.829563 1.66229 1.83748 0.40314 0 0 0 -0.564079 0.867499 0.365777 
219 1.50021 1.49439 1.50297 0.251406 0 0 0 -0.118388 0.0579757 0.168274 
167 1.50039 1.49455 1.50259 0.251402 0 0 0 -0.121428 0.0574412 0.171527 
466 1.5002 1.49438 1.503 0.251406 0 0 0 -0.118159 0.0580161 0.168029 
471 1.50021 1.49439 1.50297 0.251406 0 0 0 -0.118432 0.0579679 0.168321 
36 1.50028 1.49445 1.50282 0.251404 0 0 0 -0.119607 0.0577611 0.169579 
278 1.50195 1.49591 1.49935 0.251391 0 0 0 -0.146711 0.0532382 0.198241 
37 1.50088 1.49498 1.50157 0.251396 0 0 0 -0.129479 0.0561208 0.180011 
58 1.50159 1.49559 1.50011 0.251391 0 0 0 -0.140967 0.054246 0.1921 
47 1.07813 1.7557 1.4997 0.343426 0 0 0 1.02046 -0.136266 0.347762 
477 1.50167 1.49566 1.49993 0.251391 0 0 0 -0.142186 0.0539564 0.193509 
355 1.50134 1.49537 1.50063 0.251392 0 0 0 -0.136797 0.0548323 0.187843 
334 1.50104 1.49511 1.50125 0.251394 0 0 0 -0.131895 0.0556473 0.182664 
476 1.50097 1.49505 1.50139 0.251395 0 0 0 -0.130823 0.0558277 0.181528 
179 1.50088 1.49498 1.50157 0.251396 0 0 0 -0.129416 0.0560657 0.180035 
222 1.50059 1.49472 1.50219 0.251399 0 0 0 -0.124577 0.056894 0.174889 
302 1.50065 1.49478 1.50205 0.251398 0 0 0 -0.125664 0.0567066 0.176047 
176 1.50066 1.49478 1.50204 0.251398 0 0 0 -0.125725 0.0566962 0.176111 
225 0.922812 2.39726 3.41235 0.888289 0 0 0 0.37368 0.377043 0.311802 
106 0.302739 2.02715 3.35324 0.857242 0 0 0 0.120797 0.569731 0.780086 
249 -0.498565 2.47087 2.81672 0.959174 0 0 0 -0.536679 0.431533 0.394133 
228 -0.10866 3.23446 3.60258 1.22453 0 0 0 -0.281618 0.49455 0.57949 
254 -0.486123 2.76307 3.5122 1.1744 0 0 0 -0.471133 0.385437 0.584953 
230 0.506969 3.71141 2.99961 1.13779 0 0 0 0.026908 0.55503 0.26474 
231 0.569904 2.2762 3.57918 0.93509 0 0 0 0.214654 0.457935 0.686153 
242 0.544179 2.40528 3.25164 0.856904 0 0 0 0.388565 0.605958 0.516856 
246 -0.356556 2.01124 3.52012 1.04153 0 0 0 -0.460414 0.227394 0.669546 
464 0.277932 1.66567 2.73315 0.660818 0 0 0 -0.253183 0.60074 0.673433 
205 0.78951 1.62298 3.04757 0.674939 0 0 0 0.588814 0.903129 0.639762 
251 0.368726 3.45848 3.03809 1.07462 0 0 0 0.0473338 0.574847 0.331773 
105 -0.172737 1.52945 3.72937 1.04181 0 0 0 -0.383874 0.0755029 0.777714 
250 0.796415 3.13054 3.39931 1.05193 0 0 0 0.168009 0.346724 0.318565 
244 1.25516 2.37352 3.45388 0.901675 0 0 0 0.225143 0.194227 0.063038 
240 -0.316581 3.69299 3.40911 1.33894 0 0 0 -0.398562 0.574302 0.443196 
257 3.62638 1.21803 -0.278453 1.02738 0 0 0 0.662279 -0.0959461 -0.447612 
441 1.86625 1.15928 0.0293952 0.661003 0 0 0 -0.675368 -0.369656 0.6016 
288 3.67371 0.857919 0.0530692 0.991895 0 0 0 0.717081 -0.235564 -0.334336 
260 3.1323 0.827981 -0.60912 1.01911 0 0 0 0.333837 -0.274322 -0.675073 
261 3.52398 -0.100131 0.154678 1.093 0 0 0 0.502732 -0.634781 -0.330565 
276 2.55308 0.780193 -0.320853 0.838317 0 0 0 -0.251421 -0.566768 -0.547731 
427 2.22868 1.08023 0.208779 0.632713 0 0 0 -0.822418 -0.713987 -0.101761 
285 1.77615 0.218846 -0.0315061 0.864555 0 0 0 -0.185595 0.145296 0.517849 
436 2.35115 1.42219 -0.0512749 0.678329 0 0 0 -0.406566 -0.673979 -0.734136 
266 2.66025 0.936349 -0.843431 1.00718 0 0 0 0.0635733 -0.223778 -0.783952 
267 3.03037 0.608847 -0.0398131 0.865184 0 0 0 0.159058 -0.643763 -0.506136 
293 2.10191 1.07614 -0.870531 0.957157 0 0 0 -0.174105 -0.223634 -0.718723 
269 2.55512 0.949697 -0.70689 0.943092 0 0 0 -0.0495121 -0.28886 -0.743541 
270 2.46766 0.612219 -0.432215 0.89163 0 0 0 -0.223501 -0.523994 -0.496711 
271 3.2313 -0.579436 -0.176081 1.23192 0 0 0 0.360723 -0.692766 -0.376341 
272 1.6467 0.823021 0.128516 0.702435 0 0 0 -0.205648 0.701083 1.5533 
284 2.0421 0.324117 -0.432479 0.936212 0 0 0 -0.243772 -0.335196 -0.149024 
290 2.38962 -0.690841 -0.214174 1.17656 0 0 0 0.065292 -0.547451 -0.230056 
291 3.16122 0.334519 -0.492728 1.06555 0 0 0 0.325714 -0.499022 -0.575628 
294 3.06872 0.327576 0.682208 0.794011 0 0 0 0.101739 -0.942266 -0.433159 
23 1.96011 1.40533 1.23484 0.349079 0 0 0 -0.599657 -0.216984 0.0857805 
453 2.93384 0.913307 1.3622 0.602815 0 0 0 0.732833 -0.100583 0.132434 
18 1.90806 1.36094 1.34067 0.333034 0 0 0 -1.25072 0.013426 0.295493 
298 2.04666 1.34271 1.25147 0.367169 0 0 0 -0.540449 -0.421482 0.0781948 
299 2.91921 0.965583 1.15319 0.600936 0 0 0 0.695795 -0.294029 -0.119166 
451 2.12579 1.28904 1.26587 0.385299 0 0 0 -0.254689 -0.637276 -0.0746834 
301 3.70183 0.535434 1.4268 0.900414 0 0 0 0.879131 -0.21718 0.0445881 
264 2.45148 0.855524 0.620123 0.597324 0 0 0 -0.523671 -0.843214 -0.416908 
445 2.28054 1.21985 1.24787 0.423473 0 0 0 0.555498 -0.751938 -0.307387 
304 2.19734 1.11986 1.14351 0.431066 0 0 0 2.27639 2.78606 2.37169 
41 2.86421 0.991057 0.872279 0.609247 0 0 0 0.493105 -0.66993 -0.49726 
306 1.99418 1.20525 1.4957 0.358716 0 0 0 -1.55157 -0.174989 0.0556927 
307 2.07217 1.04505 1.19282 0.425466 0 0 0 3.78055 7.11355 5.71545 
277 2.64747 1.39933 0.721803 0.548761 0 0 0 0.848616 -0.164926 -0.410691 
309 3.42368 0.409362 1.28612 0.825457 0 0 0 0.705409 -0.507608 -0.108086 
310 2.04761 -0.00925605 1.06794 0.725922 0 0 0 -0.566252 0.412296 0.0784841 
311 2.88348 1.04322 0.925476 0.602778 0 0 0 0.627623 -0.456741 -0.367899 
341 2.75569 1.06757 0.733251 0.594097 0 0 0 0.363299 -0.793611 -0.668225 
432 2.74186 1.44695 0.883125 0.554672 0 0 0 0.862979 0.2493 0.0388772 
161 2.00055 1.43222 1.16425 0.363505 0 0 0 -0.0700636 -0.33851 -0.11713 
182 2.69528 1.32604 0.523275 0.596687 0 0 0 0.4597 -0.51913 -0.622918 
316 2.92723 -0.308192 0.756845 0.924413 0 0 0 0.0547707 -0.866031 -0.307177 
317 3.34937 0.014788 0.768075 0.9244 0 0 0 0.394665 -0.767708 -0.282434 
275 3.4093 -0.820413 0.709981 1.195 0 0 0 0.430012 -0.788084 -0.184218 
33 2.65971 0.845091 1.48872 0.537874 0 0 0 0.731259 -0.584778 0.0576625 
320 1.86541 0.0375355 0.931903 0.734202 0 0 0 -0.348774 1.0458 0.599279 
72 2.19325 1.16818 1.39318 0.403133 0 0 0 -0.136044 -0.769941 -0.0248311 
265 1.93826 -0.369082 0.732911 0.882173 0 0 0 -0.204909 0.0532921 0.157704 
501 2.42646 1.15684 1.21412 0.460779 0 0 0 0.925087 -0.612935 -0.32615 
56 2.5703 0.702983 0.532523 0.65629 0 0 0 -0.587875 -1.04465 -0.472239 
325 2.33716 1.10413 1.34222 0.440663 0 0 0 0.761384 -0.601342 0.030401 
287 2.41139 -0.366539 0.555638 0.915705 0 0 0 -0.190775 -0.554735 -0.138714 
327 3.3612 1.249 1.48977 0.729283 0 0 0 0.602848 0.610911 0.465238 
329 1.95981 0.208876 1.14449 0.655283 0 0 0 -0.514374 1.36138 0.567953 
428 2.78133 0.813913 1.48194 0.571738 0 0 0 0.69673 -0.434598 0.0856421 
31 2.45656 0.720504 0.487632 0.649596 0 0 0 -0.729144 -0.862208 -0.283674 
283 1.78569 0.844334 0.902985 0.529913 0 0 0 2.21549 7.1182 5.73006 
326 2.49871 1.10643 1.22628 0.479729 0 0 0 0.917713 -0.58712 -0.27549 
470 3.20795 1.21787 1.38466 0.67538 0 0 0 0.604915 0.650638 0.479882 
313 2.78304 0.837258 1.4233 0.569374 0 0 0 0.68884 -0.469786 0.0304787 
457 1.88294 1.3176 1.42382 0.328053 0 0 0 -1.57494 0.173605 0.325489 
455 2.09929 1.46728 1.04025 0.396739 0 0 0 0.737333 -0.566837 -0.644794 
422 2.35314 1.29626 1.0816 0.446575 0 0 0 1.03418 -0.563895 -0.623678 
456 2.55983 0.341725 1.38463 0.628055 0 0 0 -0.349832 -1.08267 -0.530476 
474 1.85406 1.42 1.30336 0.322765 0 0 0 -0.756474 0.168894 0.00899736 
300 3.62897 -0.222322 1.47508 1.02441 0 0 0 0.628926 -0.628314 -0.0936874 
478 2.35708 1.45326 0.8672 0.466217 0 0 0 1.20522 -0.344463 -0.812708 
340 1.70262 1.43604 1.41147 0.28635 0 0 0 -0.969077 0.607349 -0.388284 
281 1.70783 0.0068459 0.314219 0.851724 0 0 0 -0.0686559 0.525072 0.736441 
333 2.95214 0.625807 2.5762 0.75315 0 0 0 0.713165 0.398761 0.502287 
323 1.96023 1.06256 1.74772 0.382669 0 0 0 -0.574223 -0.518585 -0.531212 
335 2.66603 0.847282 2.44812 0.646095 0 0 0 0.592426 0.83273 0.53073 
491 1.78686 1.17973 1.70549 0.338067 0 0 0 -0.880176 0.102557 -0.515439 
337 2.05362 -0.945728 1.91696 0.99353 0 0 0 -0.030211 -0.87226 -0.198432 
338 3.03182 0.240144 2.16305 0.772456 0 0 0 0.62138 -0.400496 0.18501 
339 1.79311 0.243031 1.69179 0.597995 0 0 0 -0.162233 1.31186 -0.0847033 
370 1.65925 -0.976656 2.59511 1.0346 0 0 0 -0.00372199 -0.913985 -0.00498898 
452 2.42607 0.244123 1.74988 0.624615 0 0 0 -0.262866 -1.04643 -0.489092 
295 2.09994 0.57421 2.39619 0.559712 0 0 0 0.422631 -0.554897 0.449758 
296 2.19624 1.05236 1.56909 0.416347 0 0 0 0.0524973 -0.767682 0.001613 
344 2.37282 0.960797 1.94511 0.493171 0 0 0 0.0946196 -0.747935 -0.195031 
345 3.40708 1.06476 2.12278 0.795711 0 0 0 0.617699 0.513855 0.40894 
346 2.01393 0.960267 1.86444 0.41594 0 0 0 0.212449 -0.860842 0.00186302 
364 1.68475 1.12265 1.87405 0.355486 0 0 0 0.0337209 -0.642446 -0.440856 
348 3.88723 1.46542 2.1892 0.984175 0 0 0 0.623096 0.145068 0.180688 
331 2.11756 0.995942 1.72374 0.415843 0 0 0 0.0794982 -0.764471 -0.0602556 
350 2.36019 -0.0946093 1.6119 0.719205 0 0 0 -0.476409 -0.847114 -0.611096 
351 1.77258 1.2331 1.64011 0.3237 0 0 0 -1.0618 0.265072 -0.192335 
352 2.46185 0.668521 2.2626 0.582334 0 0 0 0.67636 0.0573228 0.582511 
363 2.55574 -0.637628 2.03573 0.923301 0 0 0 0.0626259 -0.993201 -0.189406 
45 1.68419 1.14928 1.83489 0.346042 0 0 0 -0.0692585 -0.451175 -0.387179 
365 1.6938 0.222892 2.39009 0.619917 0 0 0 -0.246787 -1.20424 -0.522479 
356 3.26093 1.43479 2.49168 0.819987 0 0 0 0.077195 0.442797 0.108639 
357 2.16286 1.08649 2.24831 0.502362 0 0 0 -1.19528 -1.2663 -1.34792 
358 2.14803 0.666401 2.60499 0.5953 0 0 0 0.560573 0.181485 0.638769 
359 3.56757 -0.600353 2.2103 1.1353 0 0 0 0.571193 -0.671625 0.0263232 
360 1.95002 0.186186 2.18312 0.617078 0 0 0 -0.299139 -1.06734 -0.548437 
361 2.06205 -0.717433 1.53364 0.916869 0 0 0 -0.165965 -0.667993 -0.288194 
362 2.41713 0.274344 1.96775 0.621373 0 0 0 -0.0196187 -1.05127 -0.266909 
460 1.97017 1.14592 1.60674 0.364134 0 0 0 -1.33178 -0.186175 -0.367928 
303 2.32215 1.05423 1.64055 0.446361 0 0 0 -0.243768 -1.64983 -0.782044 
393 1.97008 -0.328925 2.07153 0.77005 0 0 0 -0.341793 -0.895143 -0.523362 
324 2.45377 0.691626 1.9828 0.53993 0 0 0 0.658946 -0.447219 0.399783 
312 3.14154 1.31988 1.96638 0.699458 0 0 0 -0.0356713 0.799485 0.326153 
375 1.79871 0.918454 2.0944 0.426676 0 0 0 0.572327 -1.1625 0.509308 
459 2.65915 0.457154 1.80806 0.612565 0 0 0 0.36962 -0.819367 -0.0486958 
62 1.74291 1.05768 1.9291 0.377706 0 0 0 0.103465 -0.930904 -0.414907 
380 2.33975 0.664182 2.34273 0.573094 0 0 0 0.614341 -0.00925083 0.600918 
485 1.68786 1.16812 1.80446 0.339539 0 0 0 -0.171976 -0.321943 -0.33029 
510 2.07899 0.979131 1.78211 0.415853 0 0 0 0.124182 -0.792039 -0.0556091 
497 1.81804 0.609479 2.48231 0.542851 0 0 0 0.301603 -0.771586 0.409398 
347 1.77136 -0.881265 1.974 0.962735 0 0 0 -0.0895681 -0.78657 -0.24753 
377 3.60723 1.30346 2.5684 0.933682 0 0 0 0.514236 0.272028 0.238894 
314 2.71491 0.746779 1.72331 0.570736 0 0 0 0.739704 -0.292778 0.266994 
388 1.75469 1.18522 1.72428 0.334976 0 0 0 -0.686788 0.0365557 -0.441764 
315 2.63579 0.314003 1.72365 0.63892 0 0 0 0.0537989 -1.04209 -0.326319 
472 2.09293 0.870484 1.94172 0.448094 0 0 0 0.491653 -0.963519 0.346144 
483 1.82859 0.756591 2.34807 0.493685 0 0 0 0.439325 -0.869963 0.607072 
481 2.18419 0.922709 1.7832 0.441244 0 0 0 0.450415 -0.86574 0.161217 
53 1.96946 0.837119 2.09146 0.454929 0 0 0 0.523502 -1.05338 0.546205 
484 1.5969 0.907433 2.25911 0.443749 0 0 0 0.520571 -1.21085 0.880148 
384 3.3199 -0.642183 2.68997 1.13434 0 0 0 0.46807 -0.689855 0.149525 
79 1.68551 1.09272 1.92022 0.36669 0 0 0 0.137669 -0.882744 -0.419344 
492 1.57913 1.14675 1.92413 0.353495 0 0 0 0.285126 -0.823461 -0.0685192 
102 1.57314 0.883404 2.31387 0.456291 0 0 0 0.432637 -1.15585 0.886011 
353 2.07855 1.26353 2.64018 0.588621 0 0 0 -0.784993 0.435459 -1.26513 
462 2.05822 1.16866 1.5 0.374841 0 0 0 -1.12478 -0.441415 -0.00749822 
366 3.18681 0.394559 3.69956 1.11941 0 0 0 0.427846 -0.058963 0.661253 
89 1.72108 0.843364 2.90214 0.61281 0 0 0 0.333667 0.563442 0.677281 
368 3.28497 -0.261779 3.55747 1.21015 0 0 0 0.427464 -0.424277 0.520474 
369 3.64678 0.246238 3.45704 1.1909 0 0 0 0.608263 -0.163269 0.482314 
378 2.68148 0.57743 2.86987 0.757393 0 0 0 0.589604 0.356559 0.599832 
389 2.14753 0.922807 3.36328 0.790334 0 0 0 0.301159 0.639938 0.697741 
95 1.59937 0.244861 3.84569 0.991728 0 0 0 0.0259917 -0.174654 0.844417 
373 1.65834 -0.0884651 2.8068 0.767135 0 0 0 -0.127114 -0.983993 -0.0239076 
390 2.59699 1.19523 3.71533 0.975798 0 0 0 0.204643 0.334122 0.633323 
86 1.82023 1.15323 3.19897 0.705231 0 0 0 0.238563 0.999398 0.374336 
376 2.3167 1.03752 3.19033 0.758195 0 0 0 0.302527 0.831233 0.474045 
391 3.65086 0.0254017 3.45501 1.22492 0 0 0 0.591516 -0.27621 0.46293 
236 1.54662 0.573467 2.76919 0.603729 0 0 0 0.00794404 -0.614124 0.469201 
379 2.2848 0.0643853 2.74733 0.757385 0 0 0 0.197674 -0.711361 0.263034 
392 3.16307 0.16408 2.91473 0.93311 0 0 0 0.561877 -0.181146 0.368095 
381 3.33651 -0.184167 3.45156 1.17626 0 0 0 0.468458 -0.388442 0.486798 
115 1.62185 0.856731 2.99928 0.635538 0 0 0 0.269723 0.566798 0.738447 
386 3.19116 1.24291 3.66153 1.08252 0 0 0 0.343937 0.202039 0.542283 
97 1.83972 0.614674 2.73122 0.599049 0 0 0 0.34173 -0.192289 0.590654 
385 2.36353 -0.0875446 3.34842 0.945014 0 0 0 0.184306 -0.438183 0.551901 
413 2.04561 3.55204 0.256291 0.937595 0 0 0 0.0167824 0.826877 0.106752 
396 3.29248 3.22369 0.0353783 1.0748 0 0 0 0.396752 0.49032 -0.151131 
417 1.86394 3.11945 -0.421522 0.938949 0 0 0 0.0259714 0.635519 -0.49742 
398 3.25696 2.67494 0.143852 0.921573 0 0 0 0.465724 0.363349 -0.0248064 
418 3.60253 2.06813 -0.0315406 0.979936 0 0 0 0.668178 0.103276 -0.267778 
400 3.51106 2.53616 -0.0693601 1.01263 0 0 0 0.566664 0.207824 -0.261318 
420 1.73365 2.37769 -0.45837 0.80256 0 0 0 0.0173736 0.149958 -0.821965 
414 2.02101 2.40556 -0.00567658 0.688317 0 0 0 0.194018 0.747587 -0.386215 
416 2.84934 3.42507 -0.151612 1.0695 0 0 0 0.207367 0.613223 -0.261566 
404 3.3127 3.00276 -0.201171 1.07257 0 0 0 0.424774 0.366709 -0.332237 
415 3.39605 3.43407 0.0890901 1.15433 0 0 0 0.404611 0.538799 -0.151413 
322 1.89506 1.81395 -0.137587 0.663464 0 0 0 -0.322325 -0.680464 -0.73656 
407 3.49974 1.68272 -0.386594 1.01347 0 0 0 0.577603 0.030134 -0.502838 
408 2.0203 1.93863 -0.607188 0.832007 0 0 0 -0.0249723 -0.176085 -0.869658 
202 2.56613 1.60661 0.174899 0.644144 0 0 0 0.242779 -0.252934 -0.7042 
410 3.59069 2.9862 -0.00985279 1.11005 0 0 0 0.546394 0.338193 -0.221804 
411 1.93646 3.67859 -0.355094 1.08849 0 0 0 -0.0202915 0.765219 -0.418131 
289 2.40057 1.93838 0.244709 0.614265 0 0 0 0.514091 0.450127 -0.390115 
262 1.74618 2.15121 0.27979 0.555169 0 0 0 0.0127002 0.577622 -0.810479 
12 2.05403 1.71887 0.758032 0.438058 0 0 0 1.01305 -0.0352617 -1.31528 
419 2.13204 2.72408 0.899589 0.661814 0 0 0 -0.342932 -0.253332 0.907357 
406 2.42478 3.61753 0.659943 0.970487 0 0 0 -0.0179025 0.633411 0.325809 
5 1.83387 1.60258 1.06898 0.35052 0 0 0 0.518027 -0.0048186 -0.439409 
282 2.10939 1.7138 0.725195 0.451018 0 0 0 1.02953 -0.00761906 -1.22505 
332 2.94216 1.87249 1.48282 0.658016 0 0 0 -1.34666 0.0500357 0.272321 
273 1.97812 2.02246 0.49834 0.505729 0 0 0 0.418126 0.71571 -0.889664 
465 1.55317 1.80293 1.02062 0.352752 0 0 0 0.42334 0.413116 0.116445 
473 2.46735 1.59649 0.66643 0.518463 0 0 0 0.967238 0.00925698 -0.462007 
431 2.32609 2.05447 0.519981 0.56018 0 0 0 0.724029 0.993814 0.163132 
14 1.55419 1.93329 0.828381 0.405068 0 0 0 0.0452495 0.830839 -0.972204 
292 1.85025 1.93216 0.623191 0.458614 0 0 0 0.520161 0.633273 -1.45564 
434 2.75645 2.12254 0.776665 0.640352 0 0 0 0.275892 0.828456 0.97698 
435 2.27548 2.78875 1.36395 0.724151 0 0 0 -1.28377 -1.59759 0.0352946 
449 1.78492 1.65286 1.04032 0.351595 0 0 0 0.619859 0.0966809 -0.444192 
397 2.83484 3.18348 0.751312 0.894632 0 0 0 -0.0119022 0.462728 0.500418 
503 1.69433 1.53293 1.28277 0.296978 0 0 0 0.0868341 0.668197 -1.17541 
439 2.23608 1.68881 0.721609 0.470074 0 0 0 0.997385 -0.149411 -1.01173 
440 3.40613 2.58476 1.18372 0.890003 0 0 0 0.0147945 0.225991 0.341523 
321 3.75635 1.95027 1.30417 0.908668 0 0 0 0.522734 0.204463 0.235068 
442 2.01408 1.55506 0.987736 0.38957 0 0 0 0.846736 -0.376204 -0.680716 
280 3.36552 1.92081 0.844521 0.776137 0 0 0 0.56315 0.495306 0.460944 
409 2.06935 2.09245 1.00961 0.487075 0 0 0 -3.00246 -4.83858 -2.50957 
132 1.60201 2.67399 1.2318 0.59775 0 0 0 -0.89695 -2.87822 -0.34097 
412 3.37692 2.95079 0.915985 0.958068 0 0 0 0.185435 0.35427 0.32906 
467 2.39566 1.70781 0.60756 0.518878 0 0 0 0.911633 0.184891 -0.454083 
475 1.63586 1.75674 1.01821 0.351083 0 0 0 0.571683 0.319975 -0.170195 
297 1.88584 2.11886 0.468262 0.516638 0 0 0 0.269542 0.900448 -0.810864 
258 1.88163 2.0785 0.490079 0.505805 0 0 0 0.292633 0.819109 -0.959222 
21 1.95025 1.79309 0.736981 0.433788 0 0 0 0.834883 0.192544 -1.45165 
155 1.57047 2.57302 1.0308 0.556274 0 0 0 -0.930873 -1.97385 -0.346393 
152 1.64318 3.26844 0.8964 0.775456 0 0 0 0.145038 0.320241 0.577049 
330 3.25835 2.11222 1.26292 0.765143 0 0 0 -0.227421 0.346545 0.517373 
50 2.10971 2.01881 0.461292 0.528914 0 0 0 0.523259 0.76076 -0.524073 
11 1.827 1.65768 0.998587 0.364159 0 0 0 0.725885 0.0561472 -0.479252 
221 3.06293 2.07824 0.893013 0.704359 0 0 0 0.191688 0.675875 0.805535 
74 3.0486 1.89688 0.613143 0.697121 0 0 0 0.733917 0.698599 0.481378 
446 2.36993 1.57697 0.416033 0.551074 0 0 0 0.338336 -0.381269 -0.777637 
395 2.2081 3.17316 0.33281 0.823205 0 0 0 0.0906684 0.789275 0.380121 
259 2.61541 1.55377 0.44752 0.589888 0 0 0 0.615081 -0.134998 -0.48416 
421 3.45212 3.42163 0.546131 1.11866 0 0 0 0.356757 0.514225 0.0955152 
454 1.56663 1.58655 1.31648 0.280873 0 0 0 0.559222 0.530559 -1.02837 
46 1.85724 1.59487 1.06018 0.354942 0 0 0 0.538925 -0.0521379 -0.419228 
342 1.94864 1.51663 1.09143 0.362945 0 0 0 0.365473 -0.24799 -0.31167 
468 1.84503 1.61503 1.04262 0.356902 0 0 0 0.604883 -0.0199315 -0.43555 
3 1.71465 1.71188 1.01633 0.352868 0 0 0 0.641634 0.223039 -0.361707 
305 1.96778 2.68477 0.388919 0.661759 0 0 0 0.24333 1.21748 0.507558 
197 2.25483 2.3121 0.348903 0.622003 0 0 0 0.537106 1.2149 0.278975 
405 2.37908 2.74231 0.381578 0.727046 0 0 0 0.265636 0.92237 0.602325 
401 2.75365 3.61333 0.332402 1.03903 0 0 0 0.11552 0.715404 0.107317 
13 1.55311 1.67705 1.20137 0.307977 0 0 0 0.785065 0.491382 -0.794872 
387 2.43188 1.68886 2.17908 0.610112 0 0 0 -3.33282 -1.77746 -2.95773 
482 2.51487 2.75821 2.04879 0.82688 0 0 0 -1.56781 -1.33391 -0.988798 
463 2.97195 2.60116 1.62743 0.81833 0 0 0 -1.07682 -0.446853 -0.0860672 
394 2.64217 1.6578 2.44452 0.691167 0 0 0 -1.51712 -0.0734292 -1.2725 
319 3.26547 1.82336 1.59356 0.744787 0 0 0 -0.412134 0.388306 0.342373 
500 3.11263 2.32837 2.11933 0.848981 0 0 0 -0.956588 -0.383036 -0.424589 
487 2.72994 2.14151 2.33655 0.768559 0 0 0 -1.73831 -0.883152 -1.2384 
502 2.94167 3.12339 2.45847 1.05466 0 0 0 -0.570345 -0.288427 -0.388152 
499 3.04773 2.90835 2.59199 1.0427 0 0 0 -0.53231 -0.292061 -0.370322 
429 3.27854 2.24372 1.5145 0.807218 0 0 0 -0.495944 0.0821241 0.239959 
504 1.83955 1.98447 2.30358 0.597541 0 0 0 -3.80798 -5.34129 -5.67713 
383 3.18367 1.5004 2.61693 0.827667 0 0 0 -0.0344038 0.389498 0.0164096 
99 1.58531 1.59037 3.49474 0.813438 0 0 0 0.149987 0.619358 0.283839 
382 2.94579 1.66321 3.32612 0.956236 0 0 0 0.0216747 0.23122 0.173934 
374 2.17945 1.70019 3.15936 0.782231 0 0 0 -0.408987 0.359928 -0.575198 
367 2.15103 1.73257 3.16271 0.783979 0 0 0 -0.42741 0.315497 -0.617729 
512 1.68194 3.18104 2.91328 0.986985 0 0 0 -0.181816 -0.379584 -0.49141 
498 3.03601 3.15207 3.07828 1.20085 0 0 0 -0.264351 -0.14053 -0.154727 
508 2.36175 2.26392 2.93277 0.848651 0 0 0 -1.00143 -0.572074 -1.04115 
488 2.76679 3.03524 3.02365 1.10813 0 0 0 -0.447068 -0.241914 -0.294047 
100 1.61345 1.74365 3.65538 0.886142 0 0 0 0.0867507 0.432681 0.364277 
245 1.53525 1.87342 3.55191 0.862727 0 0 0 0.113813 0.405979 0.174807 
ITEM: TIMESTEP
740923
ITEM: NUMBER OF ATOMS
512
ITEM: BOX BOUNDS ss ss ss
-8.1988304040437454e-01 3.8875120101141034e+00
-9.7693552394909078e-01 3.9476017366228966e+00
-9.1281994132074906e-01 3.9096273972560476e+00
ITEM: ATOMS id x y z width_SPH x_COM y_COM z_COM vx vy vz 
263 1.46291 0.886581 -0.255334 0.797052 0 0 0 -0.184377 0.0652832 0.617678 
403 1.47176 1.28213 -0.572767 0.836229 0 0 0 -0.296149 -0.417892 -0.281595 
25 0.482327 0.121034 0.00277771 1.02263 0 0 0 0.431087 0.529142 0.569947 
279 1.31897 1.03444 -0.484999 0.850875 0 0 0 -0.189047 -0.165804 0.106898 
402 1.48863 1.32749 -0.648029 0.856462 0 0 0 -0.281498 -0.409929 -0.42181 
16 0.283972 0.665586 0.148023 0.902202 0 0 0 0.586631 0.592041 0.780383 
8 0.548853 0.851568 0.116526 0.825727 0 0 0 0.734534 0.682667 1.15153 
131 1.20625 1.40834 0.666101 0.517576 0 0 0 4.80272 6.68745 7.38608 
217 -0.458207 1.32446 1.07566 0.827559 0 0 0 -0.140187 -0.412272 -0.139885 
2 -0.191092 0.578919 0.378227 0.976754 0 0 0 0.269504 0.355315 0.381156 
24 0.947323 0.538088 0.655922 0.732026 0 0 0 1.69015 2.78541 2.58778 
129 -0.027237 1.21936 0.47187 0.80915 0 0 0 0.465007 -0.111316 0.504378 
224 -0.038169 1.2323 1.0979 0.718725 0 0 0 1.00097 -0.0777334 0.26725 
78 0.717497 0.416299 1.446 0.6843 0 0 0 2.08617 2.94757 0.725933 
67 0.0566827 0.17071 1.35969 0.867432 0 0 0 0.64689 0.692242 0.00586298 
22 1.10962 0.782271 0.476554 0.689881 0 0 0 1.54631 2.71465 3.19784 
125 0.0919242 1.14992 0.334151 0.817636 0 0 0 0.529079 0.0432074 0.639753 
10 0.362735 0.340211 0.337059 0.920789 0 0 0 0.743295 0.865792 0.897135 
68 -0.629259 1.10997 1.49533 0.872301 0 0 0 -0.401461 -0.268308 -0.303178 
116 -0.467664 -0.224839 2.43602 1.06883 0 0 0 -0.510442 -0.413944 -0.0581822 
39 1.33122 1.26246 1.96204 0.349429 0 0 0 -0.248161 -0.392602 0.562129 
57 -0.13659 -0.184233 1.60661 0.978298 0 0 0 0.0863202 0.0850651 -0.196871 
111 1.4786 0.661637 1.9495 0.479298 0 0 0 3.06073 4.57993 2.61111 
59 0.836227 1.31492 2.27398 0.45913 0 0 0 -1.05517 -0.0553178 0.985047 
183 0.484312 1.33661 2.61272 0.586946 0 0 0 -0.675405 -0.0650164 0.47969 
80 1.06797 1.32418 2.08948 0.394891 0 0 0 -0.907283 0.0277926 0.82129 
103 -0.666452 -0.19285 2.21681 1.11079 0 0 0 -0.54171 -0.319409 -0.0821337 
63 -0.481046 0.33577 1.67077 0.939106 0 0 0 -0.201747 0.0269384 -0.274232 
64 0.692283 1.25102 1.95542 0.468136 0 0 0 1.81265 3.52148 2.44696 
65 1.41229 1.12562 2.09167 0.384754 0 0 0 0.113481 -1.0784 0.468898 
66 0.536327 -0.153293 1.5622 0.845277 0 0 0 0.649462 0.683624 -0.164167 
27 1.41506 1.3286 1.80373 0.30963 0 0 0 -0.411477 -0.393474 1.39416 
343 1.489 1.48457 1.52633 0.252367 0 0 0 0.0620338 0.089093 -0.0237574 
69 0.578504 1.29327 2.42893 0.533075 0 0 0 -0.969965 -0.283523 0.404163 
82 0.156006 0.760124 1.618 0.699973 0 0 0 1.16235 0.80001 -0.32526 
71 0.319328 -0.0268574 1.59758 0.843493 0 0 0 0.618249 0.613304 -0.223018 
509 1.47935 1.4766 1.54574 0.254225 0 0 0 0.18243 0.0867318 -0.118271 
226 0.739716 1.28996 2.43124 0.504121 0 0 0 -0.860222 -0.174972 0.697965 
511 1.41956 1.17051 2.0196 0.366045 0 0 0 0.0942112 -0.908485 0.29734 
118 0.968935 0.167088 2.50851 0.690238 0 0 0 -0.380106 -0.897099 -0.669422 
26 1.04232 1.47276 1.91231 0.366376 0 0 0 -0.425453 0.305407 0.348213 
77 0.568462 0.474334 2.28658 0.658596 0 0 0 -0.193251 -0.487496 -0.883525 
92 0.627969 -0.707379 2.33072 0.983502 0 0 0 -0.0562693 -0.633967 -0.231832 
107 0.249773 0.442634 2.19694 0.724251 0 0 0 -0.0884509 -0.275261 -0.803415 
122 1.04947 0.384891 2.37966 0.613129 0 0 0 -0.287013 -0.858508 -0.73637 
94 1.18309 0.612657 2.42577 0.545585 0 0 0 -0.173051 -1.01255 -0.0158263 
247 0.952662 1.10213 2.48174 0.497489 0 0 0 -0.611915 -0.522912 0.847323 
73 1.44161 0.794425 2.54929 0.516407 0 0 0 0.0603246 -0.778565 0.685099 
87 0.756027 0.283348 2.07373 0.669735 0 0 0 0.352355 0.328746 -0.886046 
84 -0.667112 1.05545 2.40896 0.90283 0 0 0 -0.847638 -0.267153 -0.180989 
507 1.18214 1.13119 2.24891 0.425773 0 0 0 -0.485965 -0.575599 1.24116 
169 1.39493 0.991788 2.28374 0.436529 0 0 0 0.17487 -1.07736 1.11078 
85 0.770574 -0.606568 1.99597 0.927264 0 0 0 0.0904898 -0.341434 -0.356416 
371 1.36018 0.868781 2.51445 0.50015 0 0 0 -0.0254316 -0.82095 0.806115 
448 0.609049 1.28911 1.89858 0.483817 0 0 0 1.71743 3.1672 1.99175 
328 0.993114 0.774313 2.21877 0.511072 0 0 0 0.604079 0.591749 0.631524 
112 0.973446 1.266 2.2244 0.433463 0 0 0 -0.947361 -0.0536108 1.19682 
40 0.542461 1.29074 2.42961 0.540922 0 0 0 -0.994449 -0.331653 0.322492 
496 1.48486 1.48105 1.5348 0.253068 0 0 0 0.119649 0.0927765 -0.0759775 
42 1.22245 1.29781 2.00116 0.362853 0 0 0 -0.557002 -0.188503 0.501324 
237 1.1156 1.25582 2.14126 0.402225 0 0 0 -0.810506 -0.183987 0.983468 
494 1.38749 1.1901 2.0175 0.364349 0 0 0 -0.0149754 -0.800974 0.357451 
181 0.316493 1.14152 2.56082 0.627439 0 0 0 -0.957819 -0.732103 -0.0855242 
81 -0.121096 -0.621647 2.09638 1.08734 0 0 0 -0.196988 -0.422691 -0.131276 
83 1.18469 -0.506692 2.52987 0.870697 0 0 0 -0.142382 -0.821286 -0.309917 
232 0.998003 1.01239 2.54917 0.515987 0 0 0 -0.467529 -0.616704 0.77106 
93 -0.508156 0.844906 2.0297 0.851666 0 0 0 -0.540492 -0.298775 -0.444171 
61 1.51203 0.35994 1.94817 0.566528 0 0 0 0.58958 1.39728 -0.113116 
349 1.50386 -0.381648 1.57126 0.808644 0 0 0 -0.129195 0.234011 -0.291423 
253 1.16405 1.08585 2.39571 0.460852 0 0 0 -0.611553 -0.906951 0.937566 
193 -0.727535 1.42163 1.55279 0.877438 0 0 0 -0.696306 -0.372883 -0.303482 
506 1.46209 1.27674 1.83872 0.32002 0 0 0 -0.221805 -0.63775 0.942596 
44 -0.248211 1.37175 1.89731 0.712936 0 0 0 -0.59907 -0.717593 -0.652024 
32 1.23784 1.37168 1.88979 0.337001 0 0 0 -0.417935 -0.0102044 0.780523 
493 1.20601 1.42553 1.84334 0.3313 0 0 0 -0.251537 0.0107936 0.833802 
9 1.40197 1.32544 1.82114 0.31367 0 0 0 -0.524718 -0.595526 1.18559 
218 1.31592 1.40023 1.78919 0.309645 0 0 0 -0.538591 -0.470996 1.28634 
200 -0.243776 1.45153 1.90837 0.706233 0 0 0 -0.689919 -0.735869 -0.614252 
486 1.31685 1.26323 1.98201 0.354058 0 0 0 0.423027 0.775558 1.34791 
98 0.192036 0.505962 2.67417 0.762685 0 0 0 -0.547783 -0.679281 -0.319416 
113 1.36474 -0.767763 2.84603 0.993322 0 0 0 -0.0519206 -0.877645 0.0551705 
114 -0.662825 0.667391 3.0988 1.0467 0 0 0 -0.730321 -0.208074 0.29216 
108 0.827863 -0.375053 3.19939 0.967031 0 0 0 -0.179663 -0.683322 0.269358 
163 0.568714 0.925244 2.79804 0.64597 0 0 0 -0.628989 -0.714744 0.303363 
60 0.824462 1.36373 3.15258 0.691635 0 0 0 0.333327 0.629439 0.835944 
117 0.983522 0.117894 3.70191 0.978822 0 0 0 -0.129102 -0.308782 0.718544 
51 0.407862 1.42257 2.78813 0.642073 0 0 0 -0.34657 0.249815 0.656797 
88 1.42973 0.53892 3.62921 0.869881 0 0 0 0.00637703 0.0152784 0.894934 
109 -0.521013 -0.195169 3.25588 1.19582 0 0 0 -0.575231 -0.438262 0.393263 
90 -0.819601 0.596003 2.78624 1.05283 0 0 0 -0.798697 -0.216513 0.112032 
91 0.794653 1.1685 3.90935 0.962246 0 0 0 -0.00640092 0.133376 0.951543 
227 1.33614 1.35545 2.76353 0.562283 0 0 0 -0.0937048 0.239798 -0.637926 
438 0.692847 1.45415 3.02108 0.665651 0 0 0 0.310328 0.681429 0.831911 
119 0.71981 0.0526545 3.43824 0.932513 0 0 0 -0.230067 -0.438123 0.511964 
430 1.20336 0.667924 2.80487 0.606697 0 0 0 -0.284917 -0.688806 0.484946 
96 1.21336 -0.443191 3.49594 1.03712 0 0 0 -0.0580998 -0.627555 0.498002 
121 -0.478887 0.852544 3.15732 0.981835 0 0 0 -0.686109 -0.196813 0.337558 
110 0.000524067 -0.178573 2.91004 0.989035 0 0 0 -0.415645 -0.54574 0.095086 
120 -0.757155 1.33216 2.86286 0.982961 0 0 0 -0.855524 -0.063855 0.192639 
104 0.101175 -0.598311 3.21263 1.14764 0 0 0 -0.345981 -0.642433 0.341683 
101 0.537342 0.503473 3.11842 0.78634 0 0 0 -0.405484 -0.52552 0.336936 
238 1.23272 1.23413 2.83499 0.574663 0 0 0 0.182208 0.586812 0.304304 
123 -0.316989 2.86792 -0.691708 1.18977 0 0 0 -0.540328 0.329789 -0.659809 
159 0.397828 3.05214 -0.625389 1.0548 0 0 0 -0.285713 0.503074 -0.690768 
142 1.18785 3.8051 -0.0596196 1.05791 0 0 0 -0.106355 0.892005 -0.316693 
126 -0.541277 3.21742 0.184408 1.10844 0 0 0 -0.644959 0.551736 -0.319688 
127 0.805509 2.06303 -0.83209 0.949856 0 0 0 -0.27055 -0.262301 -0.886173 
158 0.896473 2.14782 -0.502465 0.825354 0 0 0 -0.343738 -0.410898 -0.874043 
143 -0.162427 2.5139 -0.788992 1.13562 0 0 0 -0.507461 0.116801 -0.735174 
149 1.11663 2.1868 -0.912542 0.958571 0 0 0 -0.152829 -0.11596 -0.939865 
151 1.36322 3.36622 0.288898 0.844526 0 0 0 0.0302191 0.959202 0.0450319 
274 1.33477 2.01644 -0.0268106 0.636672 0 0 0 -0.366983 -0.743751 -0.663825 
157 0.0134414 1.64299 0.12894 0.821071 0 0 0 -0.211084 -0.666833 -0.103385 
156 -0.60903 1.93331 -0.650128 1.19062 0 0 0 -0.599131 -0.066017 -0.549849 
130 0.986169 2.15088 0.267688 0.593016 0 0 0 -0.52492 -0.340188 -0.634981 
148 0.698615 1.49458 -0.23256 0.791592 0 0 0 -0.0750056 -0.610809 0.0774455 
137 -0.708165 2.86988 0.246398 1.07808 0 0 0 -0.787201 0.323147 -0.310871 
138 0.424974 2.62752 -0.593784 0.963034 0 0 0 -0.356587 0.18212 -0.803829 
141 0.160027 1.997 -0.415261 0.9144 0 0 0 -0.476539 -0.434291 -0.672639 
140 0.862148 2.60215 -0.809089 0.97976 0 0 0 -0.192266 0.196973 -0.875598 
443 1.31897 2.0852 0.116073 0.599077 0 0 0 -0.363287 -0.428229 -0.737772 
444 1.48154 2.23981 0.0627792 0.620903 0 0 0 -0.259599 0.134107 -0.787035 
136 1.03226 1.89169 0.22151 0.597171 0 0 0 -0.148959 -0.793373 0.0688173 
268 1.46275 2.00807 0.113329 0.589762 0 0 0 -0.280103 -0.513213 -0.711744 
146 0.824172 2.05113 0.25374 0.615594 0 0 0 -0.451142 -0.790448 -0.37934 
180 0.81632 2.50706 0.78962 0.565315 0 0 0 -0.421955 1.23138 -0.299279 
190 0.821833 3.29161 1.17402 0.773675 0 0 0 0.338239 0.751381 0.367147 
178 -0.546738 3.08541 1.13917 0.974061 0 0 0 -0.646006 0.581686 -0.0204829 
220 0.899062 2.23256 1.45455 0.460903 0 0 0 -1.92833 -2.5727 -1.96271 
189 1.01701 2.26105 0.814593 0.487554 0 0 0 -0.9475 1.11261 -0.60634 
165 1.04879 2.30438 0.745463 0.502537 0 0 0 -0.824527 1.15653 -0.661765 
128 1.38577 3.34334 1.25181 0.793524 0 0 0 0.238307 -0.0104498 0.379267 
185 0.700689 3.36968 1.30718 0.807799 0 0 0 0.306458 0.749864 0.317388 
168 0.779366 2.05426 1.00596 0.471617 0 0 0 -0.205672 1.53636 0.70637 
186 -0.767701 1.72336 0.481581 0.983531 0 0 0 -0.740621 -0.285023 -0.211622 
170 0.556738 2.28227 0.547177 0.609207 0 0 0 -0.639383 -0.127237 -0.555089 
171 0.28459 3.56153 0.91582 0.929538 0 0 0 -0.124092 0.922002 0.0251845 
175 -0.673995 2.64647 1.34235 0.922316 0 0 0 -0.838141 0.285614 -0.0589363 
124 0.946508 2.13446 1.0301 0.448062 0 0 0 -1.0335 1.02047 -0.156153 
187 -0.341978 2.06187 0.381156 0.853133 0 0 0 -0.73262 -0.502034 -0.361213 
134 1.44029 2.99976 0.715264 0.686527 0 0 0 0.23759 0.772243 0.575627 
198 1.10453 2.48524 1.32487 0.519687 0 0 0 -1.07331 -2.52526 -1.23763 
426 1.5256 1.8097 1.03415 0.350829 0 0 0 0.374207 0.39945 0.236469 
147 1.22188 1.92069 1.15987 0.365564 0 0 0 -0.682261 -0.613701 0.426748 
133 1.04449 2.31189 0.324238 0.588104 0 0 0 -0.518628 0.36554 -0.734244 
188 0.398826 2.22612 0.467427 0.652193 0 0 0 -0.608866 -0.528078 -0.525433 
20 1.40122 1.64925 1.36986 0.284342 0 0 0 1.58819 -0.490913 -0.210551 
216 -0.0737843 2.3515 1.33666 0.682758 0 0 0 -0.676857 0.162963 -0.233 
206 -0.717444 1.91108 1.19378 0.879574 0 0 0 -0.880897 -0.36704 -0.250315 
154 -0.280093 3.20781 0.526564 0.978401 0 0 0 -0.533181 0.672502 -0.188904 
144 1.30246 2.01088 0.91294 0.40762 0 0 0 -0.672809 1.05429 -0.238372 
423 1.18172 2.03444 0.977321 0.411243 0 0 0 -0.851277 1.06119 0.0834648 
135 -0.226257 3.1214 0.41025 0.958212 0 0 0 -0.53565 0.632108 -0.24713 
192 0.52969 2.18854 0.465832 0.623396 0 0 0 -0.589934 -0.541665 -0.501809 
194 0.171574 2.21542 0.651665 0.670492 0 0 0 -0.636071 -0.568318 -0.480118 
196 0.990083 2.8906 1.10309 0.640602 0 0 0 0.38819 0.633291 0.419029 
203 0.532323 2.55462 0.541048 0.655196 0 0 0 -0.461069 0.623881 -0.448617 
150 1.4106 1.88559 0.988785 0.370977 0 0 0 2.87026 5.4598 3.78817 
214 -0.0711043 1.80495 0.791839 0.711169 0 0 0 -0.190221 -1.00772 -0.172919 
425 1.42104 1.95119 0.905402 0.394392 0 0 0 -0.268462 0.944467 -0.30223 
48 0.228419 2.29403 0.623418 0.667392 0 0 0 -0.652818 -0.340642 -0.509608 
162 1.52738 1.51565 1.44983 0.254791 0 0 0 -0.400386 0.113546 0.320298 
177 0.870212 1.99607 1.31465 0.416627 0 0 0 -0.427976 0.91707 0.358984 
139 0.90101 3.94732 0.7486 1.02061 0 0 0 -0.0239439 0.908767 -0.0296429 
461 1.38949 1.75363 1.23162 0.316837 0 0 0 0.7887 0.0389468 0.353194 
210 0.261607 2.17599 0.847562 0.616 0 0 0 -0.59457 -0.510738 -0.434906 
480 1.02343 2.02374 1.13293 0.40987 0 0 0 -0.663936 0.947565 0.473096 
28 1.05077 1.83854 1.40401 0.360317 0 0 0 0.745438 0.122635 0.746329 
489 0.558849 2.27473 1.21427 0.519895 0 0 0 -0.639988 0.853564 -0.177995 
4 1.22246 1.72084 1.42293 0.315212 0 0 0 1.31353 -0.333593 0.538906 
19 1.14083 2.47427 0.428789 0.585362 0 0 0 -0.345416 1.1018 -0.529056 
336 0.479583 2.3743 1.1893 0.555288 0 0 0 -0.451911 0.940799 -0.147879 
469 1.04049 2.01732 1.12836 0.40697 0 0 0 -0.641491 0.936184 0.520198 
308 0.417191 2.38389 1.20765 0.568909 0 0 0 -0.42199 0.882991 -0.144401 
15 1.22459 1.8628 1.21614 0.350381 0 0 0 0.329914 0.109369 1.24198 
424 1.33272 2.62685 0.397186 0.618372 0 0 0 -0.0725336 1.29739 -0.162092 
7 1.37249 2.12816 0.709257 0.457163 0 0 0 -0.584461 1.11294 -1.16691 
174 1.2968 1.80757 1.23499 0.332178 0 0 0 0.573378 -0.124981 0.946162 
6 1.09487 1.81937 1.3936 0.350536 0 0 0 0.886017 -0.0218136 0.820331 
458 0.509347 2.15864 1.40969 0.503692 0 0 0 -0.692622 0.732822 -0.0556002 
433 1.53015 1.83937 0.985043 0.363365 0 0 0 0.317661 0.587876 0.0927607 
437 1.46749 2.04177 0.748692 0.434925 0 0 0 -0.336954 1.01714 -1.23224 
153 1.27973 1.81894 1.23334 0.335817 0 0 0 0.53177 -0.101241 1.03824 
286 1.4825 2.0299 0.753364 0.432214 0 0 0 -0.289542 0.99659 -1.23857 
195 0.960329 1.93965 1.32813 0.392723 0 0 0 -0.00406576 0.669694 0.653869 
399 1.51634 1.93623 0.866631 0.397935 0 0 0 -0.429356 0.220163 -1.13856 
354 0.503407 2.10106 1.49637 0.495894 0 0 0 -0.740906 0.714469 0.0203691 
372 1.50624 1.49957 1.49053 0.251512 0 0 0 -0.213038 0.0451185 0.264174 
164 0.232472 1.81996 1.47903 0.555413 0 0 0 -0.187008 -0.251078 -0.150829 
17 1.50459 1.49817 1.49392 0.251439 0 0 0 -0.188123 0.0475522 0.240288 
52 0.95389 1.86577 1.44847 0.38025 0 0 0 0.395614 0.462915 0.49051 
145 0.944091 3.68324 0.319778 0.96203 0 0 0 -0.0697308 0.942553 -0.136523 
256 0.558343 2.11604 1.73864 0.496383 0 0 0 -0.760077 0.519793 0.0906628 
495 1.0431 1.64388 1.68229 0.346147 0 0 0 0.726528 0.284293 0.134404 
248 0.868775 1.56291 1.93386 0.401685 0 0 0 -0.733983 0.724674 0.574548 
43 0.148918 2.3144 1.81884 0.623844 0 0 0 -0.186888 0.90661 0.491377 
76 0.906796 1.57912 1.88406 0.389082 0 0 0 -0.517894 0.646476 0.347159 
450 0.854474 1.64818 1.83469 0.397158 0 0 0 -0.471384 0.83282 0.328223 
166 1.19152 3.39112 1.71318 0.833435 0 0 0 0.311546 -0.187256 0.0848125 
70 0.975132 2.32044 2.3029 0.60875 0 0 0 0.374594 -1.55705 -1.46665 
199 -0.163993 2.48214 2.51656 0.815896 0 0 0 -0.221948 0.75176 0.499429 
223 -0.313714 3.51999 2.20263 1.0656 0 0 0 -0.34299 0.730771 0.185301 
201 -0.0323008 3.0138 1.68138 0.815642 0 0 0 -0.0812548 0.978489 0.267422 
243 0.900446 2.03172 2.39421 0.562174 0 0 0 0.102793 -1.11855 -1.35639 
191 0.402009 2.14629 2.61255 0.667712 0 0 0 0.537624 1.16212 0.686847 
204 0.494256 3.8316 2.13436 1.03918 0 0 0 0.0831398 0.663351 0.133758 
49 0.769415 1.87248 1.59107 0.417373 0 0 0 -0.38789 1.00492 0.29494 
160 0.914957 1.82328 1.54462 0.382719 0 0 0 0.27653 0.470729 0.188021 
207 0.786914 2.75748 2.50756 0.754782 0 0 0 0.726065 0.14229 -0.116912 
208 1.03097 2.39108 1.63944 0.518085 0 0 0 -1.29705 -4.15711 -2.32242 
209 0.529451 2.2009 1.58261 0.507848 0 0 0 -0.583083 0.778418 0.0884078 
447 0.197365 2.26426 2.14673 0.639123 0 0 0 0.0858376 1.11297 0.777306 
211 0.711174 3.69219 1.79547 0.94362 0 0 0 0.228626 0.561481 0.152205 
212 0.655035 3.28581 1.83326 0.812311 0 0 0 0.469042 0.508445 0.273238 
213 0.0678185 3.4769 2.25792 0.980742 0 0 0 -0.0320853 0.748345 0.229388 
490 1.46129 1.49804 1.53103 0.253854 0 0 0 1.29207 -0.710991 0.128551 
215 0.794995 3.88392 2.27497 1.06153 0 0 0 0.148999 0.502802 0.0716998 
184 1.5004 1.49456 1.50257 0.251402 0 0 0 -0.121563 0.0574194 0.17167 
55 0.266686 2.26506 1.5319 0.57451 0 0 0 -0.404389 0.671141 0.0856532 
505 0.361108 1.60465 2.26192 0.548763 0 0 0 -0.983666 0.180581 0.294842 
255 1.2108 2.61046 2.1765 0.668953 0 0 0 0.0488641 -2.3193 -1.57557 
479 0.0168434 2.36862 2.04038 0.686488 0 0 0 -0.169974 0.920353 0.58309 
173 -0.124537 1.9162 1.83532 0.65983 0 0 0 -0.837734 -0.402933 -0.215183 
318 0.349866 1.78873 2.07953 0.534863 0 0 0 -0.898975 0.413718 0.360436 
54 0.430613 1.94054 1.8001 0.502881 0 0 0 -0.875844 0.602242 0.284634 
34 0.259991 2.18277 1.85538 0.577332 0 0 0 -0.275802 0.845175 0.514637 
172 0.165961 2.12749 1.58858 0.582574 0 0 0 -0.604284 0.131403 -0.0735057 
229 1.08131 2.33348 2.53378 0.661703 0 0 0 0.49746 -1.0524 -1.40602 
234 1.0441 1.64647 1.67795 0.345827 0 0 0 0.744975 0.277181 0.135946 
252 1.15751 1.61768 1.62228 0.318147 0 0 0 1.064 -0.250442 0.524704 
235 1.04833 1.62 1.71022 0.345715 0 0 0 0.626158 0.28915 0.162517 
29 0.843072 1.72179 1.74557 0.396695 0 0 0 -0.258727 0.877833 0.216127 
513 0.660685 1.56778 2.09005 0.460315 0 0 0 -1.2027 0.513735 0.742807 
241 1.0601 1.60521 1.72045 0.343451 0 0 0 0.600776 0.255521 0.20728 
38 0.320512 1.75881 2.2745 0.56625 0 0 0 -0.693038 0.511572 0.471382 
35 0.252081 1.7616 2.40265 0.603927 0 0 0 -0.543895 0.556814 0.510721 
30 0.500202 1.66023 2.12088 0.499533 0 0 0 -1.10753 0.44083 0.496584 
239 -0.586856 2.64442 2.57886 0.974141 0 0 0 -0.57716 0.458323 0.298069 
233 0.904606 1.60663 1.8497 0.386762 0 0 0 -0.39913 0.669478 0.256718 
75 0.829562 1.66229 1.83748 0.40314 0 0 0 -0.564066 0.867489 0.365775 
219 1.50021 1.49439 1.50297 0.251406 0 0 0 -0.118385 0.0579781 0.168269 
167 1.50039 1.49455 1.50259 0.251402 0 0 0 -0.121425 0.0574435 0.171522 
466 1.5002 1.49438 1.503 0.251406 0 0 0 -0.118156 0.0580185 0.168024 
471 1.50021 1.49439 1.50297 0.251406 0 0 0 -0.118429 0.0579703 0.168315 
36 1.50028 1.49445 1.50282 0.251404 0 0 0 -0.119604 0.0577635 0.169574 
278 1.50195 1.49591 1.49935 0.251391 0 0 0 -0.146707 0.0532401 0.198236 
37 1.50088 1.49498 1.50157 0.251396 0 0 0 -0.129476 0.056123 0.180006 
58 1.50159 1.49559 1.50011 0.251391 0 0 0 -0.140963 0.054248 0.192095 
47 1.07813 1.7557 1.4997 0.343426 0 0 0 1.02047 -0.136264 0.34776 
477 1.50167 1.49566 1.49993 0.251391 0 0 0 -0.142183 0.0539584 0.193504 
355 1.50134 1.49537 1.50063 0.251392 0 0 0 -0.136794 0.0548344 0.187838 
334 1.50104 1.49511 1.50125 0.251394 0 0 0 -0.131892 0.0556494 0.182658 
476 1.50097 1.49505 1.50139 0.251395 0 0 0 -0.13082 0.0558299 0.181522 
179 1.50088 1.49498 1.50157 0.251396 0 0 0 -0.129412 0.0560679 0.18003 
222 1.50059 1.49472 1.50219 0.251399 0 0 0 -0.124574 0.0568963 0.174883 
302 1.50065 1.49478 1.50205 0.251398 0 0 0 -0.125661 0.0567088 0.176041 
176 1.50066 1.49478 1.50204 0.251398 0 0 0 -0.125721 0.0566985 0.176106 
225 0.922812 2.39726 3.41235 0.888289 0 0 0 0.373681 0.377046 0.311803 
106 0.302739 2.02715 3.35324 0.857243 0 0 0 0.120799 0.569732 0.780087 
249 -0.498565 2.47088 2.81672 0.959175 0 0 0 -0.536677 0.431533 0.394134 
228 -0.10866 3.23446 3.60258 1.22453 0 0 0 -0.281617 0.494551 0.579491 
254 -0.486124 2.76307 3.51221 1.1744 0 0 0 -0.471132 0.385438 0.584953 
230 0.506969 3.71141 2.99961 1.13779 0 0 0 0.0269084 0.555032 0.264741 
231 0.569904 2.2762 3.57918 0.93509 0 0 0 0.214655 0.457937 0.686153 
242 0.54418 2.40528 3.25164 0.856904 0 0 0 0.388566 0.60596 0.516857 
246 -0.356557 2.01124 3.52012 1.04153 0 0 0 -0.460413 0.227394 0.669546 
464 0.277932 1.66567 2.73315 0.660818 0 0 0 -0.25318 0.60074 0.673435 
205 0.789511 1.62298 3.04757 0.674939 0 0 0 0.588816 0.903131 0.639763 
251 0.368726 3.45848 3.03809 1.07462 0 0 0 0.0473344 0.574849 0.331774 
105 -0.172737 1.52945 3.72937 1.04181 0 0 0 -0.383873 0.0755028 0.777714 
250 0.796416 3.13054 3.39931 1.05193 0 0 0 0.168009 0.346726 0.318566 
244 1.25516 2.37352 3.45389 0.901675 0 0 0 0.225143 0.19423 0.0630387 
240 -0.316581 3.69299 3.40911 1.33894 0 0 0 -0.398561 0.574303 0.443196 
257 3.62638 1.21803 -0.278454 1.02738 0 0 0 0.662278 -0.095947 -0.447612 
441 1.86625 1.15928 0.0293958 0.661003 0 0 0 -0.675366 -0.369654 0.601605 
288 3.67371 0.857919 0.0530689 0.991896 0 0 0 0.717081 -0.235565 -0.334336 
260 3.1323 0.827981 -0.60912 1.01911 0 0 0 0.333837 -0.274323 -0.675073 
261 3.52398 -0.100132 0.154677 1.093 0 0 0 0.502732 -0.634782 -0.330566 
276 2.55308 0.780192 -0.320854 0.838317 0 0 0 -0.251421 -0.566769 -0.547731 
427 2.22868 1.08023 0.208779 0.632713 0 0 0 -0.822418 -0.713986 -0.101758 
285 1.77615 0.218846 -0.0315056 0.864555 0 0 0 -0.185594 0.145295 0.51785 
436 2.35115 1.42218 -0.0512756 0.678329 0 0 0 -0.406568 -0.673982 -0.734135 
266 2.66025 0.936349 -0.843431 1.00718 0 0 0 0.0635732 -0.223779 -0.783951 
267 3.03038 0.608847 -0.0398136 0.865184 0 0 0 0.159058 -0.643764 -0.506137 
293 2.10191 1.07614 -0.870532 0.957157 0 0 0 -0.174105 -0.223634 -0.718722 
269 2.55512 0.949696 -0.70689 0.943092 0 0 0 -0.0495121 -0.288861 -0.743541 
270 2.46766 0.612218 -0.432215 0.891631 0 0 0 -0.223501 -0.523994 -0.496711 
271 3.2313 -0.579437 -0.176082 1.23192 0 0 0 0.360723 -0.692767 -0.376342 
272 1.6467 0.823022 0.128517 0.702434 0 0 0 -0.205644 0.701087 1.55331 
284 2.0421 0.324117 -0.432479 0.936212 0 0 0 -0.243771 -0.335197 -0.149024 
290 2.38962 -0.690842 -0.214175 1.17656 0 0 0 0.0652928 -0.547452 -0.230056 
291 3.16122 0.334519 -0.492728 1.06555 0 0 0 0.325714 -0.499023 -0.575628 
294 3.06872 0.327575 0.682207 0.794012 0 0 0 0.101739 -0.942267 -0.433161 
23 1.96011 1.40533 1.23484 0.349079 0 0 0 -0.599665 -0.216967 0.0857811 
453 2.93384 0.913307 1.3622 0.602815 0 0 0 0.732832 -0.100585 0.132433 
18 1.90806 1.36094 1.34067 0.333033 0 0 0 -1.25072 0.013456 0.295502 
298 2.04666 1.34271 1.25147 0.367169 0 0 0 -0.540452 -0.421468 0.078195 
299 2.91921 0.965582 1.15319 0.600936 0 0 0 0.695794 -0.294031 -0.119168 
451 2.12579 1.28904 1.26587 0.385299 0 0 0 -0.254688 -0.637268 -0.0746851 
301 3.70183 0.535434 1.4268 0.900414 0 0 0 0.87913 -0.217181 0.044587 
264 2.45148 0.855523 0.620123 0.597324 0 0 0 -0.523669 -0.843214 -0.416907 
445 2.28054 1.21985 1.24787 0.423473 0 0 0 0.555496 -0.751943 -0.307395 
304 2.19735 1.11986 1.14351 0.431065 0 0 0 2.27638 2.78597 2.37162 
41 2.86421 0.991056 0.872279 0.609247 0 0 0 0.493104 -0.669934 -0.497263 
306 1.99418 1.20525 1.4957 0.358716 0 0 0 -1.55157 -0.174966 0.0557035 
307 2.07218 1.04506 1.19283 0.425464 0 0 0 3.78058 7.11347 5.7154 
277 2.64747 1.39933 0.721803 0.548762 0 0 0 0.848613 -0.164929 -0.410692 
309 3.42368 0.409362 1.28612 0.825457 0 0 0 0.705409 -0.507609 -0.108087 
310 2.04761 -0.00925563 1.06794 0.725922 0 0 0 -0.566249 0.412298 0.0784823 
311 2.88348 1.04322 0.925475 0.602778 0 0 0 0.627622 -0.456744 -0.367902 
341 2.75569 1.06757 0.73325 0.594098 0 0 0 0.363297 -0.793615 -0.668228 
432 2.74186 1.44695 0.883125 0.554673 0 0 0 0.862975 0.249299 0.038878 
161 2.00055 1.43222 1.16425 0.363505 0 0 0 -0.0700707 -0.338499 -0.117132 
182 2.69528 1.32604 0.523275 0.596688 0 0 0 0.459698 -0.519134 -0.62292 
316 2.92723 -0.308193 0.756845 0.924413 0 0 0 0.0547715 -0.866032 -0.307178 
317 3.34937 0.0147872 0.768075 0.9244 0 0 0 0.394666 -0.767708 -0.282435 
275 3.4093 -0.820414 0.709981 1.195 0 0 0 0.430013 -0.788085 -0.184219 
33 2.65971 0.84509 1.48872 0.537874 0 0 0 0.731257 -0.584782 0.0576588 
320 1.86541 0.0375365 0.931904 0.734202 0 0 0 -0.34877 1.0458 0.599279 
72 2.19325 1.16818 1.39318 0.403133 0 0 0 -0.136045 -0.769947 -0.0248376 
265 1.93826 -0.369082 0.732911 0.882173 0 0 0 -0.204907 0.0532913 0.157703 
501 2.42646 1.15684 1.21412 0.460779 0 0 0 0.925083 -0.612942 -0.326158 
56 2.5703 0.702981 0.532523 0.65629 0 0 0 -0.587875 -1.04465 -0.472238 
325 2.33716 1.10413 1.34222 0.440663 0 0 0 0.76138 -0.601356 0.0303886 
287 2.41139 -0.36654 0.555638 0.915706 0 0 0 -0.190774 -0.554736 -0.138715 
327 3.3612 1.249 1.48977 0.729284 0 0 0 0.602845 0.610909 0.465237 
329 1.95981 0.208878 1.1445 0.655282 0 0 0 -0.514367 1.36139 0.567954 
428 2.78133 0.813913 1.48194 0.571738 0 0 0 0.696729 -0.434601 0.0856395 
31 2.45656 0.720503 0.487632 0.649596 0 0 0 -0.729143 -0.862207 -0.283672 
283 1.7857 0.844342 0.90299 0.52991 0 0 0 2.21562 7.11837 5.73019 
326 2.49871 1.10643 1.22628 0.479729 0 0 0 0.917709 -0.587126 -0.275496 
470 3.20795 1.21787 1.38466 0.675381 0 0 0 0.604912 0.650636 0.479881 
313 2.78304 0.837257 1.4233 0.569374 0 0 0 0.688839 -0.46979 0.0304761 
457 1.88293 1.3176 1.42382 0.328053 0 0 0 -1.57493 0.173639 0.325502 
455 2.09929 1.46728 1.04025 0.39674 0 0 0 0.737333 -0.566825 -0.644795 
422 2.35314 1.29626 1.0816 0.446576 0 0 0 1.03418 -0.563899 -0.623686 
456 2.55983 0.341724 1.38463 0.628055 0 0 0 -0.349831 -1.08267 -0.53048 
474 1.85406 1.42 1.30336 0.322764 0 0 0 -0.756481 0.168919 0.00900122 
300 3.62898 -0.222322 1.47508 1.02441 0 0 0 0.628926 -0.628315 -0.0936883 
478 2.35708 1.45326 0.867199 0.466217 0 0 0 1.20521 -0.344466 -0.812711 
340 1.70262 1.43604 1.41147 0.28635 0 0 0 -0.969092 0.607379 -0.388278 
281 1.70783 0.00684642 0.31422 0.851724 0 0 0 -0.0686536 0.525073 0.736441 
333 2.95214 0.625808 2.5762 0.75315 0 0 0 0.713163 0.398761 0.502286 
323 1.96023 1.06256 1.74772 0.382669 0 0 0 -0.57423 -0.518583 -0.531214 
335 2.66603 0.847282 2.44812 0.646095 0 0 0 0.592424 0.832732 0.530727 
491 1.78686 1.17973 1.70549 0.338067 0 0 0 -0.880168 0.1026 -0.515402 
337 2.05362 -0.945729 1.91696 0.99353 0 0 0 -0.0302107 -0.872261 -0.198433 
338 3.03182 0.240143 2.16305 0.772457 0 0 0 0.621379 -0.400497 0.185008 
339 1.79311 0.243032 1.69179 0.597994 0 0 0 -0.162226 1.31186 -0.0847005 
370 1.65925 -0.976657 2.59511 1.0346 0 0 0 -0.00372239 -0.913986 -0.00498945 
452 2.42607 0.244122 1.74988 0.624616 0 0 0 -0.262865 -1.04643 -0.489097 
295 2.09994 0.574209 2.39619 0.559713 0 0 0 0.422629 -0.554898 0.449754 
296 2.19624 1.05236 1.56909 0.416347 0 0 0 0.0524943 -0.767695 0.00160303 
344 2.37282 0.960796 1.94511 0.493171 0 0 0 0.0946152 -0.747933 -0.195037 
345 3.40708 1.06476 2.12278 0.795711 0 0 0 0.617697 0.513854 0.408939 
346 2.01393 0.960266 1.86444 0.41594 0 0 0 0.212439 -0.860853 0.00185084 
364 1.68475 1.12265 1.87405 0.355486 0 0 0 0.0337185 -0.642397 -0.440828 
348 3.88723 1.46543 2.1892 0.984176 0 0 0 0.623094 0.145067 0.180688 
331 2.11756 0.995941 1.72374 0.415843 0 0 0 0.0794925 -0.764484 -0.060267 
350 2.36019 -0.0946102 1.6119 0.719205 0 0 0 -0.476408 -0.847114 -0.611098 
351 1.77258 1.2331 1.64011 0.3237 0 0 0 -1.0618 0.265101 -0.192305 
352 2.46185 0.668521 2.2626 0.582334 0 0 0 0.67636 0.057325 0.582507 
363 2.55574 -0.637629 2.03573 0.923301 0 0 0 0.062626 -0.993202 -0.189407 
45 1.68419 1.14928 1.83489 0.346042 0 0 0 -0.0692596 -0.451126 -0.387147 
365 1.6938 0.222891 2.39009 0.619917 0 0 0 -0.246791 -1.20424 -0.522483 
356 3.26093 1.43479 2.49168 0.819987 0 0 0 0.0771926 0.442797 0.108639 
357 2.16286 1.08649 2.24831 0.502362 0 0 0 -1.19528 -1.2663 -1.34792 
358 2.14803 0.666401 2.60499 0.5953 0 0 0 0.560571 0.181489 0.638767 
359 3.56757 -0.600354 2.2103 1.1353 0 0 0 0.571193 -0.671626 0.0263225 
360 1.95002 0.186185 2.18312 0.617079 0 0 0 -0.299141 -1.06735 -0.548441 
361 2.06205 -0.717434 1.53364 0.91687 0 0 0 -0.165964 -0.667995 -0.288195 
362 2.41713 0.274342 1.96775 0.621373 0 0 0 -0.0196187 -1.05128 -0.266914 
460 1.97017 1.14592 1.60674 0.364134 0 0 0 -1.33178 -0.186155 -0.367917 
303 2.32215 1.05422 1.64055 0.446361 0 0 0 -0.243761 -1.64983 -0.782037 
393 1.97008 -0.328926 2.07152 0.77005 0 0 0 -0.341794 -0.895144 -0.523363 
324 2.45377 0.691626 1.9828 0.539931 0 0 0 0.658945 -0.44722 0.399777 
312 3.14154 1.31988 1.96638 0.699458 0 0 0 -0.0356758 0.799484 0.326152 
375 1.79871 0.918453 2.0944 0.426676 0 0 0 0.572308 -1.16251 0.509297 
459 2.65915 0.457153 1.80806 0.612565 0 0 0 0.36962 -0.819371 -0.0487 
62 1.74291 1.05768 1.9291 0.377706 0 0 0 0.103452 -0.930882 -0.414901 
380 2.33975 0.664182 2.34273 0.573094 0 0 0 0.61434 -0.00924829 0.600914 
485 1.68785 1.16812 1.80446 0.339539 0 0 0 -0.171977 -0.321896 -0.330255 
510 2.07899 0.97913 1.78211 0.415853 0 0 0 0.124175 -0.792052 -0.0556209 
497 1.81804 0.609478 2.48231 0.542851 0 0 0 0.301597 -0.771587 0.409394 
347 1.77136 -0.881266 1.974 0.962735 0 0 0 -0.0895681 -0.786572 -0.24753 
377 3.60723 1.30346 2.5684 0.933682 0 0 0 0.514234 0.272028 0.238894 
314 2.71491 0.746779 1.72331 0.570737 0 0 0 0.739703 -0.292779 0.26699 
388 1.75469 1.18522 1.72428 0.334976 0 0 0 -0.686784 0.0365981 -0.441727 
315 2.63579 0.314002 1.72365 0.63892 0 0 0 0.0537992 -1.04209 -0.326323 
472 2.09293 0.870483 1.94172 0.448094 0 0 0 0.491646 -0.963526 0.346131 
483 1.82859 0.756591 2.34807 0.493685 0 0 0 0.439315 -0.869961 0.607064 
481 2.18419 0.922708 1.7832 0.441245 0 0 0 0.45041 -0.865751 0.161205 
53 1.96946 0.837118 2.09146 0.454929 0 0 0 0.523491 -1.05338 0.546193 
484 1.5969 0.907432 2.25911 0.443749 0 0 0 0.520554 -1.21084 0.880137 
384 3.3199 -0.642184 2.68997 1.13434 0 0 0 0.468069 -0.689855 0.149524 
79 1.68551 1.09272 1.92022 0.366691 0 0 0 0.13766 -0.882708 -0.419328 
492 1.57913 1.14675 1.92413 0.353495 0 0 0 0.285124 -0.823411 -0.0684931 
102 1.57314 0.883403 2.31387 0.456291 0 0 0 0.432622 -1.15585 0.886 
353 2.07855 1.26353 2.64018 0.588621 0 0 0 -0.785003 0.435459 -1.26514 
462 2.05821 1.16866 1.5 0.374841 0 0 0 -1.12478 -0.441407 -0.00749599 
366 3.18681 0.394559 3.69956 1.11941 0 0 0 0.427845 -0.0589629 0.661253 
89 1.72108 0.843364 2.90214 0.61281 0 0 0 0.333664 0.563448 0.67728 
368 3.28497 -0.26178 3.55747 1.21015 0 0 0 0.427463 -0.424278 0.520473 
369 3.64678 0.246237 3.45704 1.1909 0 0 0 0.608262 -0.163269 0.482313 
378 2.68148 0.57743 2.86988 0.757393 0 0 0 0.589602 0.35656 0.59983 
389 2.14753 0.922808 3.36328 0.790334 0 0 0 0.301158 0.639939 0.69774 
95 1.59937 0.244861 3.84569 0.991728 0 0 0 0.025991 -0.174654 0.844416 
373 1.65834 -0.088466 2.8068 0.767135 0 0 0 -0.127115 -0.983994 -0.0239091 
390 2.59699 1.19523 3.71533 0.975798 0 0 0 0.204642 0.334123 0.633322 
86 1.82023 1.15323 3.19897 0.705231 0 0 0 0.238562 0.999401 0.374334 
376 2.3167 1.03752 3.19033 0.758195 0 0 0 0.302526 0.831234 0.474044 
391 3.65086 0.0254014 3.45501 1.22492 0 0 0 0.591516 -0.27621 0.46293 
236 1.54662 0.573466 2.76919 0.60373 0 0 0 0.00793945 -0.614125 0.469199 
379 2.2848 0.0643846 2.74733 0.757385 0 0 0 0.197673 -0.711362 0.263032 
392 3.16307 0.16408 2.91473 0.93311 0 0 0 0.561876 -0.181146 0.368094 
381 3.33651 -0.184168 3.45156 1.17626 0 0 0 0.468457 -0.388442 0.486797 
115 1.62185 0.856731 2.99928 0.635538 0 0 0 0.269721 0.566803 0.738446 
386 3.19116 1.24291 3.66153 1.08252 0 0 0 0.343936 0.20204 0.542283 
97 1.83972 0.614674 2.73122 0.59905 0 0 0 0.341727 -0.192287 0.590653 
385 2.36353 -0.0875451 3.34842 0.945015 0 0 0 0.184305 -0.438183 0.5519 
413 2.04561 3.55204 0.256292 0.937595 0 0 0 0.0167821 0.826877 0.106753 
396 3.29248 3.22369 0.0353781 1.0748 0 0 0 0.396751 0.490319 -0.15113 
417 1.86394 3.11945 -0.421523 0.938949 0 0 0 0.0259711 0.635518 -0.497419 
398 3.25696 2.67494 0.143852 0.921573 0 0 0 0.465723 0.363348 -0.024806 
418 3.60253 2.06813 -0.0315409 0.979937 0 0 0 0.668177 0.103275 -0.267778 
400 3.51106 2.53616 -0.0693603 1.01263 0 0 0 0.566663 0.207823 -0.261318 
420 1.73365 2.37769 -0.458371 0.802561 0 0 0 0.0173727 0.149957 -0.821962 
414 2.02101 2.40556 -0.00567697 0.688317 0 0 0 0.194016 0.747585 -0.386213 
416 2.84934 3.42507 -0.151612 1.0695 0 0 0 0.207367 0.613223 -0.261565 
404 3.3127 3.00276 -0.201171 1.07257 0 0 0 0.424773 0.366708 -0.332237 
415 3.39605 3.43407 0.0890899 1.15433 0 0 0 0.40461 0.538799 -0.151413 
322 1.89506 1.81395 -0.137587 0.663464 0 0 0 -0.322327 -0.680467 -0.736557 
407 3.49974 1.68272 -0.386595 1.01347 0 0 0 0.577602 0.030133 -0.502838 
408 2.0203 1.93863 -0.607189 0.832007 0 0 0 -0.0249733 -0.176086 -0.869656 
202 2.56613 1.60661 0.174898 0.644145 0 0 0 0.242776 -0.252937 -0.7042 
410 3.59069 2.9862 -0.00985302 1.11005 0 0 0 0.546393 0.338192 -0.221804 
411 1.93646 3.6786 -0.355095 1.08849 0 0 0 -0.0202915 0.765218 -0.41813 
289 2.40057 1.93838 0.244709 0.614265 0 0 0 0.514088 0.450125 -0.390113 
262 1.74618 2.15121 0.279789 0.555169 0 0 0 0.0126958 0.577618 -0.810473 
12 2.05404 1.71887 0.758031 0.438058 0 0 0 1.01304 -0.0352581 -1.31528 
419 2.13204 2.72408 0.89959 0.661814 0 0 0 -0.342937 -0.253336 0.907355 
406 2.42478 3.61753 0.659943 0.970488 0 0 0 -0.0179033 0.633412 0.32581 
5 1.83387 1.60258 1.06898 0.350521 0 0 0 0.518007 -0.00481742 -0.439414 
282 2.10939 1.7138 0.725194 0.451019 0 0 0 1.02952 -0.00761876 -1.22504 
332 2.94216 1.87249 1.48282 0.658015 0 0 0 -1.34667 0.0500319 0.272318 
273 1.97812 2.02246 0.498339 0.505729 0 0 0 0.418118 0.715708 -0.889655 
465 1.55317 1.80293 1.02062 0.352752 0 0 0 0.423316 0.413111 0.116431 
473 2.46735 1.59649 0.66643 0.518463 0 0 0 0.967232 0.00925453 -0.462006 
431 2.32609 2.05448 0.519982 0.560181 0 0 0 0.724024 0.993813 0.163138 
14 1.55419 1.93329 0.82838 0.405069 0 0 0 0.0452498 0.830857 -0.972188 
292 1.85025 1.93216 0.62319 0.458614 0 0 0 0.520151 0.633272 -1.45563 
434 2.75645 2.12254 0.776666 0.640352 0 0 0 0.275886 0.828453 0.976982 
435 2.27547 2.78874 1.36395 0.72415 0 0 0 -1.28378 -1.59759 0.0352917 
449 1.78492 1.65286 1.04032 0.351595 0 0 0 0.619837 0.0966797 -0.444199 
397 2.83484 3.18348 0.751313 0.894632 0 0 0 -0.0119039 0.462728 0.500418 
503 1.69433 1.53293 1.28277 0.296978 0 0 0 0.0868134 0.668196 -1.17542 
439 2.23608 1.68881 0.721608 0.470074 0 0 0 0.997375 -0.149411 -1.01172 
440 3.40613 2.58476 1.18372 0.890003 0 0 0 0.0147923 0.225991 0.341523 
321 3.75635 1.95027 1.30417 0.908668 0 0 0 0.522732 0.204462 0.235067 
442 2.01408 1.55506 0.987735 0.38957 0 0 0 0.846732 -0.376192 -0.680715 
280 3.36552 1.92081 0.844522 0.776137 0 0 0 0.563148 0.495304 0.460944 
409 2.06935 2.09245 1.00961 0.487073 0 0 0 -3.00249 -4.83861 -2.50962 
132 1.60201 2.67399 1.2318 0.597749 0 0 0 -0.896969 -2.87824 -0.340987 
412 3.37692 2.95079 0.915986 0.958068 0 0 0 0.185433 0.35427 0.32906 
467 2.39567 1.70781 0.607559 0.518878 0 0 0 0.911627 0.184889 -0.45408 
475 1.63586 1.75674 1.01821 0.351083 0 0 0 0.571657 0.319971 -0.170208 
297 1.88584 2.11886 0.468261 0.516639 0 0 0 0.269536 0.900445 -0.810855 
258 1.88163 2.0785 0.490078 0.505805 0 0 0 0.292626 0.819106 -0.959212 
21 1.95025 1.79309 0.736979 0.433789 0 0 0 0.834874 0.19255 -1.45164 
155 1.57047 2.57302 1.0308 0.556273 0 0 0 -0.930888 -1.97385 -0.346408 
152 1.64318 3.26844 0.8964 0.775456 0 0 0 0.145037 0.320241 0.577049 
330 3.25834 2.11222 1.26292 0.765143 0 0 0 -0.227425 0.346544 0.517372 
50 2.10972 2.01881 0.461292 0.528915 0 0 0 0.523253 0.760758 -0.524067 
11 1.827 1.65768 0.998586 0.364159 0 0 0 0.725867 0.0561495 -0.479256 
221 3.06293 2.07824 0.893014 0.704359 0 0 0 0.191684 0.675873 0.805535 
74 3.0486 1.89688 0.613143 0.697121 0 0 0 0.733915 0.698597 0.481379 
446 2.36993 1.57696 0.416032 0.551074 0 0 0 0.33833 -0.381274 -0.777638 
395 2.2081 3.17317 0.33281 0.823205 0 0 0 0.0906674 0.789274 0.380122 
259 2.61541 1.55377 0.447519 0.589889 0 0 0 0.615078 -0.135002 -0.48416 
421 3.45212 3.42163 0.546131 1.11866 0 0 0 0.356756 0.514225 0.0955154 
454 1.56663 1.58655 1.31648 0.280873 0 0 0 0.559204 0.530562 -1.02839 
46 1.85724 1.59487 1.06018 0.354942 0 0 0 0.538907 -0.0521361 -0.419233 
342 1.94864 1.51663 1.09143 0.362945 0 0 0 0.365462 -0.247984 -0.311674 
468 1.84503 1.61503 1.04262 0.356902 0 0 0 0.604864 -0.0199303 -0.435555 
3 1.71465 1.71188 1.01633 0.352868 0 0 0 0.641609 0.223035 -0.361717 
305 1.96778 2.68477 0.388919 0.66176 0 0 0 0.243328 1.21748 0.507561 
197 2.25483 2.3121 0.348903 0.622003 0 0 0 0.537103 1.21489 0.27898 
405 2.37908 2.74231 0.381578 0.727046 0 0 0 0.265633 0.922368 0.602327 
401 2.75365 3.61333 0.332403 1.03903 0 0 0 0.11552 0.715404 0.107318 
13 1.55311 1.67705 1.20137 0.307977 0 0 0 0.785017 0.491347 -0.794917 
387 2.43187 1.68886 2.17908 0.61011 0 0 0 -3.33285 -1.77749 -2.95776 
482 2.51487 2.7582 2.04879 0.826879 0 0 0 -1.56781 -1.33391 -0.988801 
463 2.97195 2.60116 1.62743 0.81833 0 0 0 -1.07682 -0.446853 -0.0860677 
394 2.64216 1.6578 2.44452 0.691166 0 0 0 -1.51713 -0.0734313 -1.2725 
319 3.26547 1.82336 1.59356 0.744787 0 0 0 -0.412139 0.388305 0.342372 
500 3.11262 2.32837 2.11933 0.848981 0 0 0 -0.956593 -0.383035 -0.424589 
487 2.72994 2.14151 2.33655 0.768559 0 0 0 -1.73832 -0.883154 -1.23841 
502 2.94167 3.12339 2.45847 1.05466 0 0 0 -0.570348 -0.288425 -0.388151 
499 3.04773 2.90835 2.59199 1.0427 0 0 0 -0.532312 -0.292059 -0.370321 
429 3.27854 2.24372 1.5145 0.807217 0 0 0 -0.495948 0.0821241 0.239958 
504 1.83955 1.98447 2.30357 0.597538 0 0 0 -3.80807 -5.34142 -5.67724 
383 3.18367 1.5004 2.61693 0.827667 0 0 0 -0.0344063 0.389498 0.0164095 
99 1.58531 1.59037 3.49474 0.813438 0 0 0 0.149987 0.61936 0.283838 
382 2.94579 1.66321 3.32612 0.956236 0 0 0 0.0216735 0.231222 0.173934 
374 2.17945 1.70019 3.15936 0.782231 0 0 0 -0.408989 0.35993 -0.5752 
367 2.15103 1.73257 3.16271 0.783979 0 0 0 -0.427412 0.315499 -0.61773 
512 1.68194 3.18104 2.91328 0.986985 0 0 0 -0.181817 -0.379581 -0.491409 
498 3.03601 3.15207 3.07828 1.20085 0 0 0 -0.264352 -0.140528 -0.154726 
508 2.36175 2.26391 2.93276 0.848651 0 0 0 -1.00143 -0.572073 -1.04115 
488 2.76679 3.03524 3.02364 1.10813 0 0 0 -0.447069 -0.241911 -0.294046 
100 1.61345 1.74366 3.65538 0.886142 0 0 0 0.0867508 0.432683 0.364277 
245 1.53525 1.87342 3.55191 0.862727 0 0 0 0.113813 0.405982 0.174808 
ITEM: TIMESTEP
740924
ITEM: NUMBER OF ATOMS
512
ITEM: BOX BOUNDS ss ss ss
-8.1988304040437454e-01 3.8875120101141034e+00
-9.7693552394909078e-01 3.9476017366228966e+00
-9.1281994132074906e-01 3.9096273972560476e+00
ITEM: ATOMS id x y z width_SPH x_COM y_COM z_COM vx vy vz 
263 1.46291 0.886581 -0.255333 0.797052 0 0 0 -0.184375 0.0652829 0.617681 
403 1.47176 1.28213 -0.572768 0.83623 0 0 0 -0.296148 -0.417893 -0.281593 
25 0.482328 0.121035 0.00277828 1.02263 0 0 0 0.431091 0.529142 0.569948 
279 1.31897 1.03444 -0.484999 0.850875 0 0 0 -0.189046 -0.165805 0.1069 
402 1.48863 1.32749 -0.64803 0.856462 0 0 0 -0.281497 -0.409929 -0.421808 
16 0.283973 0.665587 0.148024 0.902202 0 0 0 0.586637 0.592041 0.780385 
8 0.548854 0.851569 0.116528 0.825727 0 0 0 0.734541 0.682669 1.15153 
131 1.20625 1.40835 0.666109 0.517573 0 0 0 4.80288 6.68769 7.38626 
217 -0.458207 1.32446 1.07566 0.827559 0 0 0 -0.140182 -0.412272 -0.139884 
2 -0.191092 0.578919 0.378228 0.976754 0 0 0 0.269509 0.355315 0.381157 
24 0.947324 0.538091 0.655925 0.732025 0 0 0 1.69016 2.78543 2.5878 
129 -0.0272366 1.21936 0.47187 0.80915 0 0 0 0.465013 -0.111315 0.50438 
224 -0.038168 1.2323 1.0979 0.718725 0 0 0 1.00098 -0.0777315 0.267253 
78 0.717499 0.416302 1.446 0.684299 0 0 0 2.08619 2.94759 0.725944 
67 0.0566833 0.17071 1.35969 0.867431 0 0 0 0.646895 0.692243 0.00586471 
22 1.10962 0.782274 0.476558 0.68988 0 0 0 1.54633 2.71467 3.19786 
125 0.0919248 1.14992 0.334152 0.817636 0 0 0 0.529086 0.043208 0.639756 
10 0.362735 0.340212 0.33706 0.920789 0 0 0 0.743302 0.865794 0.897138 
68 -0.62926 1.10997 1.49533 0.872301 0 0 0 -0.401457 -0.268308 -0.303177 
116 -0.467665 -0.224839 2.43602 1.06883 0 0 0 -0.51044 -0.413944 -0.0581819 
39 1.33122 1.26246 1.96204 0.349429 0 0 0 -0.248146 -0.392561 0.562152 
57 -0.13659 -0.184233 1.60661 0.978298 0 0 0 0.0863226 0.0850648 -0.19687 
111 1.4786 0.661641 1.9495 0.479296 0 0 0 3.06074 4.57992 2.61115 
59 0.836226 1.31492 2.27398 0.459131 0 0 0 -1.05515 -0.0553166 0.985041 
183 0.484311 1.33661 2.61272 0.586946 0 0 0 -0.675401 -0.0650182 0.47969 
80 1.06797 1.32418 2.08948 0.394892 0 0 0 -0.90727 0.0277965 0.821286 
103 -0.666452 -0.192851 2.21681 1.11079 0 0 0 -0.541709 -0.31941 -0.0821333 
63 -0.481047 0.33577 1.67077 0.939106 0 0 0 -0.201744 0.0269382 -0.274231 
64 0.692285 1.25103 1.95542 0.468135 0 0 0 1.81264 3.52146 2.44696 
65 1.41229 1.12561 2.09167 0.384754 0 0 0 0.113475 -1.07837 0.468898 
66 0.536328 -0.153293 1.56219 0.845277 0 0 0 0.649465 0.683624 -0.164166 
27 1.41506 1.3286 1.80373 0.30963 0 0 0 -0.411458 -0.393428 1.39421 
343 1.489 1.48457 1.52633 0.252367 0 0 0 0.0620334 0.089098 -0.0237595 
69 0.578503 1.29327 2.42893 0.533075 0 0 0 -0.969958 -0.283527 0.404159 
82 0.156007 0.760124 1.618 0.699972 0 0 0 1.16236 0.800013 -0.325257 
71 0.319328 -0.0268568 1.59758 0.843493 0 0 0 0.618253 0.613304 -0.223017 
509 1.47935 1.4766 1.54574 0.254225 0 0 0 0.182427 0.0867384 -0.11827 
226 0.739715 1.28996 2.43125 0.504121 0 0 0 -0.860212 -0.174972 0.697962 
511 1.41956 1.17051 2.0196 0.366045 0 0 0 0.0942167 -0.908442 0.297357 
118 0.968935 0.167087 2.50851 0.690238 0 0 0 -0.380107 -0.8971 -0.669424 
26 1.04232 1.47276 1.91231 0.366376 0 0 0 -0.42542 0.305427 0.34823 
77 0.568462 0.474333 2.28658 0.658596 0 0 0 -0.193249 -0.487495 -0.883527 
92 0.627969 -0.707379 2.33072 0.983502 0 0 0 -0.0562694 -0.633967 -0.231832 
107 0.249773 0.442634 2.19694 0.724251 0 0 0 -0.088448 -0.27526 -0.803416 
122 1.04947 0.384891 2.37966 0.613129 0 0 0 -0.287016 -0.858509 -0.736374 
94 1.18309 0.612656 2.42577 0.545585 0 0 0 -0.173058 -1.01255 -0.0158331 
247 0.952661 1.10213 2.48174 0.49749 0 0 0 -0.611909 -0.522911 0.847318 
73 1.44161 0.794424 2.54929 0.516408 0 0 0 0.0603163 -0.778562 0.685093 
87 0.756028 0.283348 2.07373 0.669735 0 0 0 0.352358 0.328748 -0.886046 
84 -0.667112 1.05545 2.40896 0.90283 0 0 0 -0.847635 -0.267153 -0.180989 
507 1.18214 1.13119 2.24891 0.425773 0 0 0 -0.485968 -0.575597 1.24115 
169 1.39493 0.991787 2.28374 0.436529 0 0 0 0.174857 -1.07735 1.11077 
85 0.770574 -0.606568 1.99597 0.927264 0 0 0 0.0904901 -0.341435 -0.356416 
371 1.36018 0.86878 2.51445 0.50015 0 0 0 -0.0254392 -0.820946 0.806109 
448 0.60905 1.28912 1.89858 0.483816 0 0 0 1.71742 3.16719 1.99176 
328 0.993114 0.774314 2.21877 0.511072 0 0 0 0.604075 0.591741 0.631523 
112 0.973445 1.266 2.2244 0.433463 0 0 0 -0.947349 -0.0536112 1.19681 
40 0.54246 1.29073 2.42961 0.540922 0 0 0 -0.994443 -0.331657 0.322488 
496 1.48486 1.48105 1.5348 0.253068 0 0 0 0.119647 0.0927823 -0.0759783 
42 1.22245 1.29781 2.00116 0.362853 0 0 0 -0.556979 -0.188467 0.501343 
237 1.1156 1.25582 2.14126 0.402225 0 0 0 -0.8105 -0.183985 0.983459 
494 1.38749 1.1901 2.0175 0.36435 0 0 0 -0.0149666 -0.800931 0.35747 
181 0.316492 1.14152 2.56082 0.627439 0 0 0 -0.957816 -0.732106 -0.0855275 
81 -0.121097 -0.621647 2.09638 1.08734 0 0 0 -0.196987 -0.422691 -0.131276 
83 1.18469 -0.506693 2.52987 0.870698 0 0 0 -0.142383 -0.821287 -0.309918 
232 0.998003 1.01239 2.54917 0.515988 0 0 0 -0.467528 -0.616703 0.771055 
93 -0.508157 0.844906 2.0297 0.851666 0 0 0 -0.540489 -0.298775 -0.44417 
61 1.51203 0.359942 1.94817 0.566528 0 0 0 0.589586 1.39728 -0.113109 
349 1.50386 -0.381648 1.57126 0.808644 0 0 0 -0.129194 0.23401 -0.291424 
253 1.16405 1.08584 2.39571 0.460853 0 0 0 -0.611549 -0.90694 0.937562 
193 -0.727536 1.42163 1.55279 0.877438 0 0 0 -0.696303 -0.372883 -0.303481 
506 1.46209 1.27674 1.83872 0.32002 0 0 0 -0.221819 -0.637746 0.942608 
44 -0.248211 1.37175 1.89731 0.712936 0 0 0 -0.599064 -0.717593 -0.652025 
32 1.23784 1.37168 1.88979 0.337002 0 0 0 -0.417918 -0.0101839 0.780544 
493 1.20601 1.42553 1.84334 0.3313 0 0 0 -0.251523 0.0108022 0.833821 
9 1.40197 1.32544 1.82114 0.31367 0 0 0 -0.524726 -0.595524 1.18561 
218 1.31592 1.40022 1.78919 0.309646 0 0 0 -0.538592 -0.470995 1.28636 
200 -0.243777 1.45153 1.90837 0.706233 0 0 0 -0.689913 -0.73587 -0.614253 
486 1.31685 1.26324 1.98201 0.354059 0 0 0 0.422848 0.775281 1.3477 
98 0.192036 0.505961 2.67417 0.762685 0 0 0 -0.547782 -0.679281 -0.319418 
113 1.36474 -0.767764 2.84603 0.993322 0 0 0 -0.0519213 -0.877645 0.0551701 
114 -0.662825 0.667391 3.0988 1.0467 0 0 0 -0.73032 -0.208075 0.29216 
108 0.827863 -0.375054 3.19939 0.967032 0 0 0 -0.179664 -0.683322 0.269358 
163 0.568713 0.925243 2.79804 0.645971 0 0 0 -0.628988 -0.714746 0.30336 
60 0.824463 1.36373 3.15258 0.691636 0 0 0 0.333329 0.629441 0.835944 
117 0.983522 0.117894 3.70191 0.978822 0 0 0 -0.129102 -0.308781 0.718543 
51 0.407862 1.42257 2.78813 0.642073 0 0 0 -0.346567 0.249815 0.656798 
88 1.42973 0.53892 3.62921 0.869881 0 0 0 0.00637634 0.0152787 0.894933 
109 -0.521014 -0.195169 3.25588 1.19582 0 0 0 -0.57523 -0.438262 0.393262 
90 -0.819602 0.596003 2.78624 1.05283 0 0 0 -0.798695 -0.216513 0.112032 
91 0.794653 1.1685 3.90935 0.962246 0 0 0 -0.00640092 0.133377 0.951543 
227 1.33614 1.35545 2.76353 0.562283 0 0 0 -0.093708 0.239801 -0.637927 
438 0.692847 1.45415 3.02108 0.665651 0 0 0 0.310331 0.681431 0.831912 
119 0.71981 0.052654 3.43824 0.932513 0 0 0 -0.230068 -0.438123 0.511963 
430 1.20336 0.667923 2.80487 0.606697 0 0 0 -0.28492 -0.688806 0.484944 
96 1.21336 -0.443192 3.49594 1.03712 0 0 0 -0.0581004 -0.627555 0.498001 
121 -0.478888 0.852544 3.15732 0.981835 0 0 0 -0.686108 -0.196813 0.337558 
110 0.000523652 -0.178574 2.91004 0.989035 0 0 0 -0.415645 -0.54574 0.0950858 
120 -0.757156 1.33216 2.86286 0.982961 0 0 0 -0.855522 -0.0638553 0.192639 
104 0.101175 -0.598311 3.21263 1.14764 0 0 0 -0.345981 -0.642434 0.341682 
101 0.537341 0.503472 3.11842 0.78634 0 0 0 -0.405484 -0.52552 0.336935 
238 1.23272 1.23413 2.83499 0.574663 0 0 0 0.182208 0.586819 0.304303 
123 -0.316989 2.86792 -0.691708 1.18977 0 0 0 -0.540326 0.329789 -0.659807 
159 0.397828 3.05214 -0.62539 1.0548 0 0 0 -0.285712 0.503074 -0.690766 
142 1.18785 3.8051 -0.0596199 1.05791 0 0 0 -0.106355 0.892004 -0.316692 
126 -0.541278 3.21742 0.184407 1.10844 0 0 0 -0.644957 0.551736 -0.319687 
127 0.805508 2.06303 -0.832091 0.949857 0 0 0 -0.270548 -0.262301 -0.886171 
158 0.896473 2.14782 -0.502466 0.825355 0 0 0 -0.343737 -0.410898 -0.87404 
143 -0.162428 2.5139 -0.788993 1.13562 0 0 0 -0.507459 0.1168 -0.735172 
149 1.11663 2.1868 -0.912542 0.958571 0 0 0 -0.152829 -0.11596 -0.939863 
151 1.36322 3.36622 0.288898 0.844526 0 0 0 0.0302194 0.9592 0.0450329 
274 1.33476 2.01644 -0.0268112 0.636672 0 0 0 -0.366983 -0.743754 -0.663819 
157 0.0134412 1.64299 0.12894 0.821071 0 0 0 -0.211079 -0.666831 -0.103383 
156 -0.609031 1.93331 -0.650129 1.19062 0 0 0 -0.599128 -0.066017 -0.549848 
130 0.986169 2.15088 0.267688 0.593016 0 0 0 -0.524915 -0.340194 -0.634974 
148 0.698615 1.49458 -0.23256 0.791592 0 0 0 -0.0750017 -0.610808 0.077449 
137 -0.708166 2.86988 0.246397 1.07808 0 0 0 -0.787199 0.323147 -0.310871 
138 0.424973 2.62752 -0.593785 0.963034 0 0 0 -0.356585 0.182119 -0.803827 
141 0.160027 1.997 -0.415262 0.9144 0 0 0 -0.476536 -0.434291 -0.672637 
140 0.862148 2.60215 -0.80909 0.97976 0 0 0 -0.192265 0.196972 -0.875596 
443 1.31897 2.0852 0.116072 0.599078 0 0 0 -0.363287 -0.428233 -0.737766 
444 1.48154 2.23981 0.0627784 0.620903 0 0 0 -0.259601 0.134103 -0.787031 
136 1.03226 1.89169 0.22151 0.597171 0 0 0 -0.148953 -0.793374 0.0688276 
268 1.46275 2.00807 0.113328 0.589762 0 0 0 -0.280105 -0.513218 -0.711737 
146 0.824171 2.05113 0.253739 0.615595 0 0 0 -0.451136 -0.790452 -0.379334 
180 0.816319 2.50706 0.78962 0.565316 0 0 0 -0.421947 1.23138 -0.299279 
190 0.821833 3.29161 1.17402 0.773675 0 0 0 0.33824 0.75138 0.367148 
178 -0.546739 3.08542 1.13917 0.974062 0 0 0 -0.646004 0.581685 -0.0204825 
220 0.89906 2.23256 1.45455 0.460902 0 0 0 -1.92833 -2.57265 -1.96269 
189 1.017 2.26105 0.814592 0.487554 0 0 0 -0.947484 1.1126 -0.606335 
165 1.04879 2.30439 0.745462 0.502537 0 0 0 -0.824514 1.15653 -0.661759 
128 1.38577 3.34334 1.25181 0.793524 0 0 0 0.238306 -0.0104498 0.379268 
185 0.700689 3.36968 1.30718 0.807799 0 0 0 0.306459 0.749864 0.317389 
168 0.779365 2.05426 1.00596 0.471617 0 0 0 -0.205657 1.53635 0.706359 
186 -0.767702 1.72336 0.481581 0.983532 0 0 0 -0.740617 -0.285022 -0.211621 
170 0.556737 2.28227 0.547177 0.609207 0 0 0 -0.639376 -0.127242 -0.555088 
171 0.28459 3.56153 0.91582 0.929538 0 0 0 -0.124091 0.922001 0.025185 
175 -0.673996 2.64647 1.34235 0.922317 0 0 0 -0.838138 0.285613 -0.0589359 
124 0.946507 2.13446 1.0301 0.448062 0 0 0 -1.03348 1.02047 -0.156152 
187 -0.341979 2.06187 0.381155 0.853133 0 0 0 -0.732616 -0.502033 -0.361211 
134 1.44029 2.99976 0.715265 0.686527 0 0 0 0.23759 0.772241 0.575627 
198 1.10453 2.48524 1.32487 0.519686 0 0 0 -1.07333 -2.52525 -1.23764 
426 1.52561 1.8097 1.03415 0.350829 0 0 0 0.374183 0.399443 0.236452 
147 1.22188 1.92069 1.15987 0.365564 0 0 0 -0.682296 -0.613776 0.42668 
133 1.04449 2.31189 0.324237 0.588104 0 0 0 -0.518624 0.365535 -0.734239 
188 0.398826 2.22612 0.467426 0.652194 0 0 0 -0.60886 -0.528082 -0.525432 
20 1.40122 1.64925 1.36986 0.284342 0 0 0 1.58818 -0.490896 -0.21058 
216 -0.073785 2.3515 1.33666 0.682759 0 0 0 -0.676855 0.16296 -0.233 
206 -0.717445 1.91108 1.19378 0.879574 0 0 0 -0.880894 -0.36704 -0.250315 
154 -0.280093 3.20781 0.526564 0.978402 0 0 0 -0.533179 0.672502 -0.188903 
144 1.30246 2.01088 0.91294 0.40762 0 0 0 -0.672797 1.05431 -0.238359 
423 1.18172 2.03444 0.977321 0.411243 0 0 0 -0.851259 1.0612 0.0834714 
135 -0.226258 3.1214 0.41025 0.958213 0 0 0 -0.535648 0.632107 -0.247129 
192 0.529689 2.18854 0.465832 0.623396 0 0 0 -0.589926 -0.54167 -0.501807 
194 0.171574 2.21542 0.651665 0.670492 0 0 0 -0.636066 -0.568321 -0.480117 
196 0.990083 2.8906 1.10309 0.640602 0 0 0 0.38819 0.633291 0.419028 
203 0.532322 2.55462 0.541047 0.655197 0 0 0 -0.461065 0.623878 -0.448617 
150 1.41061 1.88559 0.988788 0.370977 0 0 0 2.86986 5.45916 3.7877 
214 -0.0711045 1.80495 0.791839 0.711169 0 0 0 -0.190214 -1.00772 -0.172916 
425 1.42103 1.95119 0.905402 0.394392 0 0 0 -0.268459 0.944485 -0.302217 
48 0.228418 2.29403 0.623418 0.667392 0 0 0 -0.652813 -0.340645 -0.509607 
162 1.52738 1.51565 1.44983 0.254791 0 0 0 -0.400386 0.113541 0.320296 
177 0.870211 1.99607 1.31465 0.416627 0 0 0 -0.427957 0.917072 0.35898 
139 0.90101 3.94732 0.7486 1.02061 0 0 0 -0.0239435 0.908767 -0.0296422 
461 1.38949 1.75363 1.23163 0.316837 0 0 0 0.788685 0.0389541 0.353152 
210 0.261607 2.17599 0.847561 0.616001 0 0 0 -0.594563 -0.510743 -0.434906 
480 1.02343 2.02374 1.13293 0.409871 0 0 0 -0.663912 0.947572 0.473092 
28 1.05077 1.83854 1.40401 0.360317 0 0 0 0.74545 0.122634 0.746317 
489 0.558848 2.27474 1.21427 0.519895 0 0 0 -0.639977 0.853561 -0.177996 
4 1.22246 1.72084 1.42293 0.315212 0 0 0 1.31352 -0.333593 0.538877 
19 1.14083 2.47427 0.428789 0.585362 0 0 0 -0.345412 1.1018 -0.529052 
336 0.479582 2.3743 1.1893 0.555288 0 0 0 -0.451904 0.940797 -0.147879 
469 1.04049 2.01732 1.12836 0.40697 0 0 0 -0.641467 0.936191 0.520194 
308 0.417191 2.3839 1.20765 0.568909 0 0 0 -0.421985 0.882989 -0.144401 
15 1.22459 1.8628 1.21614 0.35038 0 0 0 0.329915 0.109358 1.24194 
424 1.33272 2.62685 0.397186 0.618372 0 0 0 -0.0725324 1.29739 -0.162088 
7 1.37249 2.12816 0.709256 0.457164 0 0 0 -0.584456 1.11294 -1.1669 
174 1.2968 1.80757 1.23499 0.332178 0 0 0 0.573368 -0.124986 0.946118 
6 1.09487 1.81937 1.3936 0.350536 0 0 0 0.886025 -0.0218179 0.820312 
458 0.509346 2.15864 1.40969 0.503692 0 0 0 -0.692611 0.732819 -0.055599 
433 1.53015 1.83937 0.985043 0.363365 0 0 0 0.317644 0.587876 0.0927548 
437 1.46749 2.04177 0.74869 0.434925 0 0 0 -0.336951 1.01715 -1.23223 
153 1.27973 1.81894 1.23334 0.335817 0 0 0 0.531762 -0.101249 1.0382 
286 1.4825 2.0299 0.753363 0.432215 0 0 0 -0.28954 0.996599 -1.23856 
195 0.960329 1.93965 1.32813 0.392724 0 0 0 -0.00404795 0.669695 0.653861 
399 1.51634 1.93623 0.86663 0.397935 0 0 0 -0.429315 0.220246 -1.1385 
354 0.503407 2.10106 1.49637 0.495895 0 0 0 -0.740895 0.714465 0.0203709 
372 1.50624 1.49957 1.49053 0.251512 0 0 0 -0.213034 0.045119 0.264169 
164 0.232472 1.81996 1.47903 0.555413 0 0 0 -0.186998 -0.251082 -0.15083 
17 1.50458 1.49817 1.49392 0.251439 0 0 0 -0.18812 0.0475533 0.240282 
52 0.953891 1.86577 1.44847 0.38025 0 0 0 0.395629 0.462913 0.490505 
145 0.944091 3.68324 0.319778 0.962031 0 0 0 -0.0697301 0.942552 -0.136523 
256 0.558342 2.11604 1.73864 0.496383 0 0 0 -0.760068 0.519799 0.0906705 
495 1.0431 1.64388 1.68229 0.346147 0 0 0 0.726546 0.284296 0.13442 
248 0.868775 1.56291 1.93386 0.401685 0 0 0 -0.733966 0.724668 0.574546 
43 0.148918 2.3144 1.81884 0.623844 0 0 0 -0.186885 0.906611 0.491379 
76 0.906795 1.57912 1.88406 0.389082 0 0 0 -0.517874 0.646475 0.347162 
450 0.854474 1.64818 1.83469 0.397158 0 0 0 -0.471368 0.832814 0.328223 
166 1.19152 3.39112 1.71318 0.833435 0 0 0 0.311545 -0.187255 0.0848137 
70 0.975132 2.32043 2.3029 0.60875 0 0 0 0.374583 -1.55706 -1.46666 
199 -0.163993 2.48214 2.51656 0.815896 0 0 0 -0.221945 0.75176 0.49943 
223 -0.313714 3.51999 2.20263 1.0656 0 0 0 -0.342988 0.730772 0.185302 
201 -0.0323009 3.0138 1.68138 0.815642 0 0 0 -0.0812525 0.978489 0.267423 
243 0.900446 2.03172 2.39421 0.562174 0 0 0 0.102783 -1.11855 -1.35639 
191 0.40201 2.14629 2.61255 0.667712 0 0 0 0.537628 1.16212 0.68685 
204 0.494256 3.8316 2.13436 1.03918 0 0 0 0.0831404 0.663353 0.133759 
49 0.769415 1.87248 1.59107 0.417373 0 0 0 -0.387878 1.00491 0.294941 
160 0.914957 1.82328 1.54462 0.382719 0 0 0 0.276553 0.470741 0.188032 
207 0.786915 2.75748 2.50756 0.754782 0 0 0 0.726065 0.142292 -0.116911 
208 1.03097 2.39108 1.63944 0.518083 0 0 0 -1.2971 -4.15713 -2.32245 
209 0.529451 2.2009 1.58261 0.507849 0 0 0 -0.583075 0.778419 0.0884126 
447 0.197365 2.26426 2.14674 0.639123 0 0 0 0.0858413 1.11298 0.777309 
211 0.711175 3.69219 1.79547 0.94362 0 0 0 0.228627 0.561482 0.152206 
212 0.655035 3.28581 1.83326 0.812311 0 0 0 0.469043 0.508446 0.273239 
213 0.0678185 3.4769 2.25792 0.980742 0 0 0 -0.0320841 0.748345 0.229389 
490 1.46129 1.49804 1.53103 0.253854 0 0 0 1.29203 -0.710954 0.12854 
215 0.794995 3.88392 2.27497 1.06153 0 0 0 0.148999 0.502804 0.0717011 
184 1.5004 1.49456 1.50257 0.251402 0 0 0 -0.12156 0.0574217 0.171665 
55 0.266686 2.26506 1.5319 0.57451 0 0 0 -0.404386 0.67114 0.0856545 
505 0.361107 1.60465 2.26192 0.548764 0 0 0 -0.98366 0.180579 0.29484 
255 1.2108 2.61045 2.1765 0.668952 0 0 0 0.0488542 -2.31931 -1.57557 
479 0.0168432 2.36862 2.04038 0.686488 0 0 0 -0.169971 0.920354 0.583091 
173 -0.124538 1.9162 1.83532 0.659831 0 0 0 -0.837731 -0.402936 -0.215185 
318 0.349865 1.78873 2.07953 0.534864 0 0 0 -0.898968 0.413717 0.360435 
54 0.430612 1.94054 1.8001 0.502882 0 0 0 -0.875834 0.60224 0.284635 
34 0.259991 2.18277 1.85538 0.577332 0 0 0 -0.275798 0.845177 0.514639 
172 0.165961 2.12749 1.58858 0.582574 0 0 0 -0.604281 0.131399 -0.0735062 
229 1.08131 2.33348 2.53378 0.661702 0 0 0 0.497454 -1.0524 -1.40603 
234 1.0441 1.64647 1.67795 0.345827 0 0 0 0.744993 0.277184 0.135962 
252 1.15751 1.61768 1.62228 0.318147 0 0 0 1.06399 -0.250452 0.524715 
235 1.04833 1.62 1.71022 0.345715 0 0 0 0.626178 0.289155 0.162535 
29 0.843072 1.72179 1.74557 0.396695 0 0 0 -0.258713 0.877826 0.216129 
513 0.660684 1.56778 2.09005 0.460316 0 0 0 -1.20268 0.513735 0.742804 
241 1.0601 1.60521 1.72045 0.343451 0 0 0 0.600795 0.255524 0.207298 
38 0.320512 1.75881 2.2745 0.56625 0 0 0 -0.693033 0.511573 0.471383 
35 0.25208 1.7616 2.40265 0.603928 0 0 0 -0.543891 0.556815 0.510723 
30 0.5002 1.66023 2.12088 0.499533 0 0 0 -1.10752 0.44083 0.496582 
239 -0.586856 2.64442 2.57886 0.974141 0 0 0 -0.577159 0.458323 0.29807 
233 0.904606 1.60663 1.8497 0.386762 0 0 0 -0.39911 0.669477 0.256722 
75 0.829561 1.66229 1.83748 0.40314 0 0 0 -0.564054 0.867479 0.365772 
219 1.50021 1.49439 1.50297 0.251406 0 0 0 -0.118382 0.0579805 0.168263 
167 1.50039 1.49455 1.50259 0.251402 0 0 0 -0.121422 0.0574459 0.171517 
466 1.5002 1.49438 1.503 0.251406 0 0 0 -0.118153 0.0580209 0.168019 
471 1.50021 1.49439 1.50297 0.251406 0 0 0 -0.118426 0.0579727 0.16831 
36 1.50028 1.49445 1.50282 0.251404 0 0 0 -0.119601 0.0577659 0.169568 
278 1.50195 1.49591 1.49935 0.251391 0 0 0 -0.146704 0.053242 0.198231 
37 1.50088 1.49498 1.50157 0.251396 0 0 0 -0.129473 0.0561252 0.180001 
58 1.50159 1.49559 1.50011 0.251391 0 0 0 -0.14096 0.05425 0.19209 
47 1.07813 1.7557 1.4997 0.343426 0 0 0 1.02048 -0.136261 0.347758 
477 1.50167 1.49566 1.49993 0.251391 0 0 0 -0.14218 0.0539604 0.193499 
355 1.50134 1.49537 1.50063 0.251392 0 0 0 -0.136791 0.0548365 0.187833 
334 1.50104 1.49511 1.50125 0.251394 0 0 0 -0.131889 0.0556516 0.182653 
476 1.50097 1.49505 1.50139 0.251395 0 0 0 -0.130816 0.0558321 0.181517 
179 1.50088 1.49498 1.50157 0.251396 0 0 0 -0.129409 0.0560701 0.180025 
222 1.50059 1.49472 1.50219 0.251399 0 0 0 -0.124571 0.0568985 0.174878 
302 1.50065 1.49478 1.50205 0.251398 0 0 0 -0.125658 0.0567111 0.176036 
176 1.50066 1.49478 1.50204 0.251398 0 0 0 -0.125718 0.0567007 0.176101 
225 0.922813 2.39726 3.41235 0.888289 0 0 0 0.373681 0.377049 0.311804 
106 0.302739 2.02715 3.35324 0.857243 0 0 0 0.1208 0.569733 0.780088 
249 -0.498566 2.47088 2.81672 0.959175 0 0 0 -0.536676 0.431533 0.394134 
228 -0.10866 3.23446 3.60258 1.22453 0 0 0 -0.281616 0.494552 0.579491 
254 -0.486124 2.76307 3.51221 1.1744 0 0 0 -0.471131 0.385439 0.584954 
230 0.506969 3.71141 2.99961 1.13779 0 0 0 0.0269088 0.555034 0.264742 
231 0.569904 2.2762 3.57918 0.93509 0 0 0 0.214655 0.457939 0.686154 
242 0.54418 2.40528 3.25164 0.856904 0 0 0 0.388567 0.605962 0.516858 
246 -0.356557 2.01124 3.52012 1.04153 0 0 0 -0.460412 0.227395 0.669546 
464 0.277931 1.66567 2.73315 0.660819 0 0 0 -0.253176 0.600741 0.673437 
205 0.789512 1.62298 3.04757 0.674939 0 0 0 0.588819 0.903134 0.639763 
251 0.368726 3.45848 3.03809 1.07462 0 0 0 0.0473351 0.574851 0.331775 
105 -0.172738 1.52945 3.72937 1.04181 0 0 0 -0.383872 0.0755028 0.777714 
250 0.796416 3.13054 3.39931 1.05193 0 0 0 0.168009 0.346729 0.318567 
244 1.25516 2.37352 3.45389 0.901675 0 0 0 0.225143 0.194234 0.0630395 
240 -0.316581 3.69299 3.40911 1.33894 0 0 0 -0.398561 0.574304 0.443197 
257 3.62638 1.21803 -0.278454 1.02738 0 0 0 0.662277 -0.0959479 -0.447612 
441 1.86625 1.15928 0.0293964 0.661003 0 0 0 -0.675364 -0.369653 0.601609 
288 3.67372 0.857919 0.0530685 0.991896 0 0 0 0.71708 -0.235566 -0.334337 
260 3.1323 0.827981 -0.609121 1.01911 0 0 0 0.333836 -0.274323 -0.675073 
261 3.52399 -0.100132 0.154677 1.093 0 0 0 0.502732 -0.634783 -0.330567 
276 2.55308 0.780192 -0.320854 0.838318 0 0 0 -0.251421 -0.56677 -0.547731 
427 2.22868 1.08023 0.208779 0.632713 0 0 0 -0.822417 -0.713986 -0.101754 
285 1.77615 0.218846 -0.031505 0.864555 0 0 0 -0.185592 0.145295 0.517851 
436 2.35115 1.42218 -0.0512763 0.67833 0 0 0 -0.40657 -0.673984 -0.734134 
266 2.66025 0.936349 -0.843432 1.00718 0 0 0 0.0635731 -0.22378 -0.783951 
267 3.03038 0.608846 -0.0398141 0.865185 0 0 0 0.159058 -0.643764 -0.506137 
293 2.10191 1.07614 -0.870533 0.957158 0 0 0 -0.174104 -0.223635 -0.718721 
269 2.55512 0.949696 -0.706891 0.943093 0 0 0 -0.0495121 -0.288861 -0.74354 
270 2.46766 0.612218 -0.432216 0.891631 0 0 0 -0.2235 -0.523995 -0.496711 
271 3.2313 -0.579437 -0.176082 1.23192 0 0 0 0.360724 -0.692767 -0.376342 
272 1.6467 0.823022 0.128519 0.702434 0 0 0 -0.205639 0.701091 1.55332 
284 2.0421 0.324116 -0.432479 0.936213 0 0 0 -0.24377 -0.335198 -0.149024 
290 2.38962 -0.690842 -0.214175 1.17656 0 0 0 0.0652936 -0.547453 -0.230057 
291 3.16122 0.334518 -0.492729 1.06555 0 0 0 0.325714 -0.499023 -0.575628 
294 3.06872 0.327575 0.682207 0.794012 0 0 0 0.101739 -0.942268 -0.433162 
23 1.96011 1.40533 1.23484 0.349079 0 0 0 -0.599672 -0.21695 0.0857817 
453 2.93384 0.913307 1.3622 0.602816 0 0 0 0.73283 -0.100587 0.132431 
18 1.90806 1.36094 1.34067 0.333033 0 0 0 -1.25072 0.0134859 0.29551 
298 2.04666 1.34271 1.25147 0.367169 0 0 0 -0.540456 -0.421455 0.0781951 
299 2.91921 0.965582 1.15319 0.600936 0 0 0 0.695794 -0.294034 -0.11917 
451 2.12579 1.28904 1.26587 0.385299 0 0 0 -0.254688 -0.63726 -0.0746868 
301 3.70183 0.535433 1.4268 0.900415 0 0 0 0.87913 -0.217183 0.0445859 
264 2.45148 0.855522 0.620123 0.597324 0 0 0 -0.523668 -0.843214 -0.416906 
445 2.28054 1.21985 1.24787 0.423474 0 0 0 0.555495 -0.751949 -0.307404 
304 2.19735 1.11987 1.14351 0.431065 0 0 0 2.27636 2.78588 2.37155 
41 2.86421 0.991055 0.872278 0.609247 0 0 0 0.493103 -0.669937 -0.497266 
306 1.99418 1.20525 1.4957 0.358716 0 0 0 -1.55156 -0.174943 0.0557144 
307 2.07218 1.04506 1.19283 0.425461 0 0 0 3.7806 7.1134 5.71535 
277 2.64747 1.39933 0.721803 0.548762 0 0 0 0.84861 -0.164932 -0.410693 
309 3.42368 0.409361 1.28612 0.825458 0 0 0 0.705409 -0.507611 -0.108088 
310 2.04761 -0.00925522 1.06794 0.725921 0 0 0 -0.566247 0.4123 0.0784805 
311 2.88348 1.04322 0.925475 0.602778 0 0 0 0.627621 -0.456748 -0.367904 
341 2.75569 1.06757 0.73325 0.594098 0 0 0 0.363296 -0.793619 -0.668231 
432 2.74186 1.44695 0.883125 0.554673 0 0 0 0.86297 0.249298 0.0388787 
161 2.00055 1.43222 1.16425 0.363505 0 0 0 -0.0700779 -0.338489 -0.117135 
182 2.69528 1.32604 0.523274 0.596688 0 0 0 0.459696 -0.519138 -0.622921 
316 2.92723 -0.308194 0.756845 0.924413 0 0 0 0.0547723 -0.866033 -0.307179 
317 3.34937 0.0147864 0.768075 0.9244 0 0 0 0.394666 -0.767709 -0.282436 
275 3.4093 -0.820414 0.709981 1.195 0 0 0 0.430013 -0.788086 -0.18422 
33 2.65971 0.84509 1.48872 0.537874 0 0 0 0.731255 -0.584786 0.0576552 
320 1.86541 0.0375376 0.931904 0.734202 0 0 0 -0.348767 1.04581 0.599278 
72 2.19325 1.16818 1.39318 0.403133 0 0 0 -0.136045 -0.769952 -0.0248442 
265 1.93826 -0.369082 0.732911 0.882173 0 0 0 -0.204905 0.0532905 0.157701 
501 2.42646 1.15684 1.21412 0.460779 0 0 0 0.925079 -0.612949 -0.326165 
56 2.5703 0.70298 0.532522 0.656291 0 0 0 -0.587875 -1.04465 -0.472237 
325 2.33716 1.10413 1.34222 0.440664 0 0 0 0.761375 -0.60137 0.0303763 
287 2.41139 -0.36654 0.555638 0.915706 0 0 0 -0.190773 -0.554737 -0.138717 
327 3.36121 1.249 1.48977 0.729284 0 0 0 0.602843 0.610907 0.465237 
329 1.95981 0.208879 1.1445 0.655282 0 0 0 -0.51436 1.3614 0.567955 
428 2.78133 0.813912 1.48194 0.571738 0 0 0 0.696728 -0.434604 0.0856369 
31 2.45656 0.720502 0.487632 0.649597 0 0 0 -0.729143 -0.862206 -0.28367 
283 1.7857 0.844349 0.902996 0.529907 0 0 0 2.21574 7.11854 5.73032 
326 2.49871 1.10643 1.22628 0.479729 0 0 0 0.917705 -0.587132 -0.275502 
470 3.20795 1.21787 1.38466 0.675381 0 0 0 0.604909 0.650635 0.479881 
313 2.78304 0.837257 1.4233 0.569374 0 0 0 0.688838 -0.469793 0.0304735 
457 1.88293 1.3176 1.42382 0.328053 0 0 0 -1.57492 0.173673 0.325516 
455 2.0993 1.46728 1.04025 0.39674 0 0 0 0.737333 -0.566814 -0.644796 
422 2.35314 1.29626 1.0816 0.446576 0 0 0 1.03417 -0.563903 -0.623693 
456 2.55983 0.341723 1.38463 0.628056 0 0 0 -0.34983 -1.08267 -0.530484 
474 1.85406 1.42 1.30336 0.322764 0 0 0 -0.756487 0.168944 0.00900508 
300 3.62898 -0.222323 1.47508 1.02442 0 0 0 0.628926 -0.628316 -0.0936893 
478 2.35708 1.45326 0.867199 0.466218 0 0 0 1.2052 -0.344469 -0.812713 
340 1.70262 1.43605 1.41147 0.28635 0 0 0 -0.969107 0.607409 -0.388272 
281 1.70783 0.00684695 0.31422 0.851723 0 0 0 -0.0686512 0.525073 0.736442 
333 2.95214 0.625808 2.5762 0.753151 0 0 0 0.713162 0.398761 0.502284 
323 1.96023 1.06256 1.74772 0.382669 0 0 0 -0.574238 -0.518581 -0.531216 
335 2.66603 0.847283 2.44812 0.646096 0 0 0 0.592421 0.832734 0.530724 
491 1.78686 1.17973 1.70549 0.338067 0 0 0 -0.880161 0.102644 -0.515365 
337 2.05362 -0.94573 1.91696 0.993531 0 0 0 -0.0302105 -0.872263 -0.198434 
338 3.03182 0.240143 2.16305 0.772457 0 0 0 0.621379 -0.400499 0.185007 
339 1.79311 0.243034 1.69179 0.597994 0 0 0 -0.162218 1.31186 -0.0846977 
370 1.65925 -0.976657 2.59511 1.0346 0 0 0 -0.00372279 -0.913987 -0.00498992 
452 2.42607 0.244121 1.74988 0.624616 0 0 0 -0.262865 -1.04644 -0.489102 
295 2.09994 0.574209 2.39619 0.559713 0 0 0 0.422626 -0.554899 0.44975 
296 2.19625 1.05236 1.56909 0.416347 0 0 0 0.0524914 -0.767708 0.00159305 
344 2.37282 0.960795 1.94511 0.493172 0 0 0 0.0946108 -0.747931 -0.195043 
345 3.40709 1.06476 2.12278 0.795711 0 0 0 0.617695 0.513853 0.408938 
346 2.01393 0.960265 1.86444 0.415941 0 0 0 0.212428 -0.860865 0.00183867 
364 1.68475 1.12265 1.87405 0.355486 0 0 0 0.0337162 -0.642349 -0.440801 
348 3.88723 1.46543 2.1892 0.984176 0 0 0 0.623093 0.145067 0.180688 
331 2.11756 0.99594 1.72374 0.415843 0 0 0 0.0794869 -0.764497 -0.0602784 
350 2.36019 -0.094611 1.6119 0.719206 0 0 0 -0.476407 -0.847115 -0.6111 
351 1.77257 1.2331 1.64011 0.3237 0 0 0 -1.0618 0.26513 -0.192275 
352 2.46185 0.668522 2.2626 0.582334 0 0 0 0.676359 0.0573272 0.582503 
363 2.55574 -0.63763 2.03573 0.923301 0 0 0 0.0626262 -0.993203 -0.189408 
45 1.68419 1.14928 1.83489 0.346042 0 0 0 -0.0692607 -0.451077 -0.387114 
365 1.6938 0.22289 2.39009 0.619917 0 0 0 -0.246796 -1.20425 -0.522487 
356 3.26093 1.43479 2.49168 0.819987 0 0 0 0.0771901 0.442797 0.108639 
357 2.16286 1.08649 2.24831 0.502361 0 0 0 -1.19529 -1.2663 -1.34793 
358 2.14803 0.666401 2.60499 0.5953 0 0 0 0.560569 0.181493 0.638765 
359 3.56757 -0.600355 2.2103 1.1353 0 0 0 0.571192 -0.671626 0.0263218 
360 1.95002 0.186184 2.18312 0.617079 0 0 0 -0.299143 -1.06735 -0.548445 
361 2.06205 -0.717435 1.53364 0.91687 0 0 0 -0.165964 -0.667997 -0.288196 
362 2.41713 0.274341 1.96775 0.621373 0 0 0 -0.0196187 -1.05128 -0.266919 
460 1.97017 1.14592 1.60674 0.364133 0 0 0 -1.33178 -0.186135 -0.367905 
303 2.32215 1.05422 1.64055 0.446361 0 0 0 -0.243755 -1.64982 -0.78203 
393 1.97008 -0.328927 2.07152 0.77005 0 0 0 -0.341794 -0.895145 -0.523364 
324 2.45377 0.691626 1.9828 0.539931 0 0 0 0.658944 -0.44722 0.39977 
312 3.14154 1.31988 1.96638 0.699459 0 0 0 -0.0356803 0.799482 0.326151 
375 1.79871 0.918451 2.0944 0.426677 0 0 0 0.572289 -1.16251 0.509285 
459 2.65915 0.457152 1.80806 0.612566 0 0 0 0.36962 -0.819374 -0.0487043 
62 1.74291 1.05768 1.9291 0.377706 0 0 0 0.103439 -0.93086 -0.414894 
380 2.33975 0.664182 2.34273 0.573095 0 0 0 0.614339 -0.00924576 0.60091 
485 1.68785 1.16812 1.80446 0.339539 0 0 0 -0.171979 -0.321849 -0.330221 
510 2.07899 0.97913 1.78211 0.415853 0 0 0 0.124168 -0.792065 -0.0556328 
497 1.81804 0.609477 2.48231 0.542852 0 0 0 0.301591 -0.771588 0.409389 
347 1.77136 -0.881267 1.974 0.962735 0 0 0 -0.089568 -0.786573 -0.247531 
377 3.60723 1.30346 2.5684 0.933682 0 0 0 0.514233 0.272028 0.238893 
314 2.71491 0.746779 1.72331 0.570737 0 0 0 0.739702 -0.29278 0.266987 
388 1.75469 1.18522 1.72428 0.334976 0 0 0 -0.68678 0.0366405 -0.44169 
315 2.63579 0.314001 1.72365 0.63892 0 0 0 0.0537995 -1.04209 -0.326328 
472 2.09293 0.870482 1.94172 0.448094 0 0 0 0.491638 -0.963534 0.346119 
483 1.82859 0.75659 2.34807 0.493685 0 0 0 0.439305 -0.869958 0.607056 
481 2.18419 0.922708 1.7832 0.441245 0 0 0 0.450405 -0.865762 0.161194 
53 1.96946 0.837117 2.09146 0.454929 0 0 0 0.52348 -1.05338 0.546181 
484 1.5969 0.90743 2.25911 0.443749 0 0 0 0.520536 -1.21084 0.880125 
384 3.3199 -0.642185 2.68997 1.13434 0 0 0 0.468069 -0.689856 0.149523 
79 1.68551 1.09272 1.92022 0.366691 0 0 0 0.137651 -0.882673 -0.419312 
492 1.57913 1.14674 1.92413 0.353496 0 0 0 0.285122 -0.82336 -0.0684669 
102 1.57314 0.883402 2.31388 0.456292 0 0 0 0.432606 -1.15584 0.88599 
353 2.07855 1.26353 2.64017 0.58862 0 0 0 -0.785013 0.435458 -1.26515 
462 2.05821 1.16866 1.5 0.374841 0 0 0 -1.12478 -0.441399 -0.00749375 
366 3.18681 0.394559 3.69956 1.11941 0 0 0 0.427844 -0.0589628 0.661252 
89 1.72108 0.843365 2.90214 0.61281 0 0 0 0.333661 0.563453 0.67728 
368 3.28497 -0.26178 3.55747 1.21015 0 0 0 0.427462 -0.424278 0.520472 
369 3.64678 0.246237 3.45704 1.1909 0 0 0 0.608261 -0.163269 0.482312 
378 2.68148 0.577431 2.86988 0.757394 0 0 0 0.589601 0.356561 0.599829 
389 2.14753 0.922808 3.36328 0.790334 0 0 0 0.301157 0.63994 0.697739 
95 1.59937 0.244861 3.84569 0.991728 0 0 0 0.0259903 -0.174653 0.844415 
373 1.65834 -0.088467 2.8068 0.767135 0 0 0 -0.127117 -0.983995 -0.0239106 
390 2.59699 1.19523 3.71533 0.975799 0 0 0 0.204641 0.334124 0.633322 
86 1.82023 1.15323 3.19897 0.705232 0 0 0 0.23856 0.999403 0.374333 
376 2.3167 1.03752 3.19033 0.758195 0 0 0 0.302524 0.831236 0.474042 
391 3.65086 0.0254012 3.45501 1.22492 0 0 0 0.591515 -0.27621 0.462929 
236 1.54662 0.573466 2.7692 0.60373 0 0 0 0.00793487 -0.614125 0.469198 
379 2.2848 0.0643839 2.74733 0.757385 0 0 0 0.197671 -0.711363 0.263031 
392 3.16307 0.16408 2.91474 0.93311 0 0 0 0.561875 -0.181146 0.368093 
381 3.33651 -0.184168 3.45156 1.17626 0 0 0 0.468457 -0.388442 0.486796 
115 1.62185 0.856732 2.99928 0.635538 0 0 0 0.269719 0.566807 0.738445 
386 3.19116 1.24291 3.66153 1.08252 0 0 0 0.343935 0.202041 0.542282 
97 1.83972 0.614674 2.73122 0.59905 0 0 0 0.341723 -0.192284 0.590653 
385 2.36353 -0.0875455 3.34842 0.945015 0 0 0 0.184304 -0.438183 0.551899 
413 2.04561 3.55204 0.256292 0.937596 0 0 0 0.0167817 0.826876 0.106754 
396 3.29248 3.22369 0.035378 1.0748 0 0 0 0.39675 0.490319 -0.15113 
417 1.86394 3.11945 -0.421523 0.93895 0 0 0 0.0259708 0.635517 -0.497418 
398 3.25696 2.67494 0.143852 0.921573 0 0 0 0.465721 0.363347 -0.0248056 
418 3.60253 2.06813 -0.0315412 0.979937 0 0 0 0.668176 0.103274 -0.267778 
400 3.51107 2.53616 -0.0693606 1.01264 0 0 0 0.566662 0.207822 -0.261317 
420 1.73365 2.37769 -0.458371 0.802561 0 0 0 0.0173718 0.149955 -0.82196 
414 2.02101 2.40556 -0.00567735 0.688318 0 0 0 0.194014 0.747583 -0.386211 
416 2.84934 3.42507 -0.151612 1.0695 0 0 0 0.207366 0.613222 -0.261564 
404 3.3127 3.00276 -0.201171 1.07257 0 0 0 0.424772 0.366708 -0.332236 
415 3.39605 3.43408 0.0890898 1.15433 0 0 0 0.404609 0.538799 -0.151412 
322 1.89506 1.81395 -0.137588 0.663464 0 0 0 -0.32233 -0.680469 -0.736555 
407 3.49974 1.68272 -0.386595 1.01347 0 0 0 0.577601 0.0301321 -0.502838 
408 2.0203 1.93863 -0.607189 0.832007 0 0 0 -0.0249742 -0.176086 -0.869654 
202 2.56613 1.60661 0.174897 0.644145 0 0 0 0.242773 -0.25294 -0.704201 
410 3.59069 2.9862 -0.00985324 1.11005 0 0 0 0.546392 0.338192 -0.221803 
411 1.93646 3.6786 -0.355095 1.08849 0 0 0 -0.0202915 0.765218 -0.418129 
289 2.40057 1.93838 0.244708 0.614265 0 0 0 0.514084 0.450123 -0.390111 
262 1.74618 2.15121 0.279789 0.55517 0 0 0 0.0126915 0.577614 -0.810467 
12 2.05404 1.71887 0.75803 0.438059 0 0 0 1.01303 -0.0352545 -1.31527 
419 2.13204 2.72408 0.899591 0.661814 0 0 0 -0.342942 -0.25334 0.907354 
406 2.42478 3.61753 0.659944 0.970488 0 0 0 -0.0179042 0.633412 0.32581 
5 1.83387 1.60258 1.06898 0.350521 0 0 0 0.517988 -0.00481624 -0.439419 
282 2.10939 1.7138 0.725193 0.451019 0 0 0 1.02951 -0.00761845 -1.22504 
332 2.94216 1.87249 1.48282 0.658015 0 0 0 -1.34668 0.0500282 0.272315 
273 1.97812 2.02247 0.498338 0.505729 0 0 0 0.41811 0.715706 -0.889647 
465 1.55317 1.80293 1.02062 0.352752 0 0 0 0.423293 0.413105 0.116416 
473 2.46735 1.59649 0.666429 0.518464 0 0 0 0.967227 0.00925207 -0.462004 
431 2.32609 2.05448 0.519982 0.560181 0 0 0 0.724019 0.993811 0.163144 
14 1.55419 1.9333 0.828379 0.405069 0 0 0 0.0452501 0.830875 -0.972172 
292 1.85025 1.93216 0.623189 0.458615 0 0 0 0.52014 0.633271 -1.45562 
434 2.75645 2.12254 0.776667 0.640352 0 0 0 0.275879 0.82845 0.976983 
435 2.27547 2.78874 1.36395 0.72415 0 0 0 -1.28378 -1.5976 0.0352888 
449 1.78492 1.65286 1.04032 0.351595 0 0 0 0.619815 0.0966784 -0.444206 
397 2.83483 3.18348 0.751313 0.894632 0 0 0 -0.0119055 0.462728 0.500419 
503 1.69433 1.53293 1.28277 0.296978 0 0 0 0.0867928 0.668194 -1.17543 
439 2.23608 1.68881 0.721607 0.470074 0 0 0 0.997366 -0.14941 -1.01172 
440 3.40613 2.58476 1.18372 0.890003 0 0 0 0.0147902 0.225991 0.341522 
321 3.75635 1.95027 1.30417 0.908668 0 0 0 0.522731 0.204461 0.235067 
442 2.01408 1.55506 0.987734 0.38957 0 0 0 0.846728 -0.376179 -0.680714 
280 3.36552 1.92081 0.844522 0.776137 0 0 0 0.563146 0.495303 0.460943 
409 2.06934 2.09244 1.0096 0.487071 0 0 0 -3.00251 -4.83864 -2.50968 
132 1.60201 2.67398 1.2318 0.597748 0 0 0 -0.896988 -2.87826 -0.341004 
412 3.37692 2.95079 0.915986 0.958068 0 0 0 0.185432 0.35427 0.32906 
467 2.39567 1.70781 0.607559 0.518879 0 0 0 0.911621 0.184887 -0.454076 
475 1.63586 1.75674 1.01821 0.351083 0 0 0 0.571632 0.319966 -0.170221 
297 1.88584 2.11886 0.46826 0.516639 0 0 0 0.26953 0.900443 -0.810846 
258 1.88163 2.0785 0.490077 0.505806 0 0 0 0.292619 0.819103 -0.959203 
21 1.95025 1.79309 0.736978 0.433789 0 0 0 0.834864 0.192556 -1.45163 
155 1.57047 2.57302 1.0308 0.556272 0 0 0 -0.930902 -1.97386 -0.346423 
152 1.64318 3.26844 0.896401 0.775456 0 0 0 0.145036 0.32024 0.57705 
330 3.25834 2.11222 1.26292 0.765143 0 0 0 -0.227429 0.346543 0.517371 
50 2.10972 2.01881 0.461291 0.528915 0 0 0 0.523247 0.760757 -0.52406 
11 1.827 1.65768 0.998586 0.364159 0 0 0 0.725849 0.0561517 -0.479261 
221 3.06293 2.07824 0.893015 0.704359 0 0 0 0.191679 0.675871 0.805535 
74 3.0486 1.89688 0.613144 0.697122 0 0 0 0.733912 0.698595 0.48138 
446 2.36993 1.57696 0.416031 0.551075 0 0 0 0.338325 -0.381279 -0.777638 
395 2.2081 3.17317 0.33281 0.823205 0 0 0 0.0906664 0.789273 0.380123 
259 2.61541 1.55377 0.447519 0.589889 0 0 0 0.615076 -0.135005 -0.484161 
421 3.45213 3.42163 0.546131 1.11866 0 0 0 0.356755 0.514225 0.0955155 
454 1.56663 1.58655 1.31648 0.280873 0 0 0 0.559185 0.530565 -1.02841 
46 1.85724 1.59487 1.06018 0.354942 0 0 0 0.538888 -0.0521343 -0.419238 
342 1.94864 1.51663 1.09143 0.362945 0 0 0 0.36545 -0.247977 -0.311678 
468 1.84503 1.61503 1.04262 0.356902 0 0 0 0.604845 -0.0199292 -0.435561 
3 1.71465 1.71188 1.01633 0.352868 0 0 0 0.641585 0.223032 -0.361726 
305 1.96778 2.68477 0.38892 0.66176 0 0 0 0.243326 1.21747 0.507563 
197 2.25483 2.31211 0.348903 0.622003 0 0 0 0.537099 1.21489 0.278984 
405 2.37908 2.74231 0.381579 0.727047 0 0 0 0.265631 0.922366 0.602329 
401 2.75365 3.61333 0.332403 1.03903 0 0 0 0.115519 0.715404 0.107318 
13 1.55311 1.67705 1.20137 0.307978 0 0 0 0.78497 0.491313 -0.794961 
387 2.43187 1.68886 2.17908 0.610109 0 0 0 -3.33289 -1.77752 -2.9578 
482 2.51486 2.7582 2.04879 0.826879 0 0 0 -1.56782 -1.33391 -0.988803 
463 2.97195 2.60116 1.62743 0.818329 0 0 0 -1.07683 -0.446853 -0.0860683 
394 2.64216 1.6578 2.44452 0.691166 0 0 0 -1.51714 -0.0734335 -1.27251 
319 3.26547 1.82336 1.59356 0.744787 0 0 0 -0.412143 0.388304 0.342371 
500 3.11262 2.32837 2.11933 0.84898 0 0 0 -0.956599 -0.383035 -0.424589 
487 2.72994 2.14151 2.33655 0.768558 0 0 0 -1.73833 -0.883157 -1.23841 
502 2.94167 3.12339 2.45847 1.05466 0 0 0 -0.57035 -0.288423 -0.388151 
499 3.04773 2.90835 2.59199 1.0427 0 0 0 -0.532315 -0.292057 -0.37032 
429 3.27854 2.24372 1.5145 0.807217 0 0 0 -0.495951 0.0821241 0.239958 
504 1.83954 1.98446 2.30357 0.597535 0 0 0 -3.80815 -5.34154 -5.67735 
383 3.18367 1.50041 2.61693 0.827667 0 0 0 -0.0344087 0.389498 0.0164093 
99 1.58531 1.59037 3.49474 0.813438 0 0 0 0.149987 0.619362 0.283838 
382 2.94579 1.66321 3.32612 0.956236 0 0 0 0.0216724 0.231223 0.173933 
374 2.17945 1.70019 3.15936 0.782231 0 0 0 -0.40899 0.359932 -0.575201 
367 2.15103 1.73257 3.16271 0.783979 0 0 0 -0.427413 0.315502 -0.617732 
512 1.68194 3.18104 2.91328 0.986985 0 0 0 -0.181818 -0.379578 -0.491408 
498 3.03601 3.15207 3.07828 1.20085 0 0 0 -0.264353 -0.140526 -0.154725 
508 2.36175 2.26391 2.93276 0.848651 0 0 0 -1.00144 -0.572072 -1.04115 
488 2.76679 3.03524 3.02364 1.10813 0 0 0 -0.447071 -0.241909 -0.294046 
100 1.61345 1.74366 3.65538 0.886143 0 0 0 0.0867508 0.432686 0.364277 
245 1.53525 1.87342 3.55191 0.862727 0 0 0 0.113813 0.405985 0.174808 
ITEM: TIMESTEP
740925
ITEM: NUMBER OF ATOMS
512
ITEM: BOX BOUNDS ss ss ss
-8.1988304040437454e-01 3.8875120101141034e+00
-9.7693552394909078e-01 3.9476017366228966e+00
-9.1281994132074906e-01 3.9096273972560476e+00
ITEM: ATOMS id x y z width_SPH x_COM y_COM z_COM vx vy vz 
263 1.46291 0.886581 -0.255332 0.797052 0 0 0 -0.184374 0.0652826 0.617684 
403 1.47176 1.28213 -0.572768 0.83623 0 0 0 -0.296148 -0.417893 -0.281591 
25 0.482328 0.121035 0.00277885 1.02263 0 0 0 0.431095 0.529142 0.569949 
279 1.31897 1.03444 -0.484999 0.850875 0 0 0 -0.189045 -0.165806 0.106902 
402 1.48863 1.32749 -0.64803 0.856463 0 0 0 -0.281497 -0.40993 -0.421806 
16 0.283973 0.665587 0.148024 0.902202 0 0 0 0.586643 0.592041 0.780387 
8 0.548854 0.85157 0.116529 0.825726 0 0 0 0.734548 0.68267 1.15153 
131 1.20626 1.40835 0.666116 0.517569 0 0 0 4.80303 6.68794 7.38643 
217 -0.458207 1.32446 1.07566 0.827559 0 0 0 -0.140178 -0.412271 -0.139883 
2 -0.191092 0.57892 0.378228 0.976754 0 0 0 0.269514 0.355315 0.381158 
24 0.947326 0.538094 0.655927 0.732023 0 0 0 1.69018 2.78545 2.58781 
129 -0.0272361 1.21936 0.471871 0.80915 0 0 0 0.46502 -0.111314 0.504382 
224 -0.038167 1.2323 1.0979 0.718724 0 0 0 1.00099 -0.0777295 0.267256 
78 0.717501 0.416305 1.446 0.684298 0 0 0 2.08621 2.94761 0.725954 
67 0.056684 0.170711 1.35969 0.867431 0 0 0 0.646899 0.692244 0.00586643 
22 1.10962 0.782276 0.476561 0.689879 0 0 0 1.54636 2.71469 3.19788 
125 0.0919253 1.14992 0.334153 0.817636 0 0 0 0.529093 0.0432087 0.639758 
10 0.362736 0.340213 0.337061 0.920789 0 0 0 0.743308 0.865795 0.89714 
68 -0.62926 1.10997 1.49533 0.872302 0 0 0 -0.401453 -0.268308 -0.303176 
116 -0.467665 -0.22484 2.43602 1.06883 0 0 0 -0.510439 -0.413944 -0.0581817 
39 1.33122 1.26246 1.96204 0.349429 0 0 0 -0.248132 -0.392521 0.562175 
57 -0.13659 -0.184233 1.60661 0.978298 0 0 0 0.086325 0.0850645 -0.196869 
111 1.47861 0.661646 1.9495 0.479295 0 0 0 3.06076 4.5799 2.61119 
59 0.836225 1.31492 2.27398 0.459131 0 0 0 -1.05514 -0.0553155 0.985036 
183 0.48431 1.33661 2.61272 0.586946 0 0 0 -0.675397 -0.0650199 0.47969 
80 1.06797 1.32418 2.08948 0.394892 0 0 0 -0.907257 0.0278005 0.821282 
103 -0.666453 -0.192851 2.21681 1.11079 0 0 0 -0.541707 -0.31941 -0.0821329 
63 -0.481047 0.33577 1.67077 0.939107 0 0 0 -0.201741 0.026938 -0.274229 
64 0.692287 1.25103 1.95542 0.468134 0 0 0 1.81262 3.52143 2.44696 
65 1.41229 1.12561 2.09167 0.384754 0 0 0 0.113468 -1.07835 0.468898 
66 0.536328 -0.153292 1.56219 0.845277 0 0 0 0.649468 0.683625 -0.164165 
27 1.41506 1.32859 1.80373 0.309631 0 0 0 -0.41144 -0.393383 1.39426 
343 1.489 1.48457 1.52633 0.252367 0 0 0 0.062033 0.089103 -0.0237616 
69 0.578502 1.29326 2.42893 0.533075 0 0 0 -0.969951 -0.28353 0.404155 
82 0.156008 0.760125 1.618 0.699972 0 0 0 1.16237 0.800016 -0.325254 
71 0.319329 -0.0268562 1.59758 0.843493 0 0 0 0.618256 0.613305 -0.223016 
509 1.47935 1.4766 1.54574 0.254225 0 0 0 0.182425 0.086745 -0.118269 
226 0.739714 1.28996 2.43125 0.504121 0 0 0 -0.860202 -0.174972 0.697959 
511 1.41956 1.17051 2.0196 0.366045 0 0 0 0.0942222 -0.908399 0.297374 
118 0.968935 0.167086 2.50851 0.690238 0 0 0 -0.380108 -0.8971 -0.669426 
26 1.04232 1.47276 1.91231 0.366376 0 0 0 -0.425388 0.305447 0.348248 
77 0.568462 0.474333 2.28658 0.658596 0 0 0 -0.193246 -0.487494 -0.88353 
92 0.627969 -0.70738 2.33071 0.983503 0 0 0 -0.0562695 -0.633968 -0.231833 
107 0.249773 0.442633 2.19694 0.724251 0 0 0 -0.0884451 -0.275259 -0.803417 
122 1.04947 0.38489 2.37966 0.613129 0 0 0 -0.287018 -0.85851 -0.736377 
94 1.18309 0.612655 2.42577 0.545585 0 0 0 -0.173065 -1.01256 -0.01584 
247 0.952661 1.10213 2.48174 0.49749 0 0 0 -0.611904 -0.522909 0.847312 
73 1.44161 0.794423 2.54929 0.516408 0 0 0 0.0603081 -0.778559 0.685088 
87 0.756028 0.283349 2.07373 0.669735 0 0 0 0.35236 0.32875 -0.886046 
84 -0.667113 1.05544 2.40896 0.902831 0 0 0 -0.847633 -0.267154 -0.180989 
507 1.18214 1.13119 2.24891 0.425774 0 0 0 -0.48597 -0.575595 1.24114 
169 1.39493 0.991786 2.28374 0.43653 0 0 0 0.174843 -1.07735 1.11076 
85 0.770574 -0.606568 1.99597 0.927264 0 0 0 0.0904903 -0.341436 -0.356416 
371 1.36018 0.86878 2.51445 0.50015 0 0 0 -0.0254468 -0.820941 0.806102 
448 0.609052 1.28912 1.89858 0.483816 0 0 0 1.71742 3.16718 1.99176 
328 0.993115 0.774315 2.21877 0.511071 0 0 0 0.604071 0.591732 0.631523 
112 0.973444 1.266 2.2244 0.433463 0 0 0 -0.947338 -0.0536115 1.1968 
40 0.542459 1.29073 2.42961 0.540922 0 0 0 -0.994437 -0.331661 0.322484 
496 1.48486 1.48105 1.5348 0.253068 0 0 0 0.119646 0.0927881 -0.0759792 
42 1.22245 1.29781 2.00116 0.362853 0 0 0 -0.556955 -0.18843 0.501362 
237 1.1156 1.25582 2.14126 0.402226 0 0 0 -0.810494 -0.183983 0.983451 
494 1.38749 1.1901 2.0175 0.36435 0 0 0 -0.0149578 -0.800887 0.357488 
181 0.316491 1.14152 2.56082 0.62744 0 0 0 -0.957813 -0.73211 -0.0855308 
81 -0.121097 -0.621647 2.09638 1.08734 0 0 0 -0.196986 -0.422692 -0.131275 
83 1.18469 -0.506693 2.52987 0.870698 0 0 0 -0.142384 -0.821287 -0.309918 
232 0.998002 1.01239 2.54918 0.515988 0 0 0 -0.467526 -0.616702 0.77105 
93 -0.508158 0.844906 2.0297 0.851666 0 0 0 -0.540486 -0.298775 -0.44417 
61 1.51203 0.359943 1.94817 0.566527 0 0 0 0.589591 1.39728 -0.113102 
349 1.50386 -0.381647 1.57126 0.808644 0 0 0 -0.129194 0.234009 -0.291425 
253 1.16405 1.08584 2.39571 0.460853 0 0 0 -0.611546 -0.906929 0.937559 
193 -0.727536 1.42163 1.55279 0.877439 0 0 0 -0.696299 -0.372882 -0.30348 
506 1.46209 1.27674 1.83873 0.32002 0 0 0 -0.221834 -0.637742 0.94262 
44 -0.248212 1.37175 1.89731 0.712936 0 0 0 -0.599059 -0.717594 -0.652026 
32 1.23783 1.37168 1.88979 0.337002 0 0 0 -0.417901 -0.0101634 0.780565 
493 1.20601 1.42553 1.84335 0.3313 0 0 0 -0.25151 0.0108107 0.83384 
9 1.40197 1.32544 1.82114 0.313671 0 0 0 -0.524733 -0.595522 1.18563 
218 1.31592 1.40022 1.78919 0.309646 0 0 0 -0.538594 -0.470993 1.28638 
200 -0.243777 1.45153 1.90837 0.706233 0 0 0 -0.689908 -0.735871 -0.614254 
486 1.31685 1.26324 1.98201 0.354059 0 0 0 0.422669 0.775004 1.3475 
98 0.192035 0.505961 2.67417 0.762685 0 0 0 -0.547781 -0.679282 -0.319419 
113 1.36474 -0.767765 2.84603 0.993322 0 0 0 -0.0519219 -0.877646 0.0551696 
114 -0.662826 0.66739 3.0988 1.0467 0 0 0 -0.730319 -0.208075 0.29216 
108 0.827863 -0.375054 3.19939 0.967032 0 0 0 -0.179664 -0.683322 0.269357 
163 0.568712 0.925242 2.79804 0.645971 0 0 0 -0.628987 -0.714748 0.303358 
60 0.824463 1.36373 3.15258 0.691636 0 0 0 0.333331 0.629443 0.835944 
117 0.983522 0.117893 3.70192 0.978823 0 0 0 -0.129103 -0.308781 0.718542 
51 0.407861 1.42257 2.78813 0.642074 0 0 0 -0.346564 0.249816 0.656799 
88 1.42973 0.53892 3.62921 0.869881 0 0 0 0.00637564 0.0152791 0.894932 
109 -0.521014 -0.19517 3.25588 1.19582 0 0 0 -0.575229 -0.438262 0.393262 
90 -0.819603 0.596003 2.78624 1.05283 0 0 0 -0.798693 -0.216513 0.112032 
91 0.794653 1.1685 3.90935 0.962247 0 0 0 -0.00640092 0.133377 0.951542 
227 1.33614 1.35545 2.76353 0.562283 0 0 0 -0.0937111 0.239805 -0.637928 
438 0.692848 1.45415 3.02108 0.665651 0 0 0 0.310334 0.681433 0.831913 
119 0.71981 0.0526536 3.43824 0.932513 0 0 0 -0.230068 -0.438123 0.511962 
430 1.20336 0.667923 2.80487 0.606697 0 0 0 -0.284924 -0.688806 0.484941 
96 1.21336 -0.443193 3.49594 1.03712 0 0 0 -0.0581011 -0.627555 0.498 
121 -0.478889 0.852544 3.15732 0.981835 0 0 0 -0.686106 -0.196813 0.337557 
110 0.000523236 -0.178574 2.91004 0.989035 0 0 0 -0.415644 -0.545741 0.0950856 
120 -0.757157 1.33216 2.86286 0.982961 0 0 0 -0.85552 -0.0638556 0.192639 
104 0.101174 -0.598312 3.21263 1.14764 0 0 0 -0.345981 -0.642434 0.341682 
101 0.537341 0.503472 3.11842 0.786341 0 0 0 -0.405484 -0.52552 0.336933 
238 1.23272 1.23413 2.83499 0.574663 0 0 0 0.182209 0.586825 0.304302 
123 -0.31699 2.86792 -0.691709 1.18977 0 0 0 -0.540324 0.329788 -0.659806 
159 0.397828 3.05214 -0.625391 1.0548 0 0 0 -0.28571 0.503073 -0.690765 
142 1.18785 3.8051 -0.0596202 1.05791 0 0 0 -0.106354 0.892003 -0.316691 
126 -0.541279 3.21742 0.184407 1.10844 0 0 0 -0.644955 0.551735 -0.319687 
127 0.805508 2.06303 -0.832092 0.949857 0 0 0 -0.270547 -0.262301 -0.886168 
158 0.896472 2.14782 -0.502467 0.825355 0 0 0 -0.343735 -0.410898 -0.874037 
143 -0.162428 2.5139 -0.788994 1.13562 0 0 0 -0.507457 0.1168 -0.735171 
149 1.11663 2.1868 -0.912543 0.958572 0 0 0 -0.152828 -0.115961 -0.93986 
151 1.36322 3.36622 0.288898 0.844526 0 0 0 0.0302196 0.959199 0.0450339 
274 1.33476 2.01644 -0.0268119 0.636673 0 0 0 -0.366983 -0.743757 -0.663814 
157 0.013441 1.64299 0.12894 0.821071 0 0 0 -0.211074 -0.66683 -0.103381 
156 -0.609032 1.93331 -0.650129 1.19062 0 0 0 -0.599125 -0.0660169 -0.549846 
130 0.986168 2.15087 0.267687 0.593016 0 0 0 -0.524911 -0.340199 -0.634968 
148 0.698615 1.49458 -0.232559 0.791592 0 0 0 -0.0749978 -0.610807 0.0774525 
137 -0.708166 2.86988 0.246397 1.07808 0 0 0 -0.787196 0.323146 -0.31087 
138 0.424973 2.62752 -0.593786 0.963034 0 0 0 -0.356583 0.182119 -0.803825 
141 0.160026 1.997 -0.415263 0.914401 0 0 0 -0.476533 -0.434291 -0.672635 
140 0.862148 2.60215 -0.809091 0.97976 0 0 0 -0.192264 0.196971 -0.875594 
443 1.31897 2.0852 0.116071 0.599078 0 0 0 -0.363287 -0.428238 -0.73776 
444 1.48154 2.23981 0.0627776 0.620903 0 0 0 -0.259602 0.1341 -0.787028 
136 1.03226 1.89169 0.22151 0.597171 0 0 0 -0.148948 -0.793376 0.0688378 
268 1.46275 2.00807 0.113328 0.589762 0 0 0 -0.280107 -0.513222 -0.711731 
146 0.824171 2.05113 0.253739 0.615595 0 0 0 -0.451129 -0.790455 -0.379327 
180 0.816319 2.50707 0.78962 0.565316 0 0 0 -0.421938 1.23138 -0.299278 
190 0.821834 3.29161 1.17402 0.773675 0 0 0 0.338241 0.751379 0.36715 
178 -0.54674 3.08542 1.13917 0.974062 0 0 0 -0.646002 0.581684 -0.0204821 
220 0.899058 2.23255 1.45454 0.460902 0 0 0 -1.92832 -2.57261 -1.96267 
189 1.017 2.26105 0.814591 0.487555 0 0 0 -0.947468 1.1126 -0.60633 
165 1.04879 2.30439 0.745461 0.502538 0 0 0 -0.824501 1.15652 -0.661753 
128 1.38577 3.34334 1.25181 0.793524 0 0 0 0.238305 -0.0104497 0.379269 
185 0.70069 3.36968 1.30718 0.807799 0 0 0 0.30646 0.749863 0.31739 
168 0.779365 2.05426 1.00596 0.471617 0 0 0 -0.205642 1.53633 0.706347 
186 -0.767703 1.72336 0.48158 0.983532 0 0 0 -0.740614 -0.285021 -0.21162 
170 0.556736 2.28227 0.547176 0.609208 0 0 0 -0.639369 -0.127248 -0.555087 
171 0.28459 3.56153 0.91582 0.929538 0 0 0 -0.12409 0.922001 0.0251855 
175 -0.673997 2.64647 1.34235 0.922317 0 0 0 -0.838136 0.285613 -0.0589355 
124 0.946506 2.13446 1.0301 0.448062 0 0 0 -1.03345 1.02047 -0.156152 
187 -0.34198 2.06187 0.381155 0.853134 0 0 0 -0.732612 -0.502033 -0.36121 
134 1.44029 2.99976 0.715265 0.686527 0 0 0 0.237589 0.772239 0.575628 
198 1.10453 2.48524 1.32487 0.519685 0 0 0 -1.07334 -2.52525 -1.23766 
426 1.52561 1.8097 1.03415 0.350829 0 0 0 0.37416 0.399436 0.236435 
147 1.22188 1.92069 1.15987 0.365564 0 0 0 -0.682331 -0.613851 0.426613 
133 1.04449 2.31189 0.324236 0.588105 0 0 0 -0.518621 0.36553 -0.734235 
188 0.398825 2.22612 0.467426 0.652194 0 0 0 -0.608854 -0.528086 -0.52543 
20 1.40122 1.64925 1.36986 0.284342 0 0 0 1.58818 -0.49088 -0.210609 
216 -0.0737857 2.3515 1.33666 0.682759 0 0 0 -0.676852 0.162957 -0.233001 
206 -0.717446 1.91108 1.19378 0.879575 0 0 0 -0.88089 -0.36704 -0.250314 
154 -0.280094 3.20781 0.526564 0.978402 0 0 0 -0.533177 0.672501 -0.188902 
144 1.30246 2.01088 0.91294 0.40762 0 0 0 -0.672786 1.05432 -0.238347 
423 1.18172 2.03444 0.977321 0.411243 0 0 0 -0.85124 1.06122 0.0834779 
135 -0.226258 3.1214 0.410249 0.958213 0 0 0 -0.535645 0.632106 -0.247128 
192 0.529688 2.18854 0.465831 0.623396 0 0 0 -0.589919 -0.541675 -0.501805 
194 0.171573 2.21542 0.651665 0.670492 0 0 0 -0.63606 -0.568324 -0.480117 
196 0.990083 2.8906 1.10309 0.640603 0 0 0 0.388191 0.63329 0.419028 
203 0.532322 2.55462 0.541047 0.655197 0 0 0 -0.461061 0.623876 -0.448617 
150 1.41061 1.8856 0.988792 0.370977 0 0 0 2.86946 5.45852 3.78724 
214 -0.0711047 1.80495 0.791838 0.711169 0 0 0 -0.190207 -1.00772 -0.172914 
425 1.42103 1.95119 0.905402 0.394393 0 0 0 -0.268455 0.944502 -0.302203 
48 0.228417 2.29403 0.623417 0.667392 0 0 0 -0.652808 -0.340649 -0.509607 
162 1.52738 1.51565 1.44983 0.25479 0 0 0 -0.400386 0.113535 0.320294 
177 0.870211 1.99608 1.31465 0.416627 0 0 0 -0.427938 0.917074 0.358976 
139 0.90101 3.94732 0.7486 1.02061 0 0 0 -0.0239431 0.908766 -0.0296415 
461 1.38949 1.75363 1.23163 0.316837 0 0 0 0.788669 0.0389614 0.35311 
210 0.261606 2.17599 0.847561 0.616001 0 0 0 -0.594556 -0.510748 -0.434906 
480 1.02343 2.02374 1.13293 0.409871 0 0 0 -0.663888 0.947579 0.473087 
28 1.05077 1.83854 1.40401 0.360317 0 0 0 0.745463 0.122633 0.746305 
489 0.558847 2.27474 1.21427 0.519896 0 0 0 -0.639966 0.853558 -0.177996 
4 1.22246 1.72084 1.42293 0.315212 0 0 0 1.31351 -0.333592 0.538849 
19 1.14083 2.47427 0.428788 0.585363 0 0 0 -0.345409 1.10179 -0.529048 
336 0.479582 2.3743 1.1893 0.555288 0 0 0 -0.451897 0.940795 -0.14788 
469 1.04049 2.01732 1.12836 0.40697 0 0 0 -0.641444 0.936199 0.52019 
308 0.41719 2.3839 1.20765 0.56891 0 0 0 -0.421979 0.882987 -0.144401 
15 1.22459 1.86281 1.21614 0.35038 0 0 0 0.329915 0.109346 1.24191 
424 1.33272 2.62685 0.397186 0.618372 0 0 0 -0.0725313 1.29738 -0.162085 
7 1.37249 2.12816 0.709255 0.457164 0 0 0 -0.584451 1.11294 -1.16688 
174 1.2968 1.80757 1.23499 0.332178 0 0 0 0.573359 -0.124991 0.946074 
6 1.09487 1.81937 1.3936 0.350536 0 0 0 0.886032 -0.0218221 0.820292 
458 0.509346 2.15864 1.40969 0.503692 0 0 0 -0.692601 0.732815 -0.0555978 
433 1.53015 1.83937 0.985044 0.363366 0 0 0 0.317627 0.587877 0.0927489 
437 1.46749 2.04177 0.748689 0.434926 0 0 0 -0.336949 1.01716 -1.23221 
153 1.27973 1.81894 1.23334 0.335817 0 0 0 0.531754 -0.101257 1.03815 
286 1.4825 2.0299 0.753362 0.432215 0 0 0 -0.289538 0.996608 -1.23854 
195 0.960329 1.93965 1.32813 0.392724 0 0 0 -0.00403014 0.669696 0.653852 
399 1.51634 1.93623 0.866629 0.397935 0 0 0 -0.429275 0.22033 -1.13844 
354 0.503406 2.10106 1.49637 0.495895 0 0 0 -0.740884 0.714462 0.0203727 
372 1.50624 1.49957 1.49053 0.251512 0 0 0 -0.21303 0.0451196 0.264163 
164 0.232471 1.81996 1.47903 0.555413 0 0 0 -0.186987 -0.251086 -0.150831 
17 1.50458 1.49817 1.49392 0.251439 0 0 0 -0.188116 0.0475544 0.240277 
52 0.953891 1.86577 1.44847 0.38025 0 0 0 0.395644 0.462912 0.490501 
145 0.944091 3.68324 0.319778 0.962031 0 0 0 -0.0697295 0.942551 -0.136522 
256 0.558341 2.11605 1.73864 0.496384 0 0 0 -0.760059 0.519805 0.0906781 
495 1.0431 1.64388 1.68229 0.346147 0 0 0 0.726565 0.284299 0.134437 
248 0.868774 1.56291 1.93386 0.401685 0 0 0 -0.73395 0.724662 0.574544 
43 0.148918 2.3144 1.81884 0.623844 0 0 0 -0.186882 0.906613 0.491381 
76 0.906795 1.57912 1.88406 0.389082 0 0 0 -0.517854 0.646474 0.347165 
450 0.854473 1.64818 1.83469 0.397158 0 0 0 -0.471352 0.832808 0.328224 
166 1.19152 3.39112 1.71318 0.833435 0 0 0 0.311544 -0.187254 0.0848149 
70 0.975133 2.32043 2.30289 0.608749 0 0 0 0.374572 -1.55706 -1.46666 
199 -0.163993 2.48214 2.51656 0.815896 0 0 0 -0.221943 0.751761 0.499431 
223 -0.313715 3.51999 2.20263 1.0656 0 0 0 -0.342987 0.730773 0.185302 
201 -0.032301 3.0138 1.68138 0.815642 0 0 0 -0.0812501 0.978489 0.267424 
243 0.900446 2.03171 2.39421 0.562173 0 0 0 0.102773 -1.11856 -1.35639 
191 0.40201 2.14629 2.61255 0.667712 0 0 0 0.537631 1.16213 0.686852 
204 0.494256 3.8316 2.13436 1.03918 0 0 0 0.0831409 0.663354 0.133761 
49 0.769414 1.87248 1.59107 0.417373 0 0 0 -0.387866 1.00491 0.294942 
160 0.914957 1.82328 1.54462 0.382719 0 0 0 0.276576 0.470754 0.188044 
207 0.786915 2.75748 2.50756 0.754782 0 0 0 0.726065 0.142295 -0.11691 
208 1.03096 2.39107 1.63944 0.518082 0 0 0 -1.29714 -4.15715 -2.32248 
209 0.52945 2.2009 1.58261 0.507849 0 0 0 -0.583066 0.778421 0.0884175 
447 0.197365 2.26426 2.14674 0.639123 0 0 0 0.085845 1.11298 0.777312 
211 0.711175 3.69219 1.79547 0.943621 0 0 0 0.228627 0.561482 0.152207 
212 0.655035 3.28581 1.83326 0.812312 0 0 0 0.469045 0.508446 0.27324 
213 0.0678185 3.47691 2.25792 0.980742 0 0 0 -0.0320829 0.748346 0.22939 
490 1.46129 1.49804 1.53103 0.253854 0 0 0 1.29198 -0.710918 0.128529 
215 0.794995 3.88392 2.27497 1.06153 0 0 0 0.149 0.502805 0.0717024 
184 1.5004 1.49456 1.50257 0.251402 0 0 0 -0.121557 0.057424 0.17166 
55 0.266686 2.26506 1.5319 0.57451 0 0 0 -0.404382 0.671139 0.0856558 
505 0.361106 1.60465 2.26192 0.548764 0 0 0 -0.983653 0.180577 0.294838 
255 1.2108 2.61045 2.1765 0.668951 0 0 0 0.0488443 -2.31932 -1.57558 
479 0.0168431 2.36863 2.04039 0.686488 0 0 0 -0.169969 0.920355 0.583093 
173 -0.124539 1.9162 1.83532 0.659831 0 0 0 -0.837729 -0.402939 -0.215187 
318 0.349865 1.78873 2.07953 0.534864 0 0 0 -0.89896 0.413717 0.360434 
54 0.430611 1.94054 1.8001 0.502882 0 0 0 -0.875824 0.602239 0.284636 
34 0.25999 2.18277 1.85538 0.577332 0 0 0 -0.275794 0.845179 0.514642 
172 0.16596 2.12749 1.58858 0.582574 0 0 0 -0.604277 0.131395 -0.0735068 
229 1.08131 2.33348 2.53378 0.661702 0 0 0 0.497448 -1.05241 -1.40603 
234 1.0441 1.64647 1.67795 0.345827 0 0 0 0.745011 0.277187 0.135978 
252 1.15751 1.61768 1.62228 0.318147 0 0 0 1.06399 -0.250463 0.524726 
235 1.04833 1.62001 1.71022 0.345715 0 0 0 0.626198 0.289159 0.162553 
29 0.843071 1.72179 1.74557 0.396695 0 0 0 -0.258699 0.877819 0.21613 
513 0.660683 1.56778 2.09005 0.460316 0 0 0 -1.20266 0.513735 0.742801 
241 1.0601 1.60521 1.72045 0.343451 0 0 0 0.600815 0.255528 0.207317 
38 0.320511 1.75881 2.2745 0.56625 0 0 0 -0.693027 0.511573 0.471384 
35 0.25208 1.7616 2.40265 0.603928 0 0 0 -0.543887 0.556815 0.510724 
30 0.500199 1.66023 2.12088 0.499534 0 0 0 -1.10751 0.44083 0.49658 
239 -0.586857 2.64442 2.57886 0.974141 0 0 0 -0.577157 0.458323 0.29807 
233 0.904605 1.60663 1.8497 0.386762 0 0 0 -0.399089 0.669477 0.256727 
75 0.829561 1.66229 1.83748 0.40314 0 0 0 -0.564041 0.867469 0.365769 
219 1.50021 1.49439 1.50297 0.251406 0 0 0 -0.118379 0.0579829 0.168258 
167 1.50039 1.49455 1.50259 0.251402 0 0 0 -0.121419 0.0574482 0.171512 
466 1.5002 1.49438 1.503 0.251406 0 0 0 -0.11815 0.0580233 0.168014 
471 1.50021 1.49439 1.50297 0.251406 0 0 0 -0.118423 0.0579751 0.168305 
36 1.50028 1.49445 1.50282 0.251404 0 0 0 -0.119598 0.0577682 0.169563 
278 1.50195 1.49591 1.49935 0.251391 0 0 0 -0.146701 0.0532439 0.198225 
37 1.50088 1.49498 1.50157 0.251396 0 0 0 -0.12947 0.0561274 0.179996 
58 1.50159 1.49559 1.50011 0.251391 0 0 0 -0.140957 0.054252 0.192084 
47 1.07813 1.7557 1.4997 0.343426 0 0 0 1.02049 -0.136259 0.347755 
477 1.50167 1.49566 1.49993 0.251391 0 0 0 -0.142176 0.0539624 0.193493 
355 1.50134 1.49537 1.50063 0.251392 0 0 0 -0.136787 0.0548386 0.187828 
334 1.50104 1.49511 1.50125 0.251394 0 0 0 -0.131885 0.0556538 0.182648 
476 1.50097 1.49505 1.50139 0.251395 0 0 0 -0.130813 0.0558342 0.181512 
179 1.50088 1.49498 1.50157 0.251396 0 0 0 -0.129406 0.0560723 0.180019 
222 1.50059 1.49472 1.50219 0.251399 0 0 0 -0.124568 0.0569008 0.174873 
302 1.50065 1.49478 1.50205 0.251398 0 0 0 -0.125655 0.0567134 0.176031 
176 1.50066 1.49478 1.50204 0.251398 0 0 0 -0.125715 0.056703 0.176095 
225 0.922813 2.39726 3.41235 0.888289 0 0 0 0.373681 0.377052 0.311805 
106 0.30274 2.02715 3.35324 0.857243 0 0 0 0.120801 0.569733 0.780088 
249 -0.498566 2.47088 2.81672 0.959175 0 0 0 -0.536674 0.431533 0.394135 
228 -0.10866 3.23446 3.60258 1.22453 0 0 0 -0.281616 0.494553 0.579492 
254 -0.486124 2.76307 3.51221 1.1744 0 0 0 -0.47113 0.385439 0.584954 
230 0.506969 3.71141 2.99961 1.13779 0 0 0 0.0269092 0.555035 0.264744 
231 0.569905 2.2762 3.57918 0.93509 0 0 0 0.214656 0.457941 0.686155 
242 0.54418 2.40528 3.25164 0.856905 0 0 0 0.388568 0.605964 0.516859 
246 -0.356558 2.01124 3.52012 1.04153 0 0 0 -0.460411 0.227395 0.669546 
464 0.277931 1.66567 2.73315 0.660819 0 0 0 -0.253173 0.600742 0.673439 
205 0.789512 1.62298 3.04757 0.674939 0 0 0 0.588821 0.903136 0.639764 
251 0.368726 3.45848 3.03809 1.07462 0 0 0 0.0473358 0.574852 0.331777 
105 -0.172738 1.52945 3.72937 1.04181 0 0 0 -0.383871 0.0755028 0.777713 
250 0.796416 3.13054 3.39931 1.05193 0 0 0 0.16801 0.346731 0.318568 
244 1.25516 2.37352 3.45389 0.901675 0 0 0 0.225143 0.194237 0.0630402 
240 -0.316582 3.69299 3.40911 1.33894 0 0 0 -0.39856 0.574305 0.443198 
257 3.62638 1.21803 -0.278455 1.02738 0 0 0 0.662277 -0.0959488 -0.447612 
441 1.86625 1.15928 0.029397 0.661003 0 0 0 -0.675362 -0.369651 0.601614 
288 3.67372 0.857919 0.0530682 0.991896 0 0 0 0.717079 -0.235567 -0.334337 
260 3.1323 0.82798 -0.609122 1.01911 0 0 0 0.333836 -0.274324 -0.675072 
261 3.52399 -0.100133 0.154677 1.093 0 0 0 0.502732 -0.634783 -0.330567 
276 2.55308 0.780191 -0.320855 0.838318 0 0 0 -0.251421 -0.56677 -0.54773 
427 2.22868 1.08023 0.208778 0.632713 0 0 0 -0.822417 -0.713986 -0.101751 
285 1.77615 0.218846 -0.0315045 0.864555 0 0 0 -0.18559 0.145294 0.517852 
436 2.35115 1.42218 -0.0512771 0.67833 0 0 0 -0.406573 -0.673986 -0.734133 
266 2.66025 0.936348 -0.843433 1.00718 0 0 0 0.0635731 -0.223781 -0.783951 
267 3.03038 0.608845 -0.0398146 0.865185 0 0 0 0.159058 -0.643765 -0.506138 
293 2.10191 1.07614 -0.870533 0.957158 0 0 0 -0.174104 -0.223636 -0.71872 
269 2.55512 0.949696 -0.706892 0.943093 0 0 0 -0.0495122 -0.288862 -0.74354 
270 2.46766 0.612217 -0.432216 0.891631 0 0 0 -0.2235 -0.523996 -0.496711 
271 3.2313 -0.579438 -0.176082 1.23192 0 0 0 0.360724 -0.692768 -0.376343 
272 1.6467 0.823023 0.12852 0.702434 0 0 0 -0.205634 0.701095 1.55332 
284 2.0421 0.324116 -0.432479 0.936213 0 0 0 -0.24377 -0.335199 -0.149023 
290 2.38962 -0.690843 -0.214175 1.17656 0 0 0 0.0652944 -0.547454 -0.230057 
291 3.16122 0.334518 -0.49273 1.06555 0 0 0 0.325714 -0.499024 -0.575629 
294 3.06872 0.327574 0.682206 0.794012 0 0 0 0.10174 -0.942268 -0.433163 
23 1.96011 1.40533 1.23484 0.349079 0 0 0 -0.59968 -0.216934 0.0857822 
453 2.93384 0.913307 1.3622 0.602816 0 0 0 0.732829 -0.100589 0.13243 
18 1.90806 1.36094 1.34067 0.333033 0 0 0 -1.25072 0.0135159 0.295518 
298 2.04665 1.34271 1.25147 0.367169 0 0 0 -0.54046 -0.421442 0.0781953 
299 2.91921 0.965582 1.15319 0.600937 0 0 0 0.695793 -0.294037 -0.119172 
451 2.12579 1.28904 1.26587 0.385299 0 0 0 -0.254687 -0.637252 -0.0746885 
301 3.70183 0.535433 1.4268 0.900415 0 0 0 0.879129 -0.217184 0.0445848 
264 2.45148 0.855521 0.620122 0.597324 0 0 0 -0.523667 -0.843214 -0.416906 
445 2.28054 1.21985 1.24787 0.423474 0 0 0 0.555494 -0.751954 -0.307413 
304 2.19735 1.11987 1.14351 0.431064 0 0 0 2.27634 2.7858 2.37148 
41 2.86421 0.991055 0.872278 0.609248 0 0 0 0.493102 -0.669941 -0.497269 
306 1.99418 1.20524 1.4957 0.358716 0 0 0 -1.55156 -0.17492 0.0557253 
307 2.07219 1.04507 1.19284 0.425459 0 0 0 3.78063 7.11332 5.7153 
277 2.64748 1.39933 0.721802 0.548762 0 0 0 0.848607 -0.164935 -0.410694 
309 3.42368 0.409361 1.28612 0.825458 0 0 0 0.705409 -0.507612 -0.10809 
310 2.04761 -0.00925481 1.06794 0.725921 0 0 0 -0.566244 0.412301 0.0784787 
311 2.88348 1.04322 0.925475 0.602778 0 0 0 0.62762 -0.456751 -0.367907 
341 2.75569 1.06757 0.733249 0.594098 0 0 0 0.363294 -0.793624 -0.668234 
432 2.74186 1.44695 0.883125 0.554673 0 0 0 0.862966 0.249297 0.0388795 
161 2.00055 1.43222 1.16425 0.363505 0 0 0 -0.070085 -0.338478 -0.117138 
182 2.69528 1.32604 0.523274 0.596688 0 0 0 0.459693 -0.519142 -0.622923 
316 2.92723 -0.308195 0.756844 0.924414 0 0 0 0.0547732 -0.866033 -0.307181 
317 3.34937 0.0147857 0.768074 0.924401 0 0 0 0.394666 -0.76771 -0.282438 
275 3.4093 -0.820415 0.709981 1.195 0 0 0 0.430013 -0.788087 -0.184221 
33 2.65971 0.845089 1.48872 0.537874 0 0 0 0.731253 -0.58479 0.0576516 
320 1.86541 0.0375386 0.931905 0.734201 0 0 0 -0.348763 1.04581 0.599278 
72 2.19325 1.16817 1.39318 0.403133 0 0 0 -0.136046 -0.769958 -0.0248508 
265 1.93826 -0.369082 0.732912 0.882173 0 0 0 -0.204904 0.0532897 0.1577 
501 2.42646 1.15684 1.21412 0.46078 0 0 0 0.925075 -0.612956 -0.326173 
56 2.5703 0.702979 0.532522 0.656291 0 0 0 -0.587875 -1.04465 -0.472236 
325 2.33716 1.10412 1.34222 0.440664 0 0 0 0.761371 -0.601384 0.030364 
287 2.41139 -0.366541 0.555638 0.915706 0 0 0 -0.190772 -0.554738 -0.138718 
327 3.36121 1.249 1.48977 0.729284 0 0 0 0.60284 0.610906 0.465236 
329 1.95981 0.20888 1.1445 0.655282 0 0 0 -0.514353 1.3614 0.567956 
428 2.78133 0.813912 1.48194 0.571739 0 0 0 0.696727 -0.434607 0.0856344 
31 2.45656 0.720501 0.487631 0.649597 0 0 0 -0.729142 -0.862205 -0.283668 
283 1.7857 0.844356 0.903002 0.529904 0 0 0 2.21586 7.11871 5.73044 
326 2.49871 1.10643 1.22628 0.479729 0 0 0 0.917701 -0.587139 -0.275508 
470 3.20795 1.21787 1.38466 0.675381 0 0 0 0.604906 0.650633 0.47988 
313 2.78304 0.837256 1.4233 0.569375 0 0 0 0.688837 -0.469796 0.0304708 
457 1.88293 1.3176 1.42382 0.328052 0 0 0 -1.57492 0.173707 0.32553 
455 2.0993 1.46728 1.04025 0.39674 0 0 0 0.737332 -0.566803 -0.644797 
422 2.35314 1.29626 1.0816 0.446576 0 0 0 1.03417 -0.563907 -0.623701 
456 2.55983 0.341722 1.38463 0.628056 0 0 0 -0.349829 -1.08267 -0.530489 
474 1.85406 1.42 1.30336 0.322764 0 0 0 -0.756494 0.168969 0.00900893 
300 3.62898 -0.222323 1.47508 1.02442 0 0 0 0.628926 -0.628316 -0.0936902 
478 2.35709 1.45326 0.867198 0.466218 0 0 0 1.20519 -0.344472 -0.812715 
340 1.70262 1.43605 1.41147 0.286349 0 0 0 -0.969123 0.607439 -0.388267 
281 1.70783 0.00684747 0.314221 0.851723 0 0 0 -0.0686489 0.525073 0.736442 
333 2.95214 0.625808 2.5762 0.753151 0 0 0 0.713161 0.398762 0.502282 
323 1.96023 1.06256 1.74772 0.382669 0 0 0 -0.574245 -0.518579 -0.531218 
335 2.66603 0.847284 2.44812 0.646096 0 0 0 0.592418 0.832736 0.53072 
491 1.78686 1.17973 1.70549 0.338067 0 0 0 -0.880154 0.102687 -0.515328 
337 2.05362 -0.945731 1.91696 0.993531 0 0 0 -0.0302103 -0.872264 -0.198434 
338 3.03183 0.240143 2.16305 0.772457 0 0 0 0.621379 -0.4005 0.185005 
339 1.79311 0.243035 1.69179 0.597994 0 0 0 -0.16221 1.31186 -0.0846949 
370 1.65925 -0.976658 2.59511 1.0346 0 0 0 -0.00372319 -0.913987 -0.00499039 
452 2.42607 0.24412 1.74988 0.624616 0 0 0 -0.262864 -1.04644 -0.489107 
295 2.09994 0.574208 2.39619 0.559713 0 0 0 0.422624 -0.5549 0.449745 
296 2.19625 1.05236 1.56909 0.416347 0 0 0 0.0524884 -0.767721 0.00158308 
344 2.37282 0.960795 1.94511 0.493172 0 0 0 0.0946065 -0.747928 -0.195049 
345 3.40709 1.06476 2.12278 0.795712 0 0 0 0.617693 0.513851 0.408937 
346 2.01393 0.960264 1.86444 0.415941 0 0 0 0.212418 -0.860876 0.0018265 
364 1.68475 1.12265 1.87405 0.355486 0 0 0 0.0337139 -0.642301 -0.440773 
348 3.88723 1.46543 2.1892 0.984176 0 0 0 0.623091 0.145066 0.180687 
331 2.11756 0.995939 1.72374 0.415843 0 0 0 0.0794812 -0.76451 -0.0602898 
350 2.36019 -0.0946119 1.61189 0.719206 0 0 0 -0.476406 -0.847116 -0.611102 
351 1.77257 1.2331 1.64011 0.323699 0 0 0 -1.06179 0.265159 -0.192245 
352 2.46185 0.668522 2.2626 0.582334 0 0 0 0.676358 0.0573294 0.582499 
363 2.55574 -0.637631 2.03573 0.923301 0 0 0 0.0626264 -0.993204 -0.189409 
45 1.68419 1.14928 1.83489 0.346042 0 0 0 -0.0692618 -0.451027 -0.387081 
365 1.6938 0.222889 2.39009 0.619917 0 0 0 -0.2468 -1.20425 -0.52249 
356 3.26093 1.43479 2.49168 0.819988 0 0 0 0.0771877 0.442797 0.108639 
357 2.16285 1.08649 2.2483 0.502361 0 0 0 -1.1953 -1.2663 -1.34793 
358 2.14803 0.666401 2.60499 0.5953 0 0 0 0.560567 0.181496 0.638764 
359 3.56757 -0.600355 2.2103 1.1353 0 0 0 0.571192 -0.671627 0.0263211 
360 1.95002 0.186183 2.18312 0.617079 0 0 0 -0.299145 -1.06736 -0.548449 
361 2.06205 -0.717435 1.53364 0.91687 0 0 0 -0.165963 -0.667998 -0.288197 
362 2.41713 0.27434 1.96775 0.621373 0 0 0 -0.0196188 -1.05128 -0.266923 
460 1.97017 1.14592 1.60674 0.364133 0 0 0 -1.33178 -0.186115 -0.367894 
303 2.32214 1.05422 1.64055 0.446361 0 0 0 -0.243748 -1.64981 -0.782023 
393 1.97008 -0.328927 2.07152 0.77005 0 0 0 -0.341795 -0.895147 -0.523365 
324 2.45378 0.691625 1.9828 0.539931 0 0 0 0.658943 -0.447221 0.399764 
312 3.14154 1.31988 1.96638 0.699459 0 0 0 -0.0356847 0.799481 0.326149 
375 1.79871 0.91845 2.0944 0.426677 0 0 0 0.57227 -1.16251 0.509273 
459 2.65915 0.457151 1.80806 0.612566 0 0 0 0.369621 -0.819377 -0.0487085 
62 1.74291 1.05768 1.9291 0.377706 0 0 0 0.103426 -0.930839 -0.414887 
380 2.33975 0.664182 2.34273 0.573095 0 0 0 0.614338 -0.00924322 0.600906 
485 1.68785 1.16812 1.80446 0.339539 0 0 0 -0.17198 -0.321803 -0.330186 
510 2.07899 0.979129 1.78211 0.415853 0 0 0 0.124161 -0.792078 -0.0556446 
497 1.81804 0.609477 2.48231 0.542852 0 0 0 0.301585 -0.771589 0.409385 
347 1.77136 -0.881268 1.974 0.962736 0 0 0 -0.089568 -0.786574 -0.247531 
377 3.60723 1.30346 2.5684 0.933682 0 0 0 0.514231 0.272027 0.238893 
314 2.71491 0.746778 1.72331 0.570737 0 0 0 0.739701 -0.292782 0.266984 
388 1.75469 1.18522 1.72428 0.334975 0 0 0 -0.686776 0.0366829 -0.441653 
315 2.63579 0.314 1.72365 0.63892 0 0 0 0.0537997 -1.0421 -0.326332 
472 2.09293 0.870481 1.94173 0.448094 0 0 0 0.491631 -0.963541 0.346107 
483 1.82859 0.756589 2.34807 0.493685 0 0 0 0.439296 -0.869956 0.607048 
481 2.18419 0.922707 1.7832 0.441245 0 0 0 0.4504 -0.865773 0.161182 
53 1.96946 0.837115 2.09146 0.45493 0 0 0 0.52347 -1.05339 0.546169 
484 1.5969 0.907429 2.25911 0.44375 0 0 0 0.520518 -1.21083 0.880114 
384 3.3199 -0.642185 2.68997 1.13434 0 0 0 0.468068 -0.689856 0.149522 
79 1.68551 1.09272 1.92022 0.366691 0 0 0 0.137642 -0.882637 -0.419296 
492 1.57913 1.14674 1.92413 0.353496 0 0 0 0.285121 -0.82331 -0.0684408 
102 1.57314 0.883401 2.31388 0.456292 0 0 0 0.432591 -1.15584 0.885979 
353 2.07855 1.26353 2.64017 0.58862 0 0 0 -0.785023 0.435457 -1.26516 
462 2.05821 1.16866 1.5 0.374841 0 0 0 -1.12479 -0.44139 -0.00749152 
366 3.18681 0.394559 3.69956 1.11941 0 0 0 0.427844 -0.0589626 0.661251 
89 1.72108 0.843365 2.90214 0.61281 0 0 0 0.333659 0.563459 0.677279 
368 3.28497 -0.26178 3.55747 1.21015 0 0 0 0.427461 -0.424278 0.520472 
369 3.64678 0.246237 3.45704 1.1909 0 0 0 0.60826 -0.163269 0.482312 
378 2.68148 0.577431 2.86988 0.757394 0 0 0 0.5896 0.356561 0.599827 
389 2.14753 0.922809 3.36328 0.790335 0 0 0 0.301156 0.639942 0.697738 
95 1.59937 0.24486 3.84569 0.991729 0 0 0 0.0259896 -0.174653 0.844414 
373 1.65834 -0.088468 2.8068 0.767136 0 0 0 -0.127119 -0.983996 -0.0239122 
390 2.59699 1.19523 3.71533 0.975799 0 0 0 0.204641 0.334125 0.633321 
86 1.82023 1.15323 3.19897 0.705232 0 0 0 0.238559 0.999406 0.374331 
376 2.3167 1.03752 3.19033 0.758195 0 0 0 0.302523 0.831237 0.474041 
391 3.65086 0.0254009 3.45501 1.22492 0 0 0 0.591514 -0.27621 0.462928 
236 1.54662 0.573465 2.7692 0.60373 0 0 0 0.00793028 -0.614125 0.469196 
379 2.2848 0.0643832 2.74733 0.757385 0 0 0 0.19767 -0.711364 0.263029 
392 3.16307 0.16408 2.91474 0.933111 0 0 0 0.561874 -0.181147 0.368092 
381 3.33651 -0.184168 3.45156 1.17626 0 0 0 0.468456 -0.388443 0.486796 
115 1.62185 0.856733 2.99928 0.635539 0 0 0 0.269717 0.566812 0.738445 
386 3.19116 1.24291 3.66153 1.08252 0 0 0 0.343934 0.202042 0.542282 
97 1.83972 0.614674 2.73122 0.59905 0 0 0 0.34172 -0.192282 0.590652 
385 2.36353 -0.0875459 3.34842 0.945015 0 0 0 0.184303 -0.438183 0.551899 
413 2.04561 3.55205 0.256292 0.937596 0 0 0 0.0167814 0.826876 0.106755 
396 3.29248 3.22369 0.0353778 1.0748 0 0 0 0.396749 0.490318 -0.15113 
417 1.86394 3.11945 -0.421524 0.93895 0 0 0 0.0259705 0.635516 -0.497416 
398 3.25696 2.67494 0.143852 0.921573 0 0 0 0.46572 0.363346 -0.0248052 
418 3.60253 2.06813 -0.0315414 0.979937 0 0 0 0.668175 0.103273 -0.267778 
400 3.51107 2.53616 -0.0693608 1.01264 0 0 0 0.566661 0.207821 -0.261317 
420 1.73365 2.37769 -0.458372 0.802561 0 0 0 0.0173709 0.149954 -0.821958 
414 2.02101 2.40556 -0.00567774 0.688318 0 0 0 0.194012 0.747582 -0.386208 
416 2.84934 3.42507 -0.151612 1.0695 0 0 0 0.207366 0.613222 -0.261564 
404 3.3127 3.00276 -0.201172 1.07257 0 0 0 0.424771 0.366707 -0.332236 
415 3.39605 3.43408 0.0890896 1.15433 0 0 0 0.404608 0.538799 -0.151412 
322 1.89506 1.81395 -0.137589 0.663465 0 0 0 -0.322333 -0.680471 -0.736552 
407 3.49974 1.68272 -0.386596 1.01347 0 0 0 0.5776 0.0301311 -0.502837 
408 2.0203 1.93863 -0.60719 0.832008 0 0 0 -0.0249752 -0.176087 -0.869652 
202 2.56613 1.60661 0.174897 0.644145 0 0 0 0.242771 -0.252944 -0.704201 
410 3.59069 2.9862 -0.00985346 1.11005 0 0 0 0.546391 0.338191 -0.221803 
411 1.93646 3.6786 -0.355096 1.08849 0 0 0 -0.0202915 0.765217 -0.418128 
289 2.40057 1.93838 0.244708 0.614266 0 0 0 0.514081 0.450121 -0.390109 
262 1.74618 2.15121 0.279788 0.55517 0 0 0 0.0126871 0.57761 -0.810461 
12 2.05404 1.71887 0.758028 0.438059 0 0 0 1.01302 -0.0352509 -1.31527 
419 2.13204 2.72407 0.899592 0.661814 0 0 0 -0.342947 -0.253345 0.907352 
406 2.42478 3.61754 0.659944 0.970488 0 0 0 -0.017905 0.633412 0.325811 
5 1.83387 1.60258 1.06898 0.350521 0 0 0 0.517968 -0.00481506 -0.439424 
282 2.10939 1.7138 0.725191 0.451019 0 0 0 1.0295 -0.00761815 -1.22503 
332 2.94216 1.87249 1.48282 0.658015 0 0 0 -1.34669 0.0500244 0.272312 
273 1.97812 2.02247 0.498338 0.50573 0 0 0 0.418102 0.715703 -0.889638 
465 1.55317 1.80293 1.02062 0.352752 0 0 0 0.423269 0.413099 0.116402 
473 2.46736 1.59649 0.666429 0.518464 0 0 0 0.967221 0.00924962 -0.462002 
431 2.32609 2.05448 0.519982 0.560181 0 0 0 0.724014 0.99381 0.16315 
14 1.55419 1.9333 0.828378 0.40507 0 0 0 0.0452504 0.830893 -0.972156 
292 1.85025 1.93216 0.623187 0.458615 0 0 0 0.52013 0.63327 -1.4556 
434 2.75645 2.12255 0.776668 0.640352 0 0 0 0.275873 0.828447 0.976985 
435 2.27547 2.78874 1.36395 0.724149 0 0 0 -1.28379 -1.59761 0.0352859 
449 1.78492 1.65286 1.04032 0.351596 0 0 0 0.619792 0.0966771 -0.444213 
397 2.83483 3.18348 0.751314 0.894632 0 0 0 -0.0119072 0.462729 0.500419 
503 1.69433 1.53293 1.28277 0.296979 0 0 0 0.0867721 0.668193 -1.17544 
439 2.23608 1.68881 0.721606 0.470075 0 0 0 0.997357 -0.14941 -1.01171 
440 3.40613 2.58476 1.18372 0.890003 0 0 0 0.014788 0.225991 0.341522 
321 3.75635 1.95027 1.30417 0.908668 0 0 0 0.522729 0.20446 0.235066 
442 2.01408 1.55506 0.987734 0.389571 0 0 0 0.846724 -0.376167 -0.680713 
280 3.36553 1.92081 0.844522 0.776137 0 0 0 0.563143 0.495301 0.460943 
409 2.06934 2.09244 1.0096 0.487069 0 0 0 -3.00253 -4.83868 -2.50973 
132 1.60201 2.67398 1.2318 0.597747 0 0 0 -0.897007 -2.87828 -0.34102 
412 3.37692 2.95079 0.915986 0.958069 0 0 0 0.18543 0.354271 0.32906 
467 2.39567 1.70781 0.607559 0.518879 0 0 0 0.911615 0.184885 -0.454073 
475 1.63586 1.75674 1.0182 0.351083 0 0 0 0.571606 0.319961 -0.170234 
297 1.88584 2.11886 0.46826 0.516639 0 0 0 0.269523 0.90044 -0.810837 
258 1.88164 2.0785 0.490076 0.505806 0 0 0 0.292612 0.819101 -0.959193 
21 1.95025 1.79309 0.736977 0.433789 0 0 0 0.834855 0.192562 -1.45162 
155 1.57047 2.57302 1.0308 0.556271 0 0 0 -0.930917 -1.97387 -0.346439 
152 1.64318 3.26844 0.896401 0.775456 0 0 0 0.145035 0.32024 0.577051 
330 3.25834 2.11222 1.26292 0.765143 0 0 0 -0.227432 0.346542 0.51737 
50 2.10972 2.01881 0.461291 0.528915 0 0 0 0.52324 0.760755 -0.524054 
11 1.827 1.65768 0.998585 0.364159 0 0 0 0.725831 0.0561539 -0.479265 
221 3.06293 2.07824 0.893016 0.704359 0 0 0 0.191675 0.67587 0.805535 
74 3.0486 1.89688 0.613144 0.697122 0 0 0 0.733909 0.698594 0.481381 
446 2.36993 1.57696 0.416031 0.551075 0 0 0 0.33832 -0.381284 -0.777639 
395 2.2081 3.17317 0.332811 0.823205 0 0 0 0.0906654 0.789272 0.380124 
259 2.61541 1.55377 0.447518 0.589889 0 0 0 0.615073 -0.135008 -0.484161 
421 3.45213 3.42163 0.546131 1.11866 0 0 0 0.356753 0.514225 0.0955157 
454 1.56663 1.58655 1.31648 0.280874 0 0 0 0.559166 0.530568 -1.02844 
46 1.85724 1.59487 1.06018 0.354942 0 0 0 0.53887 -0.0521325 -0.419243 
342 1.94865 1.51663 1.09143 0.362945 0 0 0 0.365439 -0.24797 -0.311682 
468 1.84503 1.61503 1.04262 0.356903 0 0 0 0.604826 -0.019928 -0.435566 
3 1.71465 1.71188 1.01633 0.352869 0 0 0 0.641561 0.223029 -0.361736 
305 1.96778 2.68477 0.38892 0.66176 0 0 0 0.243324 1.21747 0.507566 
197 2.25483 2.31211 0.348903 0.622004 0 0 0 0.537096 1.21489 0.278989 
405 2.37908 2.74231 0.381579 0.727047 0 0 0 0.265629 0.922365 0.602331 
401 2.75365 3.61333 0.332403 1.03903 0 0 0 0.115518 0.715404 0.107319 
13 1.55311 1.67705 1.20137 0.307978 0 0 0 0.784922 0.491279 -0.795005 
387 2.43187 1.68886 2.17907 0.610108 0 0 0 -3.33292 -1.77755 -2.95783 
482 2.51486 2.7582 2.04879 0.826878 0 0 0 -1.56783 -1.33392 -0.988806 
463 2.97195 2.60116 1.62743 0.818329 0 0 0 -1.07683 -0.446853 -0.0860688 
394 2.64216 1.6578 2.44452 0.691165 0 0 0 -1.51715 -0.0734356 -1.27252 
319 3.26547 1.82336 1.59356 0.744787 0 0 0 -0.412147 0.388302 0.342371 
500 3.11262 2.32837 2.11933 0.84898 0 0 0 -0.956604 -0.383035 -0.424589 
487 2.72994 2.14151 2.33655 0.768557 0 0 0 -1.73834 -0.88316 -1.23842 
502 2.94167 3.12339 2.45847 1.05466 0 0 0 -0.570353 -0.288422 -0.38815 
499 3.04773 2.90835 2.59199 1.0427 0 0 0 -0.532318 -0.292055 -0.37032 
429 3.27854 2.24372 1.5145 0.807217 0 0 0 -0.495955 0.082124 0.239957 
504 1.83954 1.98446 2.30356 0.597532 0 0 0 -3.80824 -5.34167 -5.67746 
383 3.18367 1.50041 2.61693 0.827668 0 0 0 -0.0344112 0.389499 0.0164091 
99 1.58531 1.59037 3.49474 0.813439 0 0 0 0.149987 0.619364 0.283838 
382 2.94579 1.66321 3.32612 0.956237 0 0 0 0.0216713 0.231225 0.173933 
374 2.17945 1.70019 3.15936 0.782231 0 0 0 -0.408992 0.359934 -0.575203 
367 2.15102 1.73257 3.16271 0.783979 0 0 0 -0.427415 0.315504 -0.617733 
512 1.68194 3.18104 2.91328 0.986985 0 0 0 -0.181819 -0.379575 -0.491408 
498 3.03601 3.15207 3.07828 1.20085 0 0 0 -0.264355 -0.140524 -0.154725 
508 2.36175 2.26391 2.93276 0.84865 0 0 0 -1.00144 -0.572071 -1.04116 
488 2.76678 3.03524 3.02364 1.10813 0 0 0 -0.447072 -0.241907 -0.294045 
100 1.61345 1.74366 3.65538 0.886143 0 0 0 0.0867509 0.432688 0.364277 
245 1.53525 1.87342 3.55191 0.862727 0 0 0 0.113813 0.405988 0.174808 
