ITEM: TIMESTEP
0
ITEM: NUMBER OF ATOMS
8
ITEM: BOX BOUNDS pp pp pp
0.0000000000000000e+00 4.8819591223992003e+00
0.0000000000000000e+00 4.8819591223992003e+00
0.0000000000000000e+00 4.8819591223992003e+00
ITEM: ATOMS id type fx fy fz x y z rho_SPH width_SPH omega_SPH u_SPH vx vy vz 
1 1 1.9531204605611550 -1.7225187938974877 1.5404592658593514 1.8214807326507032 2.9619344168347586 4.1100761010512503 0.0000000000000000 1.5000000000000000 0.0000000000000000 0.0000000000000000 0.0483305442940756 -0.0568325701698801 0.0337354870151984 
2 1 -1.8873007036003682 1.7030742417920413 -1.6146742852776588 0.8765450937513494 4.1097523503185762 3.3310601555297330 0.0000000000000000 1.5000000000000000 0.0000000000000000 0.0000000000000000 -0.0483305442940758 0.0568325701698802 -0.0337354870151987 
3 2 -0.0598869446565410 0.0410247114676411 -0.0331357364140872 2.8485877161109334 4.3637470124772992 2.7984897841120846 0.0000113714682551 2.9882726105891928 0.2949014127398408 0.0000000000000000 -20.1452595681599504 -18.5049389920889702 -7.4046169225903320 
4 2 0.0054102603150741 -0.1076192818474265 -0.2210329408779655 2.7270022481356526 1.9337257802056282 0.3127937079036167 0.0000106945224130 3.0985806777416824 0.3157336102727955 0.0000000000000000 3.8587364515162137 9.4370152372069551 8.0029661724122665 
5 2 -0.1803009119722889 -0.0870535394397908 0.1417736934913070 1.3575415502453905 3.8120573883794564 3.2139034336416543 0.0000106369611563 3.0425931699434572 0.3010814868455631 0.0000000000000000 16.2865231166437461 9.0679237548820204 -0.5983492498219416 
6 3 0.0591567402173196 0.0475466242321697 -0.0140303013946264 4.8246916802983826 2.2215343300295416 2.3036231637675928 0.0000110185734894 3.0534796213814759 0.3193000982397332 0.0000000000000000 5.3878960340127691 -19.7543855144476765 -9.5200423293884704 
7 3 0.4990613056017092 -0.0437712817006317 0.3279156366605991 3.3769858722209922 2.1199918628495138 2.9399105237482557 0.0000099896870797 3.0313388976171796 0.2538435872242370 0.0000000000000000 9.6629224265025258 -0.8296276481888255 1.6437569235565781 
8 3 -0.3892602064660218 0.1693173193934684 -0.1272753320469140 1.6803260007827143 0.0926757709304676 1.4016820283688107 0.0000086628133359 3.1584837031998005 0.2665260041485914 0.0000000000000000 -15.0508184605153126 20.5840131626364844 7.8762854058318874 
