ITEM: TIMESTEP
0
ITEM: NUMBER OF ATOMS
30
ITEM: BOX BOUNDS pp pp pp
0.0000000000000000e+00 8.3480326719615103e+00
0.0000000000000000e+00 8.3480326719615103e+00
0.0000000000000000e+00 8.3480326719615103e+00
ITEM: ATOMS id type fx fy fz x y z 
1 1 4.2354e-10 5.42966e-10 3.67102e-10 1.39479 1.26852 0.601396 
16 2 3.86018e-10 -8.87386e-10 -8.64456e-10 0.0105168 3.72047 3.88147 
18 2 -1.20773e-09 -8.80391e-10 1.46212e-10 4.16105 2.31925 5.2431 
19 2 3.64152e-09 9.58123e-10 5.6575e-09 2.25741 0.284781 6.48509 
6 1 1.55049e-07 9.67021e-08 -1.92963e-07 1.20425 0.0208455 4.84545 
2 1 9.53996e-05 3.04166e-05 3.32197e-05 3.27305 4.80216 4.04679 
20 2 -9.53913e-05 -3.04234e-05 -3.32349e-05 2.23782 4.47199 3.68611 
17 2 5.74702e-16 -3.73865e-16 2.90127e-16 2.9109 8.25665 2.55058 
3 1 -2.72289e-05 0.000158605 -1.31667e-05 2.23602 6.59069 5.50139 
4 1 2.55613e-05 -0.000159037 1.04703e-05 2.41375 5.51957 5.58054 
23 2 -1.53561e-07 -1.00296e-07 1.85259e-07 0.180006 7.73766 6.05837 
22 2 -6.94131e-11 1.46264e-09 8.3455e-09 0.25349 8.15344 7.96021 
21 2 1.65944e-06 4.38451e-07 2.71168e-06 3.07519 6.28351 6.77273 
7 1 -6.20976e-06 8.04811e-06 3.46789e-06 4.73092 3.33263 0.611513 
8 1 1.51626e-08 -2.48847e-08 -1.93755e-09 6.28541 0.905114 3.06556 
24 2 6.21925e-06 -8.02787e-06 -3.61292e-06 5.53473 2.2947 0.144509 
25 2 -0.000318489 0.000447165 -0.000206898 4.65411 2.90036 2.30929 
26 2 0.000318447 -0.000447258 0.000207037 5.11763 2.24932 2.61067 
9 1 5.93419e-05 0.000322889 -1.16575e-05 7.53265 0.544746 4.47362 
27 2 1.2073e-09 8.80027e-10 -1.4626e-10 5.8198 3.52842 5.04229 
28 2 0.000229085 0.00027336 -0.00186674 6.32748 0.593653 7.65935 
29 2 -0.000229082 -0.000273366 0.00186674 6.28283 0.540376 8.02317 
10 1 -3.45326e-10 -6.54712e-10 1.24761e-09 4.97515 5.7523 0.151935 
11 1 5.58645e-09 1.06373e-07 -1.08022e-09 4.6552 4.64523 1.97793 
12 1 -2.16543e-11 2.2579e-11 -8.13627e-11 5.07299 7.34047 4.62749 
13 1 -3.93775e-10 8.84994e-10 8.65211e-10 7.7297 5.13146 5.26161 
14 1 -2.35882e-10 -2.30126e-10 -9.23696e-11 6.77946 4.54637 7.59106 
15 1 4.0177e-10 7.93799e-10 -1.42052e-09 5.42384 6.70974 6.74037 
30 2 -5.9338e-05 -0.00032289 1.16614e-05 7.35616 7.93232 4.50832 
5 1 2.30076e-10 1.24869e-10 9.71236e-11 8.30673 5.95738 8.14683 
