ITEM: TIMESTEP
0
ITEM: NUMBER OF ATOMS
12
ITEM: BOX BOUNDS pp pp pp
0.0000000000000000e+00 4.8819591223992003e+00
0.0000000000000000e+00 4.8819591223992003e+00
0.0000000000000000e+00 4.8819591223992003e+00
ITEM: ATOMS id type fx fy fz x y z rho_SPH width_SPH omega_SPH u_SPH vx vy vz 
12 3 -0.0624425116460325 0.2258933137963504 0.0753272383527594 1.6803260007827143 0.0926757709304676 1.4016820283688107 0.0000000000000000 0.0000000000000000 0.0000000000000000 0.0000000000000000 -16.8926265666348883 18.7968175943250131 6.5105828150304861 
8 2 0.0015648845974280 0.0199792037115700 -0.0437499034936677 2.7270022481356526 1.9337257802056282 0.3127937079036167 0.0000000000000000 0.0000000000000000 0.0000000000000000 0.0000000000000000 -6.0498307912336040 14.6734770784362123 20.3834514078383222 
10 3 0.1256440885831835 0.0088127095091687 -0.0552223697492389 4.8246916802983826 2.2215343300295416 2.3036231637675928 0.0000000000000000 0.0000000000000000 0.0000000000000000 0.0000000000000000 7.9969147562514378 -20.0740606782974709 -9.1279806654000968 
4 1 0.1954224160417832 0.0273102502739546 0.0852346637281745 2.2508501305569748 3.9529017972378471 0.6218253809272138 0.0000000000000000 0.0000000000000000 0.0000000000000000 0.0000000000000000 8.6983090941883141 0.2790175599523292 -21.1401456635532980 
6 1 -0.2680622206253329 -0.0359452201759601 -0.0056824677155140 0.6923514123828928 3.8451934684161917 0.4737204727261923 0.0000000000000000 0.0000000000000000 0.0000000000000000 0.0000000000000000 -22.0983240313021376 19.5879512737801811 0.4482264270558714 
3 1 0.0781264568645769 -0.2465659555816182 0.1669791862455287 3.4150619495567316 1.6218469702112015 4.2011472921444097 0.0000000000000000 0.0000000000000000 0.0000000000000000 0.0000000000000000 -5.9318223811121618 -3.5029501285084272 13.2078431150067725 
11 3 -0.0858503966246554 -0.0045301856362775 -0.2362659674954298 3.3769858722209922 2.1199918628495138 2.9399105237482557 0.0000000000000000 0.0000000000000000 0.0000000000000000 0.0000000000000000 8.8957118103834496 1.2772430839724400 2.6173978503696382 
1 1 -0.0810478648222105 -0.1540042888774121 -0.1225646105162391 1.8214807326507032 2.9619344168347586 4.1100761010512503 0.0000000000000000 0.0000000000000000 0.0000000000000000 0.0000000000000000 7.6405830033266495 0.0094247969479652 -3.8449745836435483 
2 1 -0.0638032996206853 0.0821410631643891 -0.0609155812795081 0.8765450937513494 4.1097523503185762 3.3310601555297330 0.0000000000000000 0.0000000000000000 0.0000000000000000 0.0000000000000000 -6.2403421235088219 -15.4102523503969238 -16.0646171455193638 
9 2 -0.1197735131653826 -0.0516346385979435 0.0481683894085768 1.3575415502453905 3.8120573883794564 3.2139034336416543 0.0000000000000000 0.0000000000000000 0.0000000000000000 0.0000000000000000 -8.2282048006978421 -12.8876784887696125 -8.9798543808745013 
5 1 0.0977579128582969 0.1178720164195198 0.1056805232627700 2.9545064857619177 2.6651048424951784 4.2235356471029242 0.0000000000000000 0.0000000000000000 0.0000000000000000 0.0000000000000000 17.9315964384081710 -0.9631911517751259 27.3936678506535465 
7 2 0.1824640475590308 0.0106717319942587 0.0430108992517882 2.8485877161109334 4.3637470124772992 2.7984897841120846 0.0000000000000000 0.0000000000000000 0.0000000000000000 0.0000000000000000 14.2780355919314417 -1.7857985896665989 -11.4035970269638138 
