ITEM: TIMESTEP
0
ITEM: NUMBER OF ATOMS
6
ITEM: BOX BOUNDS pp pp pp
0.0000000000000000e+00 4.8819591223992003e+00
0.0000000000000000e+00 4.8819591223992003e+00
0.0000000000000000e+00 4.8819591223992003e+00
ITEM: ATOMS id type fx fy fz x y z rho_SPH width_SPH omega_SPH u_SPH vx vy vz 
6 2 -0.0907036268440460 0.0139734546303396 -0.1187753836222906 1.6803260007827143 0.0926757709304676 1.4016820283688107 0.0000073050525843 2.4334076523829138 0.1749345890651927 -0.0000000000000870 19.7288938238435279 8.9879964165938731 9.1348017172813787 
2 1 0.0154426649022128 0.0674581685790698 0.0504022013158581 2.7270022481356526 1.9337257802056282 0.3127937079036167 0.0000046892824161 2.5802734325657219 0.1593086493101226 -0.0000000000007295 -2.5250965399113796 18.4043898106453376 22.2301179053807410 
4 2 0.0176205359529070 -0.0738722010514056 -0.0849094732588351 4.8246916802983826 2.2215343300295416 2.3036231637675928 0.0000055913850840 2.4852189523659689 0.1209544906438746 0.0000000000007095 -17.6376385787995602 8.0681325750669100 0.5451862594732318 
5 2 -0.0358604913503920 -0.1073061934231779 -0.0490093258372289 3.3769858722209922 2.1199918628495138 2.9399105237482557 0.0000076078884260 2.4102145732405100 0.1657263164348528 0.0000000000000469 -2.0912552450439792 -17.0561289916607848 -9.6799879767546102 
3 1 -0.0357699335998893 -0.0098191975992626 0.1587526011353847 1.3575415502453905 3.8120573883794564 3.2139034336416543 0.0000077406976408 2.4029623962590216 0.1619613582291493 0.0000000000000742 1.5013905072240303 -5.4753306214433772 -7.1077894978816714 
1 1 0.1292708509392075 0.1095659688644366 0.0435393802671117 2.8485877161109334 4.3637470124772992 2.7984897841120846 0.0000080790169295 2.3822611618685947 0.1522346956600662 0.0000000000001423 1.0237060326873391 -12.9290591892019506 -15.1223284074990811 
ITEM: TIMESTEP
1
ITEM: NUMBER OF ATOMS
6
ITEM: BOX BOUNDS pp pp pp
0.0000000000000000e+00 4.8819591223992003e+00
0.0000000000000000e+00 4.8819591223992003e+00
0.0000000000000000e+00 4.8819591223992003e+00
ITEM: ATOMS id type fx fy fz x y z rho_SPH width_SPH omega_SPH u_SPH vx vy vz 
6 2 -0.0615781469256034 0.0067314839479492 -0.0779131980375912 1.6803261980716448 0.0926758608104330 1.4016821197168177 0.0000025111252570 3.6539043255538002 0.0835385463290526 -0.0000000000003042 19.7288925225127230 8.9879965935288642 9.1348000364701853 
2 1 0.0112980407410618 0.0477862851910394 0.0342905348621556 2.7270022228846886 1.9337259642495321 0.3127939302048000 0.0000013689287623 4.0913679718549192 0.0701587783193369 -0.0000000000010736 -2.5250963113974669 18.4043907954720432 22.2301186291263591 
4 2 0.0043464080275318 -0.0535503791944038 -0.0572400211315947 4.8246915039219980 2.2215344107108610 2.3036231692194482 0.0000016326556624 3.8894681822923962 0.0543335904567687 0.0000000000010218 -17.6376383910800421 8.0681314861714721 0.5451850447282821 
5 2 -0.0185798502333659 -0.0744729786577640 -0.0366086169736061 3.3769858513084365 2.1199916922882145 2.9399104269483716 0.0000026137007715 3.6104842651860340 0.0804248836680164 0.0000000000002912 -2.0912557102663869 -17.0561305450629419 -9.6799887084066221 
3 1 -0.0175384351039703 -0.0020944057010990 0.1083600547782564 1.3575415652592926 3.8120573336261492 3.2139033625637730 0.0000026610324625 3.5936833303720856 0.0781300877897721 0.0000000000000716 1.5013900516749483 -5.4753307232516146 -7.1077872152583579 
1 1 0.0820519834943459 0.0755999944142782 0.0291112465023800 2.8485877263480046 4.3637468831867166 2.7984896328888040 0.0000027788782134 3.5507953055038080 0.0735006138216738 0.0000000000001391 1.0237078385562026 -12.9290576068578158 -15.1223277866598558 
ITEM: TIMESTEP
2
ITEM: NUMBER OF ATOMS
6
ITEM: BOX BOUNDS pp pp pp
0.0000000000000000e+00 4.8819591223992003e+00
0.0000000000000000e+00 4.8819591223992003e+00
0.0000000000000000e+00 4.8819591223992003e+00
ITEM: ATOMS id type fx fy fz x y z rho_SPH width_SPH omega_SPH u_SPH vx vy vz 
6 2 -0.0424461440060001 0.0033801668260721 -0.0522144547743489 1.6803263953605647 0.0926759506903995 1.4016822110648113 0.0000008681504333 5.3241413665626016 0.0404749625170095 -0.0000000000004836 19.7288916335684270 8.9879966799384334 9.1347989244584280 
2 1 0.0081677460587742 0.0336141888266547 0.0232522659579429 2.7270021976337264 1.9337261482934442 0.3127941525059892 0.0000004010137772 6.2885640685067177 0.0307492545343579 -0.0000000000012402 -2.5250961450517031 18.4043914910834836 22.2301191208609730 
4 2 0.0005288699941765 -0.0380436906402467 -0.0393557207673514 4.8246913275456143 2.2215344913921711 2.3036231746712938 0.0000004785407754 5.9487653234548432 0.0240765163042616 0.0000000000011714 -17.6376383494181326 8.0681307034501941 0.5451842192649898 
5 2 -0.0112285490047793 -0.0512920326398257 -0.0259307902476706 3.3769858303958777 2.1199915217269028 2.9399103301484812 0.0000009036333447 5.2565719195556140 0.0392340778501114 0.0000000000005249 -2.0912559649954141 -17.0561316197935504 -9.6799892428399623 
3 1 -0.0096988442525006 0.0004261835051704 0.0743702904082181 1.3575415802731916 3.8120572788728420 3.2139032914859103 0.0000009202503243 5.2280593881203288 0.0380388174837331 0.0000000000000537 1.5013898189175425 -5.4753307375074831 -7.1077856537279072 
1 1 0.0546769212103293 0.0519151841221754 0.0198784094232099 2.8485877365850900 4.3637467538961472 2.7984894816655288 0.0000009613635803 5.1582745316906138 0.0358269613085438 0.0000000000001239 1.0237090069792574 -12.9290565171710767 -15.1223273680165295 
ITEM: TIMESTEP
3
ITEM: NUMBER OF ATOMS
6
ITEM: BOX BOUNDS pp pp pp
0.0000000000000000e+00 4.8819591223992003e+00
0.0000000000000000e+00 4.8819591223992003e+00
0.0000000000000000e+00 4.8819591223992003e+00
ITEM: ATOMS id type fx fy fz x y z rho_SPH width_SPH omega_SPH u_SPH vx vy vz 
6 2 -0.0294606613330297 0.0017359791124929 -0.0354147088806004 1.6803265926494775 0.0926760405703666 1.4016823024127960 0.0000003012454355 7.6567116889149442 0.0198157918337078 -0.0000000000006098 19.7288910190855624 8.9879967236586911 9.1347981756194372 
2 1 0.0058662491489967 0.0235616344780173 0.0157422616117698 2.7270021723827655 1.9337263323373621 0.3127943748071824 0.0000001177108084 9.5456331828782606 0.0135312079869072 -0.0000000000013209 -2.5250960251235606 18.4043919796820745 22.2301194540904774 
4 2 -0.0005477060729592 -0.0268116793365419 -0.0272654488468580 4.8246911511692305 2.2215345720734749 2.3036231801231328 0.0000001405158042 9.0114904625073002 0.0106484665345661 0.0000000000012444 -17.6376383495790989 8.0681301492256878 0.5451836499507641 
5 2 -0.0073575687098457 -0.0352620054867460 -0.0180040549383042 3.3769858094833172 2.1199913511655821 2.9399102333485865 0.0000003135784445 7.5569824440699218 0.0192683255991004 0.0000000000006997 -2.0912561238239258 -17.0561323594450087 -9.6799896182871734 
3 1 -0.0057946620748818 0.0011537330829957 0.0512173848859613 1.3575415952870891 3.8120572241195347 3.2139032204080600 0.0000003193876291 7.5132118585139001 0.0186662371458100 0.0000000000000376 1.5013896865170817 -5.4753307240062341 -7.1077845805127335 
1 1 0.0372943490417197 0.0356223381497821 0.0137245661680315 2.8485877468221847 4.3637466246055867 2.7984893304422567 0.0000003337265897 7.4080437985788414 0.0175929864313895 0.0000000000001135 1.0237097929239176 -12.9290557691152124 -15.1223270808607779 
ITEM: TIMESTEP
4
ITEM: NUMBER OF ATOMS
6
ITEM: BOX BOUNDS pp pp pp
0.0000000000000000e+00 4.8819591223992003e+00
0.0000000000000000e+00 4.8819591223992003e+00
0.0000000000000000e+00 4.8819591223992003e+00
ITEM: ATOMS id type fx fy fz x y z rho_SPH width_SPH omega_SPH u_SPH vx vy vz 
6 2 -0.0205085786916017 0.0009029060733766 -0.0241916238676610 1.6803267899383851 0.0926761304503340 1.4016823937607747 0.0000001047419668 10.9440673562513275 0.0097560134241592 -0.0000000000006934 19.7288905920711564 8.9879967462094044 9.1347976662508188 
2 1 0.0041944874433052 0.0164749069116884 0.0106421797736049 2.7270021471318060 1.9337265163812840 0.3127945971083783 0.0000000345868994 14.4132073301533836 0.0059698418990651 -0.0000000000013595 -2.5250959391490797 18.4043923218161574 22.2301196795599161 
4 2 -0.0007714281055595 -0.0188147693247940 -0.0189351697719032 4.8246909747928468 2.2215346527547744 2.3036231855749669 0.0000000412946813 13.5948393141700734 0.0047085995867942 0.0000000000012799 -17.6376383608518204 8.0681297593228010 0.5451832551412827 
5 2 -0.0050048341105647 -0.0242388438305852 -0.0123856932552074 3.3769857885707553 2.1199911806042557 2.9399101365486886 0.0000001090348595 10.7998651219075299 0.0095005498789317 0.0000000000008187 -2.0912562294673998 -17.0561328679122148 -9.6799898779841431 
3 1 -0.0036429889763243 0.0012252200565221 0.0353398671200117 1.3575416103009854 3.8120571693662275 3.2139031493302186 0.0000001110621517 10.7353823311880721 0.0092003487480594 0.0000000000000261 1.5013896058672067 -5.4753307036767822 -7.1077838408338119 
1 1 0.0257333424407451 0.0244505801137922 0.0095304400011551 2.8485877570592857 4.3637464953150324 2.7984891792189872 0.0000001160610191 10.5817827033108731 0.0086744963582725 0.0000000000001077 1.0237103315299132 -12.9290552557593657 -15.1223268821340682 
ITEM: TIMESTEP
5
ITEM: NUMBER OF ATOMS
6
ITEM: BOX BOUNDS pp pp pp
0.0000000000000000e+00 4.8819591223992003e+00
0.0000000000000000e+00 4.8819591223992003e+00
0.0000000000000000e+00 4.8819591223992003e+00
ITEM: ATOMS id type fx fy fz x y z rho_SPH width_SPH omega_SPH u_SPH vx vy vz 
6 2 -0.0142929090651718 0.0004761143317017 -0.0166028749602713 1.6803269872272892 0.0926762203303015 1.4016824851087493 0.0000000364563504 15.5968975361257129 0.0048169778181888 -0.0000000000007471 19.7288902946734659 8.9879967579938853 9.1347973176395794 
2 1 0.0029884628362013 0.0114966106566605 0.0071841885035535 2.7270021218808469 1.9337267004252086 0.3127948194095760 0.0000000101674172 21.7130252537749868 0.0026372031954406 -0.0000000000013778 -2.5250958777668524 18.4043925608480308 22.2301198318959514 
4 2 -0.0007291028923481 -0.0131644543213907 -0.0131518333455302 4.8246907984164631 2.2215347334360702 2.3036231910267979 0.0000000121402376 20.4724004220140756 0.0020821237111366 0.0000000000012969 -17.6376383736746760 8.0681294860428956 0.5451829809403427 
5 2 -0.0034550646292986 -0.0166713552116264 -0.0084791368025325 3.3769857676581925 2.1199910100429249 2.9399100397487890 0.0000000379514416 15.3902709284202501 0.0046942181161259 0.0000000000008959 -2.0912563017618480 -17.0561332175121763 -9.6799900562854937 
3 1 -0.0023731809559223 0.0010674396188235 0.0244109645332208 1.3575416253148811 3.8120571146129207 3.2139030782523834 0.0000000386583486 15.2970324367757513 0.0045451130444366 0.0000000000000185 1.5013895544557538 -5.4753306840847555 -7.1077833302303706 
1 1 0.0178617947065395 0.0167956449258315 0.0066386920715597 2.8485877672963911 4.3637463660244817 2.7984890279957191 0.0000000404005938 15.0758594461680282 0.0042861202107879 0.0000000000001047 1.0237107040741344 -12.9290549032878790 -15.1223267439600164 
