ITEM: TIMESTEP
0
ITEM: NUMBER OF ATOMS
60
ITEM: BOX BOUNDS pp pp pp
0.0000000000000000e+00 1.0517862088614400e+01
0.0000000000000000e+00 1.0517862088614400e+01
0.0000000000000000e+00 1.0517862088614400e+01
ITEM: ATOMS id type fx fy fz x y z rho_SPH width_SPH omega_SPH u_SPH vx vy vz 
13 1 -0.0000002401787743 0.0000008098934138 -0.0000006243479159 1.6378583559339015 1.5038856939520584 0.7302576023895219 0.0000179689787685 2.3474164076358326 0.6533926313220501 0.0000000000000000 -0.0000000000000000 0.0000000000000000 -0.0000000000000000 
30 1 -0.0000008940817988 -0.0000001587215453 -0.0000012936902613 4.3332398380274180 3.0845791983117627 2.1797973206090733 0.0000246383497172 2.2076562721301380 0.6004172370224715 0.0000000000000000 0.0000000000000000 0.0000000000000000 0.0000000000000000 
33 2 -0.0000005874178676 -0.0000003362124639 -0.0000016259094474 3.7176096038656707 0.0501531434383235 3.1238817679035793 0.0000246710088190 2.1991869850121333 0.6122371096827075 0.0000000000000000 0.0000000000000000 0.0000000000000000 0.0000000000000000 
36 2 -0.0000001076856265 0.0000002982029728 -0.0000001130935566 7.0093377406414916 2.7551858723099536 0.1010055030435293 0.0000245153832265 2.2036868460540000 0.6482678390448382 0.0000000000000000 -0.0000000000000000 -0.0000000000000000 0.0000000000000000 
45 2 0.0000003873504115 0.0000006123278988 -0.0000000339797910 6.5179431088308641 2.8332141009149350 3.4491644252868583 0.0000321020596782 2.1516592066248386 0.7338392101730375 0.0000000000000000 0.0000000000000000 0.0000000000000000 0.0000000000000000 
53 2 0.0000000844422405 -0.0000009654754281 0.0000000154584794 1.4320441741391987 6.7581808804813939 0.0644683044277260 0.0000150166835946 2.4112997004665804 0.6361814804232025 0.0000000000000000 0.0000000000000000 -0.0000000000000000 0.0000000000000000 
2 1 -0.0000009071401193 0.0000001874759454 -0.0000005145764628 5.7846606298103920 4.2591590835541089 0.7347888292948779 0.0000229764959924 2.2314633152463133 0.6154753190365335 0.0000000000000000 -0.0000000000000000 0.0000000000000000 0.0000000000000000 
12 1 0.0000003309420286 0.0000000825219089 -0.0000001721172350 5.8629568427370256 5.8229894251588448 2.4799126317496358 0.0000263480590449 2.1916355185335252 0.6333509025782192 0.0000000000000000 -0.0000000000000000 -0.0000000000000000 0.0000000000000000 
17 1 -0.0000004321937722 -0.0000001434226775 -0.0000006953093259 4.0532554962350043 5.6183755567923068 2.8471168079053935 0.0000243743109259 2.2298385854333320 0.6582175421702838 0.0000000000000000 0.0000000000000000 0.0000000000000000 0.0000000000000000 
41 2 0.0000004370220108 0.0000004600109068 0.0000000321297647 5.9943046089817251 3.7843427750058916 2.8446961292337094 0.0000304561203892 2.1289460488316179 0.6490925399158886 0.0000000000000000 0.0000000000000000 -0.0000000000000000 -0.0000000000000000 
20 1 0.0000005901316277 -0.0000002287982032 -0.0000005770422089 9.1766662948608015 6.4762695884288153 2.2224242348496546 0.0000205930551959 2.2784197188704018 0.6731639691116569 0.0000000000000000 0.0000000000000000 0.0000000000000000 -0.0000000000000000 
21 1 0.0000008731012116 -0.0000000768860116 -0.0000003815314788 9.1638655349981288 5.9836908547161745 1.7162829976978915 0.0000196620849141 2.2695346074995211 0.5986641719770808 0.0000000000000000 0.0000000000000000 -0.0000000000000000 0.0000000000000000 
11 1 -0.0000004574615594 0.0000000249589700 -0.0000000475606204 6.1862861832720260 7.3807219956330616 0.1437295124029507 0.0000214439982392 2.2801587665163616 0.6474140909395482 0.0000000000000000 0.0000000000000000 0.0000000000000000 -0.0000000000000000 
50 2 -0.0000002750672266 -0.0000005103493072 -0.0000005303395490 6.0498268561458524 9.9951583286611179 3.3178514700062034 0.0000284682437995 2.2059551308154450 0.7067608387656619 0.0000000000000000 0.0000000000000000 0.0000000000000000 -0.0000000000000000 
60 2 -0.0000002129546389 -0.0000002549141533 -0.0000004279852007 6.1552250819968037 7.8721015965899923 1.7458388025199989 0.0000237968938681 2.2751146117603467 0.7261854599641819 0.0000000000000000 0.0000000000000000 -0.0000000000000000 0.0000000000000000 
22 1 0.0000003085062925 -0.0000007473203862 -0.0000005515333956 9.3682077114696192 9.6470594168466342 1.0477987731843763 0.0000225278468054 2.3112760256833891 0.7086587828811012 0.0000000000000000 0.0000000000000000 -0.0000000000000000 0.0000000000000000 
14 1 0.0000003548820835 -0.0000000654082942 -0.0000000783546641 1.5143571964340836 0.0932850718171707 6.2779262084133407 0.0000312975007520 2.1113360596115203 0.5963548611102385 0.0000000000000000 -0.0000000000000000 -0.0000000000000000 -0.0000000000000000 
26 1 -0.0000002653887987 0.0000007516037911 -0.0000006366275700 1.6582492604505115 3.1820261962381005 3.8035601393497624 0.0000214025094987 2.3295224440861069 0.7166843971645108 0.0000000000000000 0.0000000000000000 -0.0000000000000000 -0.0000000000000000 
16 1 -0.0000001124392566 0.0000004440262627 0.0000001488319841 3.8115872293284911 2.9163744216539902 4.3072284415794444 0.0000304691221520 2.1246276858987914 0.6360485044692908 0.0000000000000000 -0.0000000000000000 -0.0000000000000000 -0.0000000000000000 
34 2 -0.0000005696138641 0.0000006127002278 0.0000014159394620 5.2636299359097212 2.9049275247403528 6.6624056854082072 0.0000267696966494 2.2314290115940318 0.7533847270658528 0.0000000000000000 0.0000000000000000 -0.0000000000000000 -0.0000000000000000 
47 2 0.0000002028060581 0.0000003115181858 0.0000005830842172 4.1528562782248590 0.8402332062564291 6.0074724798286692 0.0000310036850222 2.1567584849550840 0.6836700837308067 0.0000000000000000 -0.0000000000000000 -0.0000000000000000 -0.0000000000000000 
58 2 -0.0000000058057547 0.0000006310516369 0.0000004132340338 3.8529859474373431 2.7150422716478499 5.0083400622909595 0.0000308695759376 2.1365019559527108 0.6876911961613247 0.0000000000000000 -0.0000000000000000 0.0000000000000000 0.0000000000000000 
8 1 0.0000006131919531 0.0000002127050886 -0.0000010298970333 8.0363382584971799 1.0742400958505356 3.7801523401756794 0.0000302389194153 2.1349827239934767 0.7002590426611465 0.0000000000000000 -0.0000000000000000 0.0000000000000000 0.0000000000000000 
15 1 0.0000003029720922 0.0000006000526049 -0.0000004341594051 9.5276201788668722 0.7770845306958091 5.5754087889862829 0.0000338324437596 2.0641880062009328 0.6029715927440568 0.0000000000000000 0.0000000000000000 0.0000000000000000 -0.0000000000000000 
19 1 0.0000000221179212 0.0000005697047947 -0.0000001552250892 8.9558303640443970 0.8487854854832372 5.4696946966718780 0.0000347709615375 2.0542902396923743 0.5995451503789589 0.0000000000000000 -0.0000000000000000 0.0000000000000000 0.0000000000000000 
49 2 -0.0000000454553094 0.0000002882154592 -0.0000002187963808 7.6110563756554583 1.0929564446348456 4.3888615481918860 0.0000331999084631 2.0909531889812403 0.6506380875487493 0.0000000000000000 -0.0000000000000000 -0.0000000000000000 -0.0000000000000000 
4 1 -0.0000004494466760 -0.0000006826850959 0.0000008570946703 3.1812338803097187 6.8162119013922178 6.9010030163184997 0.0000238231920270 2.2318455060262172 0.7065735416732325 0.0000000000000000 -0.0000000000000000 0.0000000000000000 0.0000000000000000 
31 2 0.0000000013968359 0.0000003974796468 0.0000000388413028 0.0225843994850235 4.6755867011797916 4.9660204113043775 0.0000190327017699 2.3319304755226460 0.6775800001810289 0.0000000000000000 -0.0000000000000000 0.0000000000000000 0.0000000000000000 
38 2 -0.0000005770600578 -0.0000002626249508 0.0000000909084805 2.7151348508424000 5.8031443439523231 4.7194290606679941 0.0000223494101081 2.2460096493950852 0.6337083927583274 0.0000000000000000 -0.0000000000000000 -0.0000000000000000 0.0000000000000000 
6 1 -0.0000001149280753 -0.0000000151233994 0.0000004316388945 4.0774577170735773 5.8852396719008722 5.1904270922446845 0.0000259204042598 2.1932749655598460 0.6299765318865075 0.0000000000000000 0.0000000000000000 -0.0000000000000000 0.0000000000000000 
56 2 0.0000001744863935 0.0000000812566238 0.0000003605867277 6.1814051020537990 6.2408729356300814 6.1454419789536088 0.0000262466551257 2.2559855368095345 0.7330048852023303 0.0000000000000000 -0.0000000000000000 0.0000000000000000 0.0000000000000000 
5 1 0.0000003304328719 -0.0000005153690513 0.0000004708266247 9.6919126951891830 6.6251225595157246 6.6438246083035359 0.0000193693251712 2.4053463458765592 0.7220926915785377 0.0000000000000000 -0.0000000000000000 0.0000000000000000 -0.0000000000000000 
27 1 0.0000006602476896 0.0000005560706225 -0.0000003076337649 8.9235561147379752 4.5257515057706836 4.5916238949317441 0.0000218289587116 2.2707277694162249 0.6177049800085334 0.0000000000000000 -0.0000000000000000 -0.0000000000000000 0.0000000000000000 
32 2 0.0000002766620987 0.0000006561348940 0.0000003299441039 7.3629297365090540 4.3517116805087683 6.4266292001865155 0.0000245035866123 2.2413100698419206 0.6669554641751083 0.0000000000000000 0.0000000000000000 -0.0000000000000000 0.0000000000000000 
23 1 0.0000001921007627 -0.0000000899722717 -0.0000006476950837 3.4896839853814812 9.9332503688196088 4.2422908579126339 0.0000303561598877 2.1114171380576203 0.6513978348219785 0.0000000000000000 -0.0000000000000000 0.0000000000000000 0.0000000000000000 
51 2 -0.0000003619369641 -0.0000007955250334 -0.0000018644851744 2.0689279871084354 9.3890996262926461 4.0874689983303361 0.0000242350138447 2.2519661557095327 0.7288566436498540 0.0000000000000000 -0.0000000000000000 0.0000000000000000 -0.0000000000000000 
1 1 -0.0000003376016992 -0.0000004546889170 0.0000004256484510 6.3701653488558536 9.2122694178948770 5.7358869022735401 0.0000321487716100 2.1295900425219547 0.6852763352864056 0.0000000000000000 -0.0000000000000000 0.0000000000000000 -0.0000000000000000 
54 2 0.0000001429607427 -0.0000001348385637 0.0000001878619393 4.1760756796183234 9.5027805271813328 5.2388475110947601 0.0000323838444007 2.1115336386799370 0.6476575208659702 0.0000000000000000 -0.0000000000000000 0.0000000000000000 -0.0000000000000000 
42 2 0.0000001748282664 -0.0000010602830908 -0.0000006240842383 9.3808747401615484 10.0239485534435637 5.4879868568962511 0.0000314691093211 2.1049470185049675 0.6192191851131751 0.0000000000000000 -0.0000000000000000 -0.0000000000000000 -0.0000000000000000 
57 2 -0.0000003206968649 -0.0000007880151337 0.0000001786487281 7.1530672330858920 9.2474492441116247 5.4704650503616818 0.0000322690172574 2.1165616215587404 0.6746772127703587 0.0000000000000000 -0.0000000000000000 0.0000000000000000 0.0000000000000000 
59 2 0.0000002968295977 -0.0000006249915433 -0.0000001143977762 7.6733707064494654 7.2265298573020189 4.9272943188690332 0.0000253494844207 2.2459618605561200 0.6931442754731533 0.0000000000000000 0.0000000000000000 -0.0000000000000000 0.0000000000000000 
25 1 0.0000002480575132 0.0000005748744649 0.0000002877851070 0.6262628147931871 0.8442121463824146 7.0635186074520542 0.0000329811215427 2.0799955376857793 0.6340468072319350 0.0000000000000000 -0.0000000000000000 0.0000000000000000 -0.0000000000000000 
28 1 0.0000002941561630 0.0000006095324508 0.0000007361463590 0.4307564258071993 0.9446826506152329 7.9416237532609317 0.0000312478081624 2.0969340282121012 0.6026822165592006 0.0000000000000000 0.0000000000000000 0.0000000000000000 -0.0000000000000000 
37 2 0.0000003981438581 0.0000007813402431 0.0000011200703920 2.7648138066652117 0.4566624519296996 8.2046439449697495 0.0000250937878747 2.2395124279442573 0.6621932571892660 0.0000000000000000 -0.0000000000000000 0.0000000000000000 0.0000000000000000 
52 2 0.0000008052882585 0.0000011527547269 0.0000004604909773 0.3548089545048779 1.0640177265292874 10.3834807148833477 0.0000233955879135 2.1904040169225989 0.5738066616855610 0.0000000000000000 0.0000000000000000 -0.0000000000000000 0.0000000000000000 
18 1 -0.0000005299643683 0.0000004890924581 0.0000008370400587 6.7173352693444670 2.3298006607724080 7.6879782984028067 0.0000269974763200 2.1983314112445846 0.6923201214552777 0.0000000000000000 0.0000000000000000 -0.0000000000000000 -0.0000000000000000 
29 1 0.0000005452202644 0.0000008761986452 0.0000002011436198 8.0815033527913069 3.4379759084980828 10.1093326347559014 0.0000231713600586 2.2345661458265531 0.6520341092291092 0.0000000000000000 -0.0000000000000000 -0.0000000000000000 -0.0000000000000000 
43 2 -0.0000002737223178 -0.0000002162583089 0.0000000413202419 8.0044060543037681 0.8144418750480877 9.7753270889469448 0.0000287770015498 2.1451754596331236 0.6614369299374359 0.0000000000000000 -0.0000000000000000 -0.0000000000000000 -0.0000000000000000 
44 2 -0.0000003410873608 -0.0000003534620777 -0.0000001063929866 7.8810322213480948 0.6245715797220509 10.0342463315751722 0.0000279215441039 2.1591905687981714 0.6720255702530757 0.0000000000000000 0.0000000000000000 -0.0000000000000000 -0.0000000000000000 
48 2 -0.0000000434444465 0.0000010034758610 0.0000005102583671 8.1273386694648941 2.4734502656601074 7.3374330235071614 0.0000298279801631 2.1784698357471530 0.7023700025110373 0.0000000000000000 0.0000000000000000 0.0000000000000000 -0.0000000000000000 
46 2 -0.0000001576931620 0.0000002279790630 -0.0000001742004518 2.4254328825886042 4.0780379571946472 9.5867122212945635 0.0000131680228962 2.5788004198853218 0.7189635286020868 0.0000000000000000 -0.0000000000000000 -0.0000000000000000 -0.0000000000000000 
7 1 0.0000006812566961 0.0000001759067332 0.0000001416676679 8.4795616985786051 5.7514777285495704 9.6303493034540306 0.0000197904472646 2.3551737018467702 0.6688518422843874 0.0000000000000000 -0.0000000000000000 0.0000000000000000 0.0000000000000000 
3 1 -0.0000000585028881 -0.0000008102147549 0.0000005692501869 2.9959667665700436 8.2298375466637719 7.0646298530985607 0.0000269575061480 2.1868924027413552 0.6618680883938879 0.0000000000000000 -0.0000000000000000 0.0000000000000000 -0.0000000000000000 
9 1 0.0000003843591800 -0.0000008436750448 0.0000002738154518 0.0912490631782341 7.6336943935089581 10.1917785846847728 0.0000206734376751 2.3080491048356695 0.6886524031842447 0.0000000000000000 0.0000000000000000 0.0000000000000000 0.0000000000000000 
39 2 0.0000003125811917 -0.0000005329561387 0.0000004401372373 0.1653131519093723 10.4305504673489384 9.9046200003957701 0.0000272522694382 2.1480524726209627 0.5874834937937573 0.0000000000000000 0.0000000000000000 0.0000000000000000 0.0000000000000000 
40 2 -0.0000000477393855 -0.0000011011041383 0.0000006848138768 0.0990788658273611 9.6742164395102268 7.7079473509584897 0.0000318050703088 2.1400220272452213 0.6852059589041842 0.0000000000000000 0.0000000000000000 0.0000000000000000 0.0000000000000000 
10 1 -0.0000003957838390 -0.0000003211670238 0.0000005026219452 6.7494868012752596 8.6069394660677148 8.5392697149847354 0.0000253768511530 2.2186722860040042 0.6971764682368571 0.0000000000000000 0.0000000000000000 -0.0000000000000000 -0.0000000000000000 
35 2 -0.0000004489031135 -0.0000006797601239 0.0000008089121996 3.8130371202134761 7.9986201453548684 8.5383245377201771 0.0000223811987069 2.2677502081556464 0.6724433520483010 0.0000000000000000 0.0000000000000000 0.0000000000000000 -0.0000000000000000 
55 2 -0.0000003640862278 -0.0000001262187177 -0.0000001704082354 4.1720915922505037 9.6063614777932340 10.4774707111725842 0.0000193102162643 2.4137860345597519 0.7380842499306237 0.0000000000000000 -0.0000000000000000 -0.0000000000000000 -0.0000000000000000 
24 1 -0.0000004909925020 -0.0000005826246512 0.0000005552227506 7.2818909624804302 9.1166977860829626 8.4991952166839511 0.0000278434365271 2.2018962318611308 0.7341461441394893 0.0000000000000000 0.0000000000000000 -0.0000000000000000 -0.0000000000000000 
ITEM: TIMESTEP
1
ITEM: NUMBER OF ATOMS
60
ITEM: BOX BOUNDS pp pp pp
0.0000000000000000e+00 1.0517862088614400e+01
0.0000000000000000e+00 1.0517862088614400e+01
0.0000000000000000e+00 1.0517862088614400e+01
ITEM: ATOMS id type fx fy fz x y z rho_SPH width_SPH omega_SPH u_SPH vx vy vz 
13 1 -0.0000001322706951 0.0000004196029692 -0.0000002662982880 1.6378563034752955 1.5038926149329492 0.7302522669960966 0.0000127777305874 3.0336566162008700 0.4608439350311132 -0.0000000000059993 -0.0000318278382821 0.0001050671708998 -0.0000761105751981 
30 1 -0.0000002704713021 0.0000000389362338 -0.0000004772126647 4.3332321976108661 3.0845778419496002 2.1797862653202862 0.0000176008586695 2.7874887489440843 0.4393408775237438 -0.0000000000089865 -0.0000995174132759 -0.0000102363081081 -0.0001513333125130 
33 2 -0.0000002648514835 -0.0000002383598538 -0.0000006267112237 3.7176045840596479 0.0501502703194685 3.1238678736206738 0.0000177773018338 2.7817618978458354 0.4566827868341753 -0.0000000000152206 -0.0000728310638472 -0.0000491003379387 -0.0001924987208479 
36 2 -0.0000000071082858 0.0000001119592548 0.0000000900390591 7.0093368204090876 2.7551884206169790 0.1010045365974133 0.0000181931103362 2.7875476954227310 0.4999705844569413 -0.0000000000048801 -0.0000098097658281 0.0000350505991370 -0.0000019701325379 
45 2 0.0000000372240769 0.0000001415036122 0.0000001223753457 6.5179464189513689 2.8332193335907587 3.4491641349110136 0.0000261111768210 2.6303821907603666 0.5776529668317346 0.0000000000033307 0.0000362822054205 0.0000644190135836 0.0000075538822070 
53 2 0.0000000754060134 -0.0000007344449958 0.0000000668404116 1.4320448957441938 6.7581726299673459 0.0644684365288626 0.0000102240956423 3.1721871575150207 0.4315337541317626 0.0000000000057610 0.0000136599050140 -0.0001452674706097 0.0000070328890434 
2 1 -0.0000004392900199 0.0000000602215157 -0.0000001297794491 5.7846528778033708 4.2591606856383013 0.7347844319583825 0.0000164880490763 2.8362238583286126 0.4606161852400983 -0.0000000000078102 -0.0001150597980519 0.0000211670988504 -0.0000550637266210 
12 1 0.0000000073475330 -0.0000000164521662 -0.0000000223567193 5.8629596708171370 5.8229901303535589 2.4799111609139999 0.0000194891245237 2.7455229497754390 0.4742242352571626 -0.0000000000023217 0.0000289086878753 0.0000056460198196 -0.0000166188599440 
17 1 -0.0000000007807939 -0.0000001804907483 -0.0000002013537901 4.0532518029035272 5.6183743311673133 2.8471108661080216 0.0000182116246905 2.8060605350098919 0.4949727763368116 -0.0000000000044045 -0.0000370000378652 -0.0000276801686714 -0.0000766247531475 
41 2 0.0000000968092333 0.0000001455317316 0.0000001091103813 5.9943083435731346 3.7843467060499538 2.8446964038000706 0.0000232508584788 2.6404600513080041 0.5105941636582230 0.0000000000015214 0.0000456187910187 0.0000517469207353 0.0000120697407220 
20 1 0.0000002553054253 -0.0000000349591493 -0.0000003554166996 9.1766713378573836 6.4762676332233955 2.2224193037092941 0.0000151353522594 2.9200690296815779 0.4955455069689453 -0.0000000000013104 0.0000722472067123 -0.0000225395041530 -0.0000796836988241 
21 1 0.0000004223151840 0.0000000257203714 -0.0000002142468428 9.1638729961241214 5.9836901976832761 1.7162797373033398 0.0000134737051756 2.9388721325962686 0.4255849543619063 -0.0000000000001624 0.0001107003954634 -0.0000043723829813 -0.0000509125066180 
11 1 -0.0000002196357133 0.0000000451696387 0.0000000090605349 6.1862822740135277 7.3807222089210720 0.1437291059715124 0.0000155879458509 2.9002922050008961 0.4692796055372789 -0.0000000000024106 -0.0000578616544470 0.0000059928720562 -0.0000032900422648 
50 2 -0.0000000853465358 -0.0000001358527449 -0.0000000165496383 6.0498245055463951 9.9951539674479726 3.3178469379655406 0.0000224532655000 2.7176820528328589 0.5353723140528535 -0.0000000000003016 -0.0000307993214862 -0.0000552214893684 -0.0000467346634707 
60 2 -0.0000000865468895 -0.0000001029105502 -0.0000000799838869 6.1552232621832816 7.8720994182095376 1.7458351451530607 0.0000185872535240 2.8450056843187435 0.5366861251657802 -0.0000000000016419 -0.0000255940389082 -0.0000305780722819 -0.0000434087287021 
22 1 0.0000001237555867 -0.0000001987748995 -0.0000001769645322 9.3682103478241299 9.6470530305863882 1.0477940600307361 0.0000173073053316 2.8939859987384544 0.5125014815772199 -0.0000000000053397 0.0000369391348815 -0.0000808490016206 -0.0000622541207456 
14 1 0.0000000502177745 0.0000000056118460 0.0000000258939744 1.5143602290950195 0.0932845128676265 6.2779255388300061 0.0000231180085027 2.6175688031244855 0.4630818226218252 -0.0000000000018632 0.0000346179920484 -0.0000051099325969 -0.0000044830520262 
26 1 -0.0000000187781770 0.0000003274881025 -0.0000001393809501 1.6582469925584984 3.1820326191023773 3.8035546990199967 0.0000164375352010 2.9309005993293971 0.5188791864760506 -0.0000000000038948 -0.0000242836177607 0.0000922142870597 -0.0000663141599447 
16 1 0.0000001099932393 0.0000001151836219 0.0000000557433619 3.8115862684737252 2.9163782161005516 4.3072297134299129 0.0000230396362716 2.6376753874867953 0.4984741493912153 0.0000000000021389 -0.0000002090255225 0.0000477875342558 0.0000174820789585 
34 2 -0.0000002163834063 0.0000001459653728 0.0000005769913856 5.2636250682486176 2.9049327605979305 6.6624177853830817 0.0000216476285759 2.7618497098722647 0.5793709172317162 -0.0000000000060376 -0.0000671677531348 0.0000648321128906 0.0001703068092243 
47 2 0.0000000901417005 0.0000000504630791 0.0000000902726250 4.1528580113132243 0.8402358683492109 6.0074774626012859 0.0000242993872944 2.6490759211005068 0.5260894842862407 0.0000000000001427 0.0000250339835409 0.0000309332731204 0.0000575420142715 
58 2 0.0000001671274121 0.0000001382460516 0.0000001042531234 3.8529858978240030 2.7150476643282269 5.0083435936011327 0.0000242349336085 2.6388809851975825 0.5434008641315428 0.0000000000004241 0.0000137858153763 0.0000657406827917 0.0000442220996582 
8 1 0.0000001038737698 -0.0000000076717406 -0.0000002867136629 8.0363434985568194 1.0742419135315151 3.7801435391438831 0.0000239686087831 2.6473388235989730 0.5696535234904921 -0.0000000000031013 0.0000612771764906 0.0000175212177276 -0.0001125115640282 
15 1 0.0000000681244826 0.0000001262461860 -0.0000000387309997 9.5276227679286229 0.7770896584725524 5.5754050788574006 0.0000255113246087 2.5546647151851216 0.5052646998478716 -0.0000000000017195 0.0000317122260615 0.0000620661925041 -0.0000404110639668 
19 1 -0.0000000443733111 0.0000001345375417 0.0000000349769983 8.9558305530540956 0.8487903539213923 5.4696933701888399 0.0000262395489900 2.5367761284083628 0.5021314421536419 -0.0000000000008080 -0.0000019018444378 0.0000601813481774 -0.0000102758551383 
49 2 -0.0000000930596895 -0.0000000077488193 0.0000000070331424 7.6110559872150514 1.0929589075931205 4.3888596784574929 0.0000257316433153 2.5790296268775332 0.5322172469754779 0.0000000000003418 -0.0000118368620339 0.0000239674038847 -0.0000180963235564 
4 1 -0.0000000768194351 -0.0000001335496984 0.0000002717429022 3.1812300395427693 6.8162060674757763 6.9010103406598677 0.0000183750910689 2.8184997908694140 0.5440235071256937 -0.0000000000032618 -0.0000449723091496 -0.0000697517144478 0.0000964653266011 
31 2 0.0000000985523598 0.0000002514675835 0.0000000286731574 0.0225844114217482 4.6755900978601357 4.9660207432244921 0.0000139146671275 2.9935058377856216 0.4855015959128582 -0.0000000000012136 0.0000085412038366 0.0000554560798181 0.0000057694788120 
38 2 -0.0000000592285820 -0.0000001513208837 0.0000001210849042 2.7151299195495104 5.8031420996788974 4.7194298375305364 0.0000161528422597 2.8588267883486411 0.4675333819320588 -0.0000000000042957 -0.0000543743342264 -0.0000353739289840 0.0000181159908189 
6 1 -0.0000000364070197 -0.0000000321602168 0.0000002187095666 4.0774567349504984 5.8852395426631769 5.1904307808344292 0.0000190355587953 2.7543311552540013 0.4661918999366938 -0.0000000000043213 -0.0000129324091614 -0.0000040406428626 0.0000555758226261 
56 2 -0.0000000901266677 0.0000000899834603 0.0000000763360117 6.1814065931351863 6.2408736300122438 6.1454450603638406 0.0000208711867824 2.7859726477564526 0.5447138453687174 -0.0000000000045847 0.0000072089986164 0.0000146333990279 0.0000373374308108 
5 1 0.0000001432209094 -0.0000001369205757 0.0000003000066582 9.6919155189182717 6.6251181554061285 6.6438286317738058 0.0000148219374037 3.0282656521463927 0.5086976040761462 -0.0000000000026882 0.0000404762986510 -0.0000557417058448 0.0000658719077100 
27 1 0.0000003639774599 0.0000002524211435 -0.0000001687401262 8.9235617569145447 4.5257562576974015 4.5916212660334565 0.0000155152061389 2.8855738001168731 0.4361554278741520 -0.0000000000033729 0.0000875256245650 0.0000690900304530 -0.0000407087468636 
32 2 -0.0000000029215594 0.0000001799503008 0.0000001260882808 7.3629321007375630 4.3517172875392554 6.4266320197388156 0.0000184246766657 2.8103568409697095 0.4935040233009722 -0.0000000000022103 0.0000233926219121 0.0000714480394255 0.0000389704542101 
23 1 0.0000001559231044 0.0000000170056442 -0.0000001510926468 3.4896856269872591 9.9332495999574810 4.2422853230049276 0.0000233069677089 2.6314378855327423 0.5372150527754666 -0.0000000000033644 0.0000297405373716 -0.0000062353962417 -0.0000682607677029 
51 2 -0.0000000789332367 -0.0000001856590648 -0.0000005852099440 2.0689248941596969 9.3890928280974020 4.0874530652877370 0.0000190096293213 2.8221464372100318 0.5501320245110340 -0.0000000000145772 -0.0000376747629179 -0.0000838475320105 -0.0002093398071033 
1 1 -0.0000001173719781 -0.0000000376689223 0.0000001417888872 6.3701624638652250 9.2122655323301199 5.7358905396716775 0.0000253041642940 2.6164918217271529 0.5367894343339272 0.0000000000030355 -0.0000388799818878 -0.0000420746624063 0.0000484906150261 
54 2 0.0000001243274186 -0.0000000134820817 0.0000000860096640 4.1760769012958328 9.5027793749122722 5.2388491164774802 0.0000249084028846 2.6024108476980263 0.5118925794214655 0.0000000000030700 0.0000228412310249 -0.0000126748080029 0.0000234038220373 
42 2 0.0000000750039554 -0.0000002440864408 -0.0000001688889391 9.3808762341644254 10.0239394927463348 5.4879815237560949 0.0000237075787402 2.6112760607954484 0.4997676219651898 -0.0000000000051832 0.0000213495257923 -0.0001114654897572 -0.0000677638824313 
57 2 -0.0000001250698866 -0.0000001533361708 0.0000000669226272 7.1530644925562923 9.2474425100925686 5.4704665770124885 0.0000253153174665 2.6070099027266176 0.5436564526892523 0.0000000000015170 -0.0000380931998721 -0.0000804436025603 0.0000209854115204 
59 2 -0.0000000005847120 -0.0000000746978576 -0.0000000338340650 7.6733732430202517 7.2265245164084471 4.9272933412776494 0.0000195192230809 2.7966616035719003 0.5136232947279137 -0.0000000000034074 0.0000253157410353 -0.0000597922750052 -0.0000126672192024 
25 1 -0.0000000222480876 0.0000000252852429 0.0000000442458537 0.6262649345799139 0.8442170589982206 7.0635210667327355 0.0000253379125305 2.5753772496510856 0.5327659059611810 0.0000000000003189 0.0000192966468576 0.0000512869199611 0.0000283738562989 
28 1 -0.0000000573413900 0.0000000302409119 0.0000001383328774 0.4307589395320280 0.9446878594024287 7.9416300440330216 0.0000232599746143 2.6096430173134531 0.4909225160289896 0.0000000000004730 0.0000202371138042 0.0000546721227946 0.0000747290196600 
37 2 0.0000000127543777 0.0000003118086062 0.0000002797105893 2.7648172090216039 0.4566691289081750 8.2046535165820718 0.0000188815691152 2.7976978121894085 0.4878678214736947 -0.0000000000085718 0.0000351134950484 0.0000934155305748 0.0001196189184549 
52 2 0.0000001962467835 0.0000005094709256 0.0000000310926592 0.3548158361322049 1.0640275774470753 10.3834846500298745 0.0000162484182796 2.8025939789938472 0.4357074947956540 -0.0000000000097709 0.0000855866311401 0.0001420462468312 0.0000420085025578 
18 1 -0.0000002088275221 0.0000001797744676 0.0000003385970350 6.7173307405099276 2.3298048403341856 7.6879854513665817 0.0000208874603528 2.7379774934720293 0.5258892464372641 -0.0000000000032757 -0.0000631337959757 0.0000571583264160 0.0001004646009076 
29 1 0.0000000924484542 0.0000002958456946 0.0000001391603697 8.0815080119957976 3.4379833960933341 10.1093343536378253 0.0000170981878757 2.8338760109487491 0.4915964176282258 -0.0000000000028408 0.0000544922694843 0.0001001575804872 0.0000290808317250 
43 2 0.0000000332996004 -0.0000001213158819 -0.0000001962891467 8.0044037151972898 0.8144400270029029 9.7753274420509459 0.0000220472341772 2.6762100093926207 0.5285062442332215 -0.0000000000029687 -0.0000205454323252 -0.0000288475555423 -0.0000132429380321 
44 2 -0.0000000236485940 -0.0000001232629892 -0.0000001858038782 7.8810293065705874 0.6245685591958388 10.0342454223890822 0.0000214545057774 2.6986629310340908 0.5332251313642513 -0.0000000000040390 -0.0000311686764025 -0.0000407387567568 -0.0000249698155705 
48 2 0.0000000374084666 0.0000001009972857 0.0000001515174320 8.1273382982084073 2.4734588409085774 7.3374373839431746 0.0000235276992281 2.6796768421883410 0.5337701277346907 0.0000000000008331 -0.0000005158073977 0.0000943832535463 0.0000565523509814 
46 2 0.0000000505925757 0.0000001228707774 -0.0000002319078878 2.4254315350145381 4.0780399054000673 9.5867107326567034 0.0000095648855374 3.3499211588973141 0.4747397467254373 0.0000000000115068 -0.0000091523291661 0.0000299820321902 -0.0000347041723072 
7 1 0.0000002575946558 0.0000000496337058 0.0000000537021664 8.4795675202885921 5.7514792317685348 9.6303505140815098 0.0000145310282861 2.9868378908635700 0.4693908011686128 -0.0000000000022851 0.0000802299679739 0.0000192736604822 0.0000166954177812 
3 1 -0.0000000826251987 -0.0000001212765185 0.0000001998934810 2.9959662666309606 8.2298306229368468 7.0646347176518445 0.0000203977595814 2.7318148758900676 0.5007099634596371 -0.0000000000032576 -0.0000120601646491 -0.0000796010091296 0.0000657275208926 
9 1 0.0000002226872675 -0.0000003987715636 0.0000001418067032 0.0912523477370351 7.6336871838456082 10.1917809245871318 0.0000154438504763 2.9358314753207098 0.5021887414994873 -0.0000000000016321 0.0000518754294265 -0.0001061738382799 0.0000355171797101 
39 2 0.0000000155669024 -0.0000002165514964 -0.0000000616029465 0.1653158230861196 10.4305459129480891 9.9046237616084891 0.0000196219965727 2.7033739449632241 0.4566426142514077 -0.0000000000039371 0.0000280420441799 -0.0000640495148033 0.0000323478194561 
40 2 -0.0000000461107920 -0.0000001091790393 0.0000001474876466 0.0990784578682779 9.6742070299748857 7.7079532030665252 0.0000250322174124 2.6275563418859287 0.5351252766018694 0.0000000000041799 -0.0000080200094737 -0.0001034252977149 0.0000711247040720 
10 1 -0.0000001688360513 -0.0000000683779466 0.0000001450488933 6.7494834190865181 8.6069367215203503 8.5392740101633589 0.0000195124780661 2.7797665789669055 0.5231291216329360 -0.0000000000008453 -0.0000482498487351 -0.0000332887420726 0.0000553470051786 
35 2 -0.0000001744278449 -0.0000002435663839 0.0000003705212450 3.8130332840915653 7.9986143364339073 8.5383314503160577 0.0000166713061003 2.8711554017110945 0.4943105307889875 -0.0000000000030756 -0.0000532670296856 -0.0000789032853877 0.0001007890197944 
55 2 -0.0000001109950821 -0.0000000938461831 -0.0000001345310728 4.1720884809351357 9.6063603991854585 10.4774692549412816 0.0000149507907918 3.0349442434136762 0.5219761032328664 -0.0000000000003521 -0.0000405982887533 -0.0000188057458794 -0.0000260587268544 
24 1 -0.0000001258257799 -0.0000001324472960 0.0000000385300457 7.2818867666817413 9.1166928072375875 8.4991999613651412 0.0000222191625495 2.7255972771688661 0.5583246092111014 0.0000000000006606 -0.0000527104859629 -0.0000611067974821 0.0000507394144349 
ITEM: TIMESTEP
2
ITEM: NUMBER OF ATOMS
60
ITEM: BOX BOUNDS pp pp pp
0.0000000000000000e+00 1.0517862088614400e+01
0.0000000000000000e+00 1.0517862088614400e+01
0.0000000000000000e+00 1.0517862088614400e+01
ITEM: ATOMS id type fx fy fz x y z rho_SPH width_SPH omega_SPH u_SPH vx vy vz 
13 1 -0.0000000983353375 0.0000002786147964 -0.0000001712030668 1.6378519903662452 1.5039067073862384 0.7302423802744822 0.0000091951994238 3.6410066072461404 0.3411931458750992 -0.0000000000100676 -0.0000515343813550 0.0001647336866488 -0.0001134974518434 
30 1 -0.0000000868230963 0.0000000470669075 -0.0000002266780902 4.3332199345447631 3.0845771510501412 2.1797670539465708 0.0000128302311366 3.3089547279301823 0.3346335500363529 -0.0000000000200938 -0.0001300501680921 -0.0000028868706661 -0.0002114846161326 
33 2 -0.0000001177150001 -0.0000001667483599 -0.0000003014670997 3.7175950376529014 0.0501433233707358 3.1238432681594097 0.0000130874946139 3.3000874923085819 0.3508840232441898 -0.0000000000372880 -0.0001055234561744 -0.0000837190440310 -0.0002718166203369 
36 2 0.0000000115331125 -0.0000000084332409 0.0000001332543577 7.0093357786883264 2.7551928824297813 0.1010051090170217 0.0000137987126556 3.2910347266687996 0.3916319232658251 -0.0000000000097201 -0.0000094316402590 0.0000438974615998 0.0000171115076432 
45 2 -0.0000000638446264 -0.0000000903523599 0.0000002928172104 6.5179503652719477 2.8332269847176517 3.4491659360632996 0.0000215104030695 3.0130847788605539 0.4724635444038340 0.0000000000123909 0.0000340073342957 0.0000687901670443 0.0000430343503428 
53 2 0.0000000555344590 -0.0000005918603982 0.0000000496371952 1.4320469061202015 6.7581518269872722 0.0644697110055346 0.0000070300942516 3.8646005285909846 0.3087462740660942 0.0000000000125277 0.0000248494824471 -0.0002586074994369 0.0000169865357410 
2 1 -0.0000002763810089 -0.0000000111767573 -0.0000000479049709 5.7846376178507821 4.2591633169738792 0.7347778165495537 0.0000121021825297 3.3742119240611235 0.3547145309666243 -0.0000000000161731 -0.0001762177903219 0.0000253582409099 -0.0000702478293000 
12 1 -0.0000000611681101 -0.0000000217891292 0.0000000631722364 5.8629626244746005 5.8229905543628089 2.4799093079776471 0.0000146976857110 3.2291175249136588 0.3687707465084511 -0.0000000000047935 0.0000243094260548 0.0000023780925854 -0.0000131309514194 
17 1 0.0000001253198025 -0.0000001614046582 -0.0000000049076715 4.0532480962274313 5.6183700207585723 2.8471014829547641 0.0000138534298948 3.3015938040698227 0.3860497181611161 -0.0000000000085706 -0.0000263575004150 -0.0000568969956583 -0.0000942509198730 
41 2 0.0000000382355152 -0.0000000017852394 0.0000001996613615 5.9943137327399292 3.7843531243900386 2.8446985431818539 0.0000181532405841 3.0757093342896811 0.4093205619040888 0.0000000000048235 0.0000571591012308 0.0000640308424021 0.0000384559700096 
20 1 0.0000001063612176 0.0000000265107734 -0.0000002367140081 9.1766807443021428 6.4762650805279849 2.2224082981098898 0.0000112801892938 3.4729285571016355 0.3770866135541697 -0.0000000000028808 0.0001031535936740 -0.0000232614639484 -0.0001302844969372 
21 1 0.0000002572405397 0.0000000820793623 -0.0000001513743254 9.1638876750772216 5.9836899802395775 1.7162728151965680 0.0000094019161573 3.5522296196391832 0.3126283312155155 -0.0000000000007638 0.0001687721379595 0.0000048396921413 -0.0000821568293291 
11 1 -0.0000001322595010 0.0000000769533228 0.0000000125282620 6.1862746109411368 7.3807231942074729 0.1437288543944978 0.0000115049277318 3.4442432342880025 0.3560385427661513 -0.0000000000042092 -0.0000879330195383 0.0000164289451086 -0.0000014451618356 
50 2 -0.0000000084959121 0.0000000367168945 0.0000001337701726 6.0498206962815555 9.9951472843632434 3.3178421230735093 0.0000179280178344 3.1394976325656674 0.4270298611626426 0.0000000000010668 -0.0000388186704204 -0.0000636931884152 -0.0000367175295600 
60 2 -0.0000000270450139 0.0000000075737345 0.0000000459536970 6.1552199631890225 7.8720954809755366 1.7458301207742586 0.0000146258698920 3.3139875168392789 0.4190841411502070 -0.0000000000030167 -0.0000353010865214 -0.0000387251231004 -0.0000463167940043 
22 1 0.0000000180137959 -0.0000000133278770 -0.0000000504092346 9.3682150992965951 9.6470432470463088 1.0477863223602273 0.0000133967196907 3.3820520259069093 0.3954074274700206 -0.0000000000105159 0.0000490541017517 -0.0000989743405603 -0.0000816844490870 
14 1 -0.0000000227269969 0.0000000308717167 0.0000000237604052 1.5143641200324931 0.0932840498306513 6.2779253118029352 0.0000175301503968 3.0648268321300955 0.3691041990408175 -0.0000000000033916 0.0000369672289096 -0.0000019922132027 -0.0000002398145040 
26 1 0.0000000666797396 0.0000001012989204 0.0000000634166000 1.6582444037269592 3.1820446390955124 3.8035468765177733 0.0000127099785271 3.4327296023240308 0.3997463988968269 -0.0000000000081586 -0.0000201901680111 0.0001288564765299 -0.0000728057279275 
16 1 0.0000002143641497 -0.0000000377408385 0.0000000818108055 3.8115871875233864 2.9163839791608415 4.3072319379952360 0.0000178335030620 3.0785826478866811 0.3981580014778719 0.0000000000053071 0.0000275090822280 0.0000544054424281 0.0000292368327111 
34 2 -0.0000000226854631 -0.0000000978331049 0.0000001863533100 5.2636165023590937 2.9049404911629311 6.6624397467700520 0.0000176454911934 3.1844895622067098 0.4655049957115509 -0.0000000000092769 -0.0000875974917709 0.0000689452776637 0.0002355387763009 
47 2 0.0000001202531960 -0.0000000319443201 -0.0000000401322654 4.1528612850215669 0.8402393929110531 6.0074839882315230 0.0000193585398364 3.0591115779858784 0.4228267233778058 0.0000000000032992 0.0000430133748187 0.0000325158020669 0.0000618267814408 
58 2 0.0000002917595173 -0.0000000745010460 0.0000000443752518 3.8529887046004183 2.7150554197844086 5.0083489067108919 0.0000193854447940 3.0542957834798701 0.4396502148227410 0.0000000000030364 0.0000530002059988 0.0000711880411500 0.0000569232048488 
8 1 -0.0000001428393009 -0.0000000451276714 -0.0000000301115659 8.0363505139324776 1.0742436000940809 3.7801298378628734 0.0000193896479113 3.0647995176956799 0.4654496113054881 -0.0000000000007169 0.0000579473593635 0.0000130092200377 -0.0001395860076142 
15 1 -0.0000000804374493 -0.0000000207250102 0.0000001141763153 9.5276265213120848 0.7770969439343099 5.5754007067734896 0.0000199010462045 2.9788140278200981 0.4163840607922242 0.0000000000005690 0.0000306600159099 0.0000710835524353 -0.0000339638503154 
19 1 -0.0000001551897944 0.0000000091607553 0.0000001428216378 8.9558299836755104 0.8487975217528726 5.4696926415008509 0.0000204809267715 2.9545778683619570 0.4140283286370541 0.0000000000014404 -0.0000189556001066 0.0000724611513038 0.0000049180079222 
49 2 -0.0000001608339869 -0.0000000886535686 0.0000001546244442 7.6110540082830518 1.0929612381156226 4.3888579289271750 0.0000204775514101 2.9892938256628256 0.4365992338482530 0.0000000000046362 -0.0000335334612757 0.0000157292941221 -0.0000042818011905 
4 1 0.0000000582569920 0.0000000436496949 0.0000000667535100 3.1812248858478887 6.8161979510493289 6.9010223093838201 0.0000143737229931 3.3042453250769821 0.4280576119278361 -0.0000000000060630 -0.0000465585711436 -0.0000774341600089 0.0001253916909827 
31 2 0.0000000870450821 0.0000001496743013 0.0000000382279444 0.0225861077257908 4.6755977923957550 4.9660215652001396 0.0000102799280082 3.5659094095408816 0.3646578387245457 -0.0000000000025905 0.0000244015173828 0.0000897358414713 0.0000114865428029 
38 2 0.0000000956487571 -0.0000001174046816 0.0000001388639187 2.7151239759755548 5.8031372691665259 4.7194326838661578 0.0000118937820357 3.3992633890360442 0.3567750687854668 -0.0000000000082320 -0.0000512620316504 -0.0000583379940137 0.0000403300353534 
6 1 0.0000000180873118 -0.0000000329049007 0.0000001416581256 4.0774551305917450 5.8852388637722992 5.1904382074092101 0.0000142335094663 3.2468672982556468 0.3585865151693505 -0.0000000000088390 -0.0000144979281037 -0.0000096008119829 0.0000863712071647 
56 2 -0.0000001580446408 0.0000000770031343 -0.0000000643397650 6.1814065438535222 6.2408758623098866 6.1454494464397715 0.0000167154789468 3.2176717909921226 0.4306737541849940 -0.0000000000091863 -0.0000139985930825 0.0000289033141822 0.0000383625755120 
5 1 0.0000000550457837 0.0000000275777165 0.0000002308236520 9.6919207904489131 6.6251114111745553 6.6438377826850781 0.0000113809434858 3.5498920953678237 0.3873430035447086 -0.0000000000063828 0.0000574192688124 -0.0000650856494636 0.0001112342525623 
27 1 0.0000002433756524 0.0000001375325703 -0.0000000970754051 8.9235736198628892 4.5257653237767741 4.5916157531823707 0.0000111943086579 3.4380722850702838 0.3255975716322110 -0.0000000000110400 0.0001394272601678 0.0001024137018807 -0.0000634241336148 
32 2 -0.0000000779291808 0.0000000023866668 0.0000000120176777 7.3629344150334362 4.3517259701166529 6.4266369942773576 0.0000140611260846 3.2979111898089313 0.3830037135253522 -0.0000000000044853 0.0000164834852518 0.0000870297276749 0.0000507723615133 
23 1 0.0000001695455738 0.0000001052601802 0.0000000952204637 3.4896899334889553 9.9332491217403600 4.2422772057590930 0.0000183960570581 3.0690991189397137 0.4374296500151282 -0.0000000000042582 0.0000575536108463 0.0000042128852154 -0.0000730353504439 
51 2 -0.0000000243503724 0.0000000314552093 -0.0000001259817147 2.0689204521558517 9.3890828567862439 4.0874271303689147 0.0000150473418472 3.2882833813693413 0.4329043075922457 -0.0000000000266505 -0.0000465009105640 -0.0000970250924046 -0.0002701150127706 
1 1 -0.0000000404860420 0.0000001821764418 0.0000000735472203 6.3701575728594753 9.2122610029623964 5.7358966003965453 0.0000202749286790 3.0198450344574574 0.4343502461296915 0.0000000000092470 -0.0000523698105674 -0.0000297257068106 0.0000668922597342 
54 2 0.0000001565124944 0.0000000883298509 0.0000000916763608 4.1760802478645287 9.5027779922197322 5.2388521918591673 0.0000196022770665 3.0190353766630453 0.4138117088430888 0.0000000000082864 0.0000468405331346 -0.0000062786579485 0.0000385880618483 
42 2 0.0000000068066111 -0.0000000292402152 -0.0000000002149117 9.3808790100667068 10.0239262603456112 5.4879733041197643 0.0000183867795013 3.0485607243965989 0.4063666614317218 -0.0000000000080192 0.0000283406848475 -0.0001348227430741 -0.0000822147286845 
57 2 -0.0000000722124580 0.0000001010029558 0.0000000799024960 7.1530596144459180 9.2474331553911124 5.4704692474439858 0.0000203147032448 3.0139429582580659 0.4455061258397806 0.0000000000061594 -0.0000549520520896 -0.0000849157611798 0.0000335324190005 
59 2 -0.0000000859388902 0.0000001217561966 -0.0000000067802772 7.6733757695976728 7.2265178988470176 4.9272917854251927 0.0000152088557472 3.2589875323403805 0.4019243081689137 -0.0000000000065425 0.0000179218273804 -0.0000557708833044 -0.0000161379362331 
25 1 -0.0000001169750490 -0.0000001475386136 -0.0000000881814965 0.6262666741225587 0.8442224037664068 7.0635242822233142 0.0000200877927964 2.9945323843675937 0.4401200422083892 0.0000000000058789 0.0000073992705963 0.0000408397027387 0.0000246193160204 
28 1 -0.0000001504692082 -0.0000001166195446 -0.0000000494314251 0.4307604732299601 0.9446935850397918 7.9416386990648640 0.0000178693269473 3.0570246213506209 0.3984643148748723 0.0000000000035271 0.0000024785649111 0.0000472905975691 0.0000823261335776 
37 2 -0.0000000371200740 0.0000001580515984 -0.0000000028082332 2.7648208293642211 0.4566811350358145 8.2046678687534413 0.0000144200351655 3.2772105758827648 0.3790557863932755 -0.0000000000169862 0.0000330313134175 0.0001335676474058 0.0001432817348527 
52 2 0.0000000235130003 0.0000003348426497 -0.0000000584623171 0.3548260718311060 1.0640461357786535 10.3834891165838599 0.0000116029630975 3.3622163079320471 0.3331556654955631 -0.0000000000215260 0.0001043663031118 0.0002141974462372 0.0000396696160305 
18 1 -0.0000000720183482 -0.0000000026227713 0.0000000693521538 6.7173226425852715 2.3298120924376913 7.6879983913229877 0.0000163897605668 3.1884743088116423 0.4150403068282891 -0.0000000000070055 -0.0000871336071577 0.0000722969049511 0.0001353260838101 
29 1 -0.0000000441769090 0.0000000898738984 0.0000001015039654 8.0815142512452027 3.4379959400141802 10.1093384509222464 0.0000128592657142 3.3526673782215419 0.3808097649189429 -0.0000000000055339 0.0000586173362680 0.0001331194232008 0.0000496469116031 
43 2 0.0000000955145317 -0.0000001120469897 -0.0000002939200002 8.0044019452173032 0.8144361055369792 9.7753244403593396 0.0000172962327303 3.1238203182760129 0.4260624118117246 -0.0000000000061015 -0.0000095375622618 -0.0000487896855499 -0.0000551339829551 
44 2 0.0000000394962958 -0.0000000563949839 -0.0000002184075023 7.8810259876128148 0.6245634319706995 10.0342413376120589 0.0000168477870988 3.1511454794110456 0.4281669417715340 -0.0000000000078963 -0.0000298144038622 -0.0000560915103159 -0.0000595118823761 
48 2 0.0000000226987071 -0.0000002416931879 -0.0000000371107339 8.1273385663034148 2.4734691423108166 7.3374443339773583 0.0000187964303446 3.0933672286622964 0.4259780804620392 0.0000000000047894 0.0000046206783819 0.0000823600214328 0.0000663290272372 
46 2 0.0000001181054480 0.0000000589620874 -0.0000002658425339 2.4254310521227711 4.0780439536010853 9.5867052804601016 0.0000069268800148 4.0152993802504238 0.3436256779668313 0.0000000000304006 0.0000052638369396 0.0000455206420938 -0.0000772396602899 
7 1 0.0000001160032215 0.0000000267102967 -0.0000000086519124 8.4795777445722003 5.7514815832816666 9.6303526425375860 0.0000107702144683 3.5365225137039555 0.3527792995810288 -0.0000000000040392 0.0001121559439726 0.0000257976718367 0.0000205452076655 
3 1 -0.0000000590983080 0.0000001187269729 0.0000000728561412 2.9959643545371137 8.2298216264619466 7.0646429986027393 0.0000157025607459 3.1970478755559286 0.3926004648521674 -0.0000000000063522 -0.0000241712111780 -0.0000798188817034 0.0000890354635321 
9 1 0.0000001252323538 -0.0000001866890043 0.0000000318369049 0.0912594382641194 7.6336731587413018 10.1917856881207154 0.0000116656125290 3.4708508020803555 0.3837256044130796 -0.0000000000039218 0.0000816070584223 -0.0001562046365742 0.0000503559729769 
39 2 -0.0000001001569247 -0.0000001208836275 -0.0000002039329828 0.1653187603182083 10.4305376574459761 9.9046264699596627 0.0000145353503269 3.2002501972876876 0.3591181188996837 -0.0000000000083796 0.0000208133654756 -0.0000928851863241 0.0000096563262137 
40 2 -0.0000000927679507 0.0000001130092388 -0.0000000678187203 0.0990772618254663 9.6741957544506842 7.7079615758993034 0.0000200538883937 3.0317154848026169 0.4332052565296817 0.0000000000126427 -0.0000198879554059 -0.0001030979862767 0.0000779328482907 
10 1 -0.0000000656455099 0.0000000374732623 -0.0000000048092707 6.7494771513055127 8.6069328083193000 8.5392807843857721 0.0000151884436812 3.2490324621467468 0.4087762446142851 -0.0000000000016782 -0.0000682875768680 -0.0000359297158766 0.0000673312457198 
35 2 -0.0000000897768603 -0.0000000603127540 0.0000001921173863 3.8130264668075387 7.9986043646977905 8.5383446955241364 0.0000125888945555 3.3890201747797057 0.3794915904211026 -0.0000000000073540 -0.0000758447625657 -0.0001048714149056 0.0001488695591480 
55 2 -0.0000000122946757 -0.0000000816394460 -0.0000001316021711 4.1720834725927531 9.6063577166440570 10.4774654994272129 0.0000115958369782 3.5489052230285711 0.3992372439680224 -0.0000000000000439 -0.0000511340709076 -0.0000338019498841 -0.0000488012638869 
24 1 0.0000000200591381 0.0000000670921929 -0.0000001922175116 7.2818804203832377 9.1166855647234666 8.4992053645668371 0.0000178896776153 3.1495272129695819 0.4445090879471725 0.0000000000028988 -0.0000617488222923 -0.0000666917474473 0.0000376059823519 
