ITEM: TIMESTEP
0
ITEM: NUMBER OF ATOMS
8
ITEM: BOX BOUNDS pp pp pp
0.0000000000000000e+00 4.8819591223992003e+00
0.0000000000000000e+00 4.8819591223992003e+00
0.0000000000000000e+00 4.8819591223992003e+00
ITEM: ATOMS id type fx fy fz x y z rho_SPH width_SPH omega_SPH u_SPH vx vy vz 
1 1 1.8101789799002104 -2.1585928472811484 1.4453629009910933 1.8214807326507032 2.9619344168347586 4.1100761010512503 0.0000000000000000 2.5000000000000000 0.0000000000000000 0.0000000000000000 0.0483305442940756 -0.0568325701698801 0.0337354870151984 
2 1 -1.7882246833590913 2.1566364850932187 -1.4942966560421571 0.8765450937513494 4.1097523503185762 3.3310601555297330 0.0000000000000000 2.5000000000000000 0.0000000000000000 0.0000000000000000 -0.0483305442940758 0.0568325701698802 -0.0337354870151987 
3 2 -0.1964933756706883 -0.0350790791003628 0.1003751832869679 2.8485877161109334 4.3637470124772992 2.7984897841120846 0.0000049387262383 4.0480373230081836 0.1567278801080437 0.0000000000000000 -20.1452595681599504 -18.5049389920889702 -7.4046169225903320 
4 2 0.0706471003337968 -0.1187139590581803 -0.2139835529670684 2.7270022481356526 1.9337257802056282 0.3127937079036167 0.0000045980688805 4.1273497346143486 0.1672140818292547 0.0000000000000000 3.8587364515162137 9.4370152372069551 8.0029661724122665 
5 2 0.0709995980128074 0.1300752326597010 -0.0047410687416175 1.3575415502453905 3.8120573883794564 3.2139034336416543 0.0000030878734716 4.3990686140917399 0.1139192120408999 0.0000000000000000 16.2865231166437461 9.0679237548820204 -0.5983492498219416 
6 3 -0.1471644075275989 -0.0565617091584829 0.1183603332381026 4.8246916802983826 2.2215343300295416 2.3036231637675928 0.0000034969322467 4.3227499947548225 0.1356916967972148 0.0000000000000000 5.3878960340127691 -19.7543855144476765 -9.5200423293884704 
7 3 0.2348274782324857 0.0079128399311751 0.1686184154728946 3.3769858722209922 2.1199918628495138 2.9399105237482557 0.0000038798170270 4.2081749046168815 0.1208091947611011 0.0000000000000000 9.6629224265025258 -0.8296276481888255 1.6437569235565781 
8 3 -0.0547706899219217 0.0743230369140797 -0.1196955552382151 1.6803260007827143 0.0926757709304676 1.4016820283688107 0.0000030065686178 4.4310649301343208 0.1174990769050392 0.0000000000000000 -15.0508184605153126 20.5840131626364844 7.8762854058318874 
ITEM: TIMESTEP
1
ITEM: NUMBER OF ATOMS
8
ITEM: BOX BOUNDS pp pp pp
0.0000000000000000e+00 4.8819591223992003e+00
0.0000000000000000e+00 4.8819591223992003e+00
0.0000000000000000e+00 4.8819591223992003e+00
ITEM: ATOMS id type fx fy fz x y z rho_SPH width_SPH omega_SPH u_SPH vx vy vz 
1 1 1.8050378166756047 -2.1700600248142057 1.4625692832338233 1.8215290946454616 2.9618775467607019 4.1101098616503320 0.0000000000000000 2.5000000000000000 0.0000000000000000 0.0000000000000000 0.0483933558989352 -0.0569077771765620 0.0337860100951662 
2 1 -1.7926221716922428 2.1683908411082227 -1.4879641800199646 0.8764967321380299 4.1098092203586427 3.3310263940804652 0.0000000000000000 2.5000000000000000 0.0000000000000000 0.0000000000000000 -0.0483927587476974 0.0569077141854971 -0.0337873014981920 
3 2 -0.2090612063160214 0.0360008240013202 0.0027396498476235 2.8282745422376401 4.3452120964991074 2.7911709432575003 0.0000026495534462 4.9829774482427336 0.1014841603370925 0.0000000000000000 -20.4918280750907194 -18.5041513108044171 -7.3164996743846586 
4 2 0.0727201870646828 -0.1903527539581356 -0.1152379627190122 2.7309213563870922 1.9430613478908410 0.3206138134605817 0.0000024585629280 5.0951632255165613 0.1076096845721354 0.0000000000000000 3.9812516170285930 9.1729008762068975 7.7216284334034420 
5 2 0.0826185916363652 0.1292113222389790 -0.0109925016097795 1.3738887463904474 3.8212364685142042 3.2133010328900418 0.0000016196864954 5.5734402162518339 0.0729379354027194 0.0000000000000000 16.4177982371548161 9.2894982560459685 -0.6117944437059861 
6 3 0.0071311298002872 -0.0571413853414683 0.1240928577432398 4.8299538163206597 2.2017316094500665 2.2942042667976508 0.0000016660625905 5.4994609404219137 0.0807608724228452 0.0000000000000000 5.2682299615821870 -19.8515510094131571 -9.3128528556871029 
7 3 0.0837580246779566 0.0007424368812639 0.1268459992235408 3.3868494675337897 2.1191689971545671 2.9416983743033160 0.0000018649536648 5.3246688238226492 0.0705655119925023 0.0000000000000000 9.9351711125673745 -0.8222312421433926 1.8962473788508871 
8 3 -0.0495823718466324 0.0832087398840238 -0.1020531456994712 1.6652283777807810 0.1133232971812997 1.4094560273951817 0.0000015776491121 5.6184604737595887 0.0745207910012129 0.0000000000000000 -15.1399938426146008 20.7186326567909340 7.6867890479770766 
ITEM: TIMESTEP
2
ITEM: NUMBER OF ATOMS
8
ITEM: BOX BOUNDS pp pp pp
0.0000000000000000e+00 4.8819591223992003e+00
0.0000000000000000e+00 4.8819591223992003e+00
0.0000000000000000e+00 4.8819591223992003e+00
ITEM: ATOMS id type fx fy fz x y z rho_SPH width_SPH omega_SPH u_SPH vx vy vz 
1 1 1.8018390753223772 -2.1764025232156095 1.4718194983319584 1.8215775193625012 2.9618206012804054 4.1101436730714411 0.0000000000000000 2.5000000000000000 0.0000000000000000 0.0000000000000000 0.0484560226043821 -0.0569832936126338 0.0338369928381173 
2 1 -1.7947149008505898 2.1747468365291969 -1.4845874253085616 0.8764483082338539 4.1098661657469471 3.3309925809267367 0.0000000000000000 2.5000000000000000 0.0000000000000000 0.0000000000000000 -0.0484550859638445 0.0569831728545090 -0.0338389472907861 
3 2 -0.0830373500536781 0.0134045795066556 0.0048395654811117 2.8076040599607519 4.3267387098556904 2.7838567847633153 0.0000013609044315 6.1453989405593301 0.0641728893265400 0.0000000000000000 -20.7414422208902067 -18.4619316992192317 -7.3100228215592775 
4 2 0.0705969139425568 -0.1718203920118072 -0.0816498091543354 2.7349647513697097 1.9520715819580421 0.3282369647704236 0.0000014472340197 6.1865326173407791 0.0736548065750486 0.0000000000000000 4.1037238955327799 8.8634041721274048 7.5533770952067298 
5 2 -0.0319148875510549 0.1342693424801941 -0.0298988412564841 1.3903771467197001 3.8306363848915486 3.2126798447542422 0.0000007244457492 7.1222264558495700 0.0413002437392772 0.0000000000000000 16.4611273173852091 9.5146568527742463 -0.6467383261647464 
6 3 0.0069077782712311 -0.0555197912288234 0.0943172920597260 4.8352281402215471 2.1818312280107155 2.2849974580562189 0.0000008843896316 6.8930363386556612 0.0521224083289874 0.0000000000000000 5.2802269741309047 -19.9478261286875096 -9.1262094718423601 
7 3 0.0765110266259063 -0.0108246696105090 0.1039599525975852 3.3968562144461272 2.1183474003652272 2.9437030185059574 0.0000009931513765 6.6530502356444892 0.0458172127875998 0.0000000000000000 10.0721297570622621 -0.8308470598377357 2.0934836515161637 
8 3 -0.0461876557067483 0.0921466175507024 -0.0788002327510000 1.6500460130974850 0.1341130362440495 1.4170556064647648 0.0000008393378238 7.0283562617339213 0.0481744676436778 0.0000000000000000 -15.2218345539075166 20.8684833725953389 7.5322399733841543 
ITEM: TIMESTEP
3
ITEM: NUMBER OF ATOMS
8
ITEM: BOX BOUNDS pp pp pp
0.0000000000000000e+00 4.8819591223992003e+00
0.0000000000000000e+00 4.8819591223992003e+00
0.0000000000000000e+00 4.8819591223992003e+00
ITEM: ATOMS id type fx fy fz x y z rho_SPH width_SPH omega_SPH u_SPH vx vy vz 
1 1 1.7996684655656254 -2.1795729699933437 1.4765077168303971 1.8216260066906704 2.9617635801734767 4.1101775356360086 0.0000000000000000 2.5000000000000000 0.0000000000000000 0.0000000000000000 0.0485185960214927 -0.0570589753287945 0.0338882177506070 
2 1 -1.7957598666664611 2.1783113565765273 -1.4828960372288427 0.8763998219661022 4.1099231867043517 3.3309587161858838 0.0000000000000000 2.5000000000000000 0.0000000000000000 0.0000000000000000 -0.0485174676950230 0.0570588038848294 -0.0338905050283063 
3 2 -0.0843445705720068 0.0784175495637790 0.0599198069204060 2.7867916577958596 4.3082882331006687 2.7765508976143818 0.0000006593848267 7.6527837581019975 0.0389017767978930 0.0000000000000000 -20.8844792001157309 -18.3834646824757542 -7.2546824062370723 
4 2 0.0660087982171340 -0.2200139449694088 -0.1250396806010720 2.7391288041781574 1.9607881562350957 0.3357205676509952 0.0000007480443391 7.5682634388309928 0.0473371014016442 0.0000000000000000 4.2204609262660444 8.5285603627773767 7.3767496545502667 
5 2 -0.0241110681959935 0.1115295269967046 -0.0284036106276511 1.4068110010252179 3.8402657822197526 3.2120075562377122 0.0000003638442176 9.0302707986961295 0.0259783260700436 0.0000000000000000 16.4132500828647530 9.7247053912042016 -0.6965609507814002 
6 3 0.0140955955506867 -0.0481201487589649 0.0753651227218011 4.8405142702689217 2.1618359571926917 2.2759518478539662 0.0000004741040687 8.5636770701216598 0.0340743174660663 0.0000000000000000 5.2981755024653951 -20.0363921093355586 -8.9812065949049007 
7 3 0.0711947912248295 -0.0088829813548132 0.0860143155949372 3.4069937270479143 2.1175073030348917 2.9458853416063482 0.0000005335268943 8.2498212343164177 0.0300873520302172 0.0000000000000000 10.1983524334446862 -0.8476883223299648 2.2558270237947338 
8 3 -0.0467521451238141 0.0883316119395192 -0.0614676336099756 1.6347847086729659 0.1550602639264904 1.4245205073419500 0.0000004506198870 8.7211738525437141 0.0315231103420948 0.0000000000000000 -15.3012566821214353 21.0227118619432503 7.4123734321729859 
ITEM: TIMESTEP
4
ITEM: NUMBER OF ATOMS
8
ITEM: BOX BOUNDS pp pp pp
0.0000000000000000e+00 4.8819591223992003e+00
0.0000000000000000e+00 4.8819591223992003e+00
0.0000000000000000e+00 4.8819591223992003e+00
ITEM: ATOMS id type fx fy fz x y z rho_SPH width_SPH omega_SPH u_SPH vx vy vz 
1 1 1.7983319868266561 -2.1810352790483143 1.4788122727616455 1.8216745565545442 2.9617064833297477 4.1102114495069424 0.0000000000000000 2.5000000000000000 0.0000000000000000 0.0000000000000000 0.0485811085056443 -0.0571347375355164 0.0339395641571616 
2 1 -1.7961715567597998 2.1801315221193338 -1.4819351448435429 0.8763512732984639 4.1099802833547168 3.3309247999166800 0.0000000000000000 2.5000000000000000 0.0000000000000000 0.0000000000000000 -0.0485798747344750 0.0571345284699108 -0.0339420166844981 
3 2 -0.0752092982416506 0.0609382107032972 0.0454777534809773 2.7658351015605205 4.2899717804907391 2.7693474199508410 0.0000003551926767 9.4694139843720038 0.0255778090642865 0.0000000000000000 -21.0208266821707852 -18.2643775856628601 -7.1646144430950605 
4 2 0.0560574722811598 -0.1789624752032922 -0.0993220017587332 2.7434056732222416 1.9691287026835969 0.3429904640795241 0.0000004269461024 9.1944457640866624 0.0321172714650028 0.0000000000000000 4.3247732112018058 8.1876132538519304 7.1850203615732200 
5 2 -0.0149614454341256 0.0905700713661454 -0.0245370342917565 1.4232036468854297 3.8500857956739569 3.2112867228526794 0.0000001836959527 11.3954775900570482 0.0164483841356033 0.0000000000000000 16.3798604891768065 9.8974105193593473 -0.7418016189444649 
6 3 0.0127873793253228 -0.0422379609196001 0.0585572010257324 4.8458244912264785 2.1417584437920443 2.2670350448664092 0.0000002558157928 10.5810180893590875 0.0224633831857975 0.0000000000000000 5.3211484705403596 -20.1136080416694512 -8.8667626659064531 
7 3 0.0608916962308587 -0.0074591347437002 0.0693749413270299 3.4172529193130163 2.1166520237205670 2.9482146725535467 0.0000002882754668 10.1811111214010559 0.0199036556159547 0.0000000000000000 10.3112275402157607 -0.8616535517415184 2.3886156178742670 
8 3 -0.0417262342284214 0.0780550457261305 -0.0464279877013526 1.6194434997332421 0.1761584599679360 1.4318803533291107 0.0000002433837974 10.7672510615293575 0.0207911250110961 0.0000000000000000 -15.3768662823817603 21.1648983346934827 7.3201707397534976 
ITEM: TIMESTEP
5
ITEM: NUMBER OF ATOMS
8
ITEM: BOX BOUNDS pp pp pp
0.0000000000000000e+00 4.8819591223992003e+00
0.0000000000000000e+00 4.8819591223992003e+00
0.0000000000000000e+00 4.8819591223992003e+00
ITEM: ATOMS id type fx fy fz x y z rho_SPH width_SPH omega_SPH u_SPH vx vy vz 
1 1 1.7974356888352152 -2.1815987315886880 1.4798734430402491 1.8217231689076818 2.9616493106984056 4.1102454147643224 0.0000000000000000 2.5000000000000000 0.0000000000000000 0.0000000000000000 0.0486435821970215 -0.0572105349382843 0.0339909690406145 
2 1 -1.7962490727190910 2.1809816795458143 -1.4813242466231473 0.8763026622166332 4.1100374557612911 3.3308908321525146 0.0000000000000000 2.5000000000000000 0.0000000000000000 0.0000000000000000 -0.0486422902735049 0.0572102994497952 -0.0339935010320398 
3 2 -0.0645710181885990 0.0463290731562585 0.0337870242089431 2.7447500044315181 4.2717594779293435 2.7622216687281913 0.0000001922699986 11.6701602423510842 0.0169159027187630 0.0000000000000000 -21.1402765853779684 -18.1727118418618332 -7.0968783679122254 
4 2 0.0459062115946967 -0.1416416790613312 -0.0771719485523692 2.7477783506005609 1.9771633827427997 0.3500906083741416 0.0000002450914155 11.1198071506238279 0.0219590794806173 0.0000000000000000 4.4119067395888054 7.9136395201192560 7.0341966560636200 
5 2 -0.0087739308516259 0.0715870595698097 -0.0201244791541190 1.4395707220035716 3.8600606032584714 3.2105239529998233 0.0000000930533580 14.3383289717998874 0.0104583578742199 0.0000000000000000 16.3595773157492133 10.0359826308649041 -0.7799673177670042 
6 3 0.0119974713989077 -0.0358023764496660 0.0445538754489775 4.8511565672100030 2.1216087411093527 2.2582183225221533 0.0000001386285060 13.0279528308076884 0.0148917336886119 0.0000000000000000 5.3423284771079596 -20.1802977658243279 -8.7786486279715152 
7 3 0.0505566417845139 -0.0056918708849468 0.0546044734392192 3.4276161821283457 2.1157839959314084 2.9506625728420968 0.0000001563603999 12.5260566233503141 0.0132309628538065 0.0000000000000000 10.4064662228036688 -0.8728918032316907 2.4945627889189224 
8 3 -0.0363019918540174 0.0658368457127501 -0.0341981418077534 1.6040309761082023 0.1973900605958774 1.4391608488214569 0.0000001319782074 13.2505573614863792 0.0137851794042800 0.0000000000000000 -15.4435456567815628 21.2878618029672850 7.2512713152008406 
ITEM: TIMESTEP
6
ITEM: NUMBER OF ATOMS
8
ITEM: BOX BOUNDS pp pp pp
0.0000000000000000e+00 4.8819591223992003e+00
0.0000000000000000e+00 4.8819591223992003e+00
0.0000000000000000e+00 4.8819591223992003e+00
ITEM: ATOMS id type fx fy fz x y z rho_SPH width_SPH omega_SPH u_SPH vx vy vz 
1 1 1.7967862524927292 -2.1816866956567331 1.4803106844526899 1.8217718437189383 2.9615920622598710 4.1102794314450231 0.0000000000000000 2.5000000000000000 0.0000000000000000 0.0000000000000000 0.0487060290324562 -0.0572863436589136 0.0340423999578154 
2 1 -1.7961013390836038 2.1812632468301367 -1.4808420252711767 0.8762539887179168 4.1100947039536164 3.3308568129146159 0.0000000000000000 2.5000000000000000 0.0000000000000000 0.0000000000000000 -0.0487047045925569 0.0572860900925241 -0.0340449663874716 
3 2 -0.0239101005384020 0.0866264202691476 0.0181903709763609 2.7235545483897647 4.2536263568070156 2.7551536632150162 0.0000000868261891 14.6786911333868879 0.0097152601768087 0.0000000000000000 -21.2158885265834201 -18.0590941220990295 -7.0524608491770735 
4 2 0.0367705564452177 -0.1149891718213209 -0.0614177296626269 2.7522294867014190 1.9849559817238354 0.3570588573916514 0.0000001412554210 13.4082051831029414 0.0150924651649085 0.0000000000000000 4.4825585465961142 7.6943344628638846 6.9157642181419563 
5 2 -0.0051977563045125 0.0556848203266222 -0.0140911617839587 1.4559228015169281 3.8701577609356868 3.2097267882171452 0.0000000472376872 18.0083214842642896 0.0066679875239812 0.0000000000000000 16.3476377471385348 10.1447433929154833 -0.8092064488735972 
6 3 -0.0205268945793662 -0.0789133564762393 0.0428763044240343 4.8565091481806943 2.1013978482603957 2.2494777476104661 0.0000000625886841 16.3788824584748021 0.0087496021542294 0.0000000000000000 5.3350396198543901 -20.2783286155482827 -8.7039347713289796 
7 3 0.0410499836174749 -0.0031402191537689 0.0426860586456097 3.4380658517586240 2.1149062401141037 2.9532037981313848 0.0000000850270683 15.3803259712386584 0.0088239838324247 0.0000000000000000 10.4847490799101237 -0.8804393058213573 2.5777028542535665 
8 3 -0.0288707020495372 0.0551549556821557 -0.0277125017809320 1.5885564084196788 0.2187341835738705 1.4463828959595124 0.0000000717568085 16.2724838316754479 0.0091727034007745 0.0000000000000000 -15.4992392778674439 21.3912558954588121 7.1983652940025475 
ITEM: TIMESTEP
7
ITEM: NUMBER OF ATOMS
8
ITEM: BOX BOUNDS pp pp pp
0.0000000000000000e+00 4.8819591223992003e+00
0.0000000000000000e+00 4.8819591223992003e+00
0.0000000000000000e+00 4.8819591223992003e+00
ITEM: ATOMS id type fx fy fz x y z rho_SPH width_SPH omega_SPH u_SPH vx vy vz 
1 1 1.7962736452460466 -2.1815329353650021 1.4803434943049485 1.8218205809657468 2.9615347380110877 4.1103134995642376 0.0000000000000000 2.5000000000000000 0.0000000000000000 0.0000000000000000 0.0487684556782794 -0.0573621512363843 0.0340938390417946 
2 1 -1.7959153769212701 2.1812318765433631 -1.4805111354358387 0.8762052528074481 4.1101520279414760 3.3308227422197398 0.0000000000000000 2.5000000000000000 0.0000000000000000 0.0000000000000000 -0.0487671131139017 0.0573618850822329 -0.0340964176157234 
3 2 -0.0189155989746204 0.0626652553747980 0.0153261309715423 2.7023182273783513 4.2356412896851454 2.7481167470298371 0.0000000440921516 18.4313872501502019 0.0061667836897069 0.0000000000000000 -21.2524854222855630 -17.9315162437487103 -7.0238191704646189 
4 2 0.0198290952759878 -0.0495144324609218 -0.0401239416219153 2.7567434676937528 1.9925520516685273 0.3639221368104256 0.0000000692074880 16.4678975355384836 0.0094197543795344 0.0000000000000000 4.5309260356125804 7.5537571619207151 6.8289913225283829 
5 2 -0.0020332525282829 0.0374471528525178 -0.0139300402236602 1.4722659974978485 3.8803500900443022 3.2089055401020761 0.0000000240124060 22.5916967563818254 0.0042591458797834 0.0000000000000000 16.3414584557531235 10.2243297428812401 -0.8331520941049071 
6 3 0.0004339891534854 -0.0195216755258513 0.0267642986915503 4.8618266464497113 2.0810520838782560 2.2408104529794954 0.0000000257086100 21.1173250186038359 0.0047114538656894 0.0000000000000000 5.3178691364160429 -20.3624467184766935 -8.6444230781672502 
7 3 0.0347488949856677 0.0023414309554337 0.0351600738489778 3.4485856802881663 2.1140231173197659 2.9558179785506042 0.0000000463158917 18.8601547229135278 0.0058978935468796 0.0000000000000000 10.5495233553130294 -0.8811219138981662 2.6442266197522093 
8 3 -0.0344213962370142 -0.0331166723743376 -0.0230288805356049 1.5730324975524674 0.2401725723867950 1.4535575794094622 0.0000000262372530 20.9773099303005353 0.0044471906596779 0.0000000000000000 -15.5533258274416877 21.4100888103870375 7.1550040156688164 
ITEM: TIMESTEP
8
ITEM: NUMBER OF ATOMS
8
ITEM: BOX BOUNDS pp pp pp
0.0000000000000000e+00 4.8819591223992003e+00
0.0000000000000000e+00 4.8819591223992003e+00
0.0000000000000000e+00 4.8819591223992003e+00
ITEM: ATOMS id type fx fy fz x y z rho_SPH width_SPH omega_SPH u_SPH vx vy vz 
1 1 1.7958298085525350 -2.1811988607942077 1.4801616880958706 1.8218693806302950 2.9614773379573984 4.1103476191231065 0.0000000000000000 2.5000000000000000 0.0000000000000000 0.0000000000000000 0.0488308657066265 -0.0574379503381003 0.0341452755370770 
2 1 -1.7956640382835196 2.1810289804730303 -1.4802198069668475 0.8761564544916890 4.1102094277237811 3.3307886200793844 0.0000000000000000 2.5000000000000000 0.0000000000000000 0.0000000000000000 -0.0488295140374822 0.0574376760017443 -0.0341478580334118 
3 2 0.0087272810131956 0.0542833688261877 0.0122835662747150 2.6810495775451937 4.2177633243195185 2.7411060248740871 0.0000000270170480 22.5877334721443361 0.0045331789775145 0.0000000000000000 -21.2611918955960846 -17.8315772666611032 -7.0002251784930039 
4 2 0.0131930069852065 -0.0317762331863791 -0.0239854397520367 2.7612913387726441 2.0000634960476766 0.3707168400367081 0.0000000376956702 20.1968759854223485 0.0062396969678665 0.0000000000000000 4.5591452228310159 7.4842898549979768 6.7742063599860192 
5 2 -0.0006775782584072 0.0267855956876959 -0.0106240222946279 1.4886057184284343 3.8906064204214492 3.2080604840289353 0.0000000122168885 28.3209554237810650 0.0027238382718776 0.0000000000000000 16.3391419030127167 10.2792201293949113 -0.8541348795646624 
6 3 -0.0213381976002561 -0.0292154985081570 0.0124902035717783 4.8671448864535263 2.0606729548234424 2.2321889014541316 0.0000000149315808 26.4804398641879324 0.0033418542392320 0.0000000000000000 5.3000053503025271 -20.4040952915349685 -8.6108779652676048 
7 3 0.0244127600212113 0.0000512168293445 0.0230346405269486 3.4591648984692500 2.1131439962863072 2.9584922513708896 0.0000000252580334 23.1071466529715366 0.0039481680306963 0.0000000000000000 10.6000802158540832 -0.8790772658847726 2.6939571767927122 
8 3 -0.0244830424299659 -0.0199585693275142 -0.0131408294558003 1.5574497567647956 0.2615543611946446 1.4606929039908501 0.0000000123130933 27.0179704702545109 0.0026734383107574 0.0000000000000000 -15.6036628825931931 21.3647331219332379 7.1240950259924256 
ITEM: TIMESTEP
9
ITEM: NUMBER OF ATOMS
8
ITEM: BOX BOUNDS pp pp pp
0.0000000000000000e+00 4.8819591223992003e+00
0.0000000000000000e+00 4.8819591223992003e+00
0.0000000000000000e+00 4.8819591223992003e+00
ITEM: ATOMS id type fx fy fz x y z rho_SPH width_SPH omega_SPH u_SPH vx vy vz 
1 1 1.7954337725728751 -2.1807997618130508 1.4799038443684969 1.8219182426971601 2.9614198621104117 4.1103817901153121 0.0000000000000000 2.5000000000000000 0.0000000000000000 0.0000000000000000 0.0488932611428333 -0.0575137367014910 0.0341967043937807 
2 1 -1.7953609157561552 2.1807151540044560 -1.4799223162623363 0.8761075937793731 4.1102669032934802 3.3307544465036729 0.0000000000000000 2.5000000000000000 0.0000000000000000 0.0000000000000000 -0.0488919053277273 0.0575134579436000 -0.0341992882208210 
3 2 0.0045064387945913 0.0370527034132528 0.0076090857830493 2.6597958435871591 4.1999781351518237 2.7341162966728509 0.0000000147422603 27.6626436709905121 0.0030177249467572 0.0000000000000000 -21.2498829603290815 -17.7535256119864648 -6.9832258224783832 
4 2 0.0091190403372148 -0.0223238631973691 -0.0157146451345934 2.7658617581394149 2.0075206313785232 0.3774705495303976 0.0000000205563740 24.7469919813011856 0.0041403732403340 0.0000000000000000 4.5782120840392402 7.4380583723287934 6.7402804724352405 
5 2 0.0001631516998454 0.0196760704118886 -0.0071624980122200 1.5049442813038740 3.9009085303030924 3.2071972703429465 0.0000000062190989 35.4866848567057644 0.0017434738389245 0.0000000000000000 16.3387022974645468 10.3189241568300556 -0.8693344311417670 
6 3 -0.0138823054897656 -0.0214409611434440 0.0080730983231514 4.8724266571503163 2.0402438932951861 2.2235886970489602 0.0000000075996931 33.1864192334203594 0.0021217033327916 0.0000000000000000 5.2699075096876742 -20.4473839988203174 -8.5933055023937257 
7 3 0.0168692533012698 -0.0007117367004380 0.0154615043610174 3.4697858407198741 2.1122649627879961 2.9612058929041898 0.0000000137848428 28.2940693268796402 0.0026458171133622 0.0000000000000000 10.6353579475226105 -0.8796417161355911 2.7268542319586433 
8 3 -0.0168484354598755 -0.0121676049752954 -0.0082480734265655 1.5418251717872811 0.2829020386306615 1.4678057694614470 0.0000000057817277 34.7792840194671555 0.0016089699105620 0.0000000000000000 -15.6389828844320427 21.3372795540140210 7.1058170420512363 
ITEM: TIMESTEP
10
ITEM: NUMBER OF ATOMS
8
ITEM: BOX BOUNDS pp pp pp
0.0000000000000000e+00 4.8819591223992003e+00
0.0000000000000000e+00 4.8819591223992003e+00
0.0000000000000000e+00 4.8819591223992003e+00
ITEM: ATOMS id type fx fy fz x y z rho_SPH width_SPH omega_SPH u_SPH vx vy vz 
1 1 1.7950637721679679 -2.1803841997599491 1.4796185452891497 1.8219671671525806 2.9613623104839957 4.1104160125318945 0.0000000000000000 2.5000000000000000 0.0000000000000000 0.0000000000000000 0.0489556432697485 -0.0575895089107743 0.0342481238137968 
2 1 -1.7950336675218201 2.1803411333995428 -1.4796200831908084 0.8760586706810335 4.1103244546396684 3.3307202215029426 0.0000000000000000 2.5000000000000000 0.0000000000000000 0.0000000000000000 -0.0489542856657664 0.0575892279346430 -0.0342507079884919 
3 2 0.0024742615396372 0.0248944632627684 0.0050661698704724 2.6385498116245354 4.1822562730955459 2.7271395732291301 0.0000000080489869 33.8625944117424211 0.0020108977326184 0.0000000000000000 -21.2439175712060866 -17.7005883798182850 -6.9723941252866330 
4 2 0.0066991359495712 -0.0149924614011117 -0.0105945817987665 2.7704477629407225 2.0149396127923342 0.3841974009815786 0.0000000112187593 30.3034253257091635 0.0027506646098079 0.0000000000000000 4.5917295783089971 7.4061695379408654 6.7177978032661958 
5 2 0.0005842573088280 0.0136885508508349 -0.0052441739168091 1.5212831230233634 3.9112442687351097 3.2063218151666519 0.0000000031670091 44.4523132447511102 0.0011166647785045 0.0000000000000000 16.3393409992218608 10.3474360452143213 -0.8799366088939208 
6 3 -0.0095843470112476 -0.0152021490016387 0.0054046149829181 4.8776847014729015 2.0197781868258016 2.2150022904493443 0.0000000038696459 41.5754334782270121 0.0013481280161852 0.0000000000000000 5.2498539753887918 -20.4786975347445583 -8.5817880613764306 
7 3 0.0121123730822096 -0.0005175168877961 0.0108085451891243 3.4804356143642949 2.1113847128540359 2.9639459598348066 0.0000000075270925 34.6319008886060260 0.0017744249379636 0.0000000000000000 10.6601243277591369 -0.8806921803631843 2.7493034219172179 
8 3 -0.0123157855151459 -0.0078278204626510 -0.0054390364252804 1.5261717909959314 0.3042289203026727 1.4749045380749526 0.0000000027157753 44.7556219154881489 0.0009691515000916 0.0000000000000000 -15.6639053017047036 21.3201923725413636 7.0941206602662881 
