ITEM: TIMESTEP
0
ITEM: NUMBER OF ATOMS
12
ITEM: BOX BOUNDS pp pp pp
0.0000000000000000e+00 4.8819591223992003e+00
0.0000000000000000e+00 4.8819591223992003e+00
0.0000000000000000e+00 4.8819591223992003e+00
ITEM: ATOMS id type fx fy fz x y z rho_SPH width_SPH omega_SPH u_SPH vx vy vz 
12 3 -0.0142256200060748 0.0545855656699720 0.0118005799146804 1.6803260007827143 0.0926757709304676 1.4016820283688107 0.0000000000000000 0.0000000000000000 0.0000000000000000 0.0000000000000000 -16.8926265666348883 18.7968175943250131 6.5105828150304861 
8 2 -0.0057161897781933 -0.0297920646554170 0.0691742530386524 2.7270022481356526 1.9337257802056282 0.3127937079036167 0.0000000000000000 0.0000000000000000 0.0000000000000000 0.0000000000000000 -6.0498307912336040 14.6734770784362123 20.3834514078383222 
10 3 0.0300576450192135 0.0021082511487094 -0.0132107638788232 4.8246916802983826 2.2215343300295416 2.3036231637675928 0.0000000000000000 0.0000000000000000 0.0000000000000000 0.0000000000000000 7.9969147562514378 -20.0740606782974709 -9.1279806654000968 
4 1 0.0421898737480582 0.0183293589457703 0.0320804261108804 2.2508501305569748 3.9529017972378471 0.6218253809272138 0.0000000000000000 0.0000000000000000 0.0000000000000000 0.0000000000000000 8.6983090941883141 0.2790175599523292 -21.1401456635532980 
6 1 -0.0701267640940857 -0.0082636133197411 0.0007703936204048 0.6923514123828928 3.8451934684161917 0.4737204727261923 0.0000000000000000 0.0000000000000000 0.0000000000000000 0.0000000000000000 -22.0983240313021376 19.5879512737801811 0.4482264270558714 
3 1 0.0299138151542024 -0.0465542293554142 0.0044544279606672 3.4150619495567316 1.6218469702112015 4.2011472921444097 0.0000000000000000 0.0000000000000000 0.0000000000000000 0.0000000000000000 -5.9318223811121618 -3.5029501285084272 13.2078431150067725 
11 3 -0.0215270632273647 -0.0025569025644689 -0.0450846281997966 3.3769858722209922 2.1199918628495138 2.9399105237482557 0.0000000000000000 0.0000000000000000 0.0000000000000000 0.0000000000000000 8.8957118103834496 1.2772430839724400 2.6173978503696382 
1 1 -0.0051926941297425 -0.0493573570983517 -0.0335240045676817 1.8214807326507032 2.9619344168347586 4.1100761010512503 0.0000000000000000 0.0000000000000000 0.0000000000000000 0.0000000000000000 7.6405830033266495 0.0094247969479652 -3.8449745836435483 
2 1 -0.0334933983212643 0.0317726674529538 -0.0116373360505368 0.8765450937513494 4.1097523503185762 3.3310601555297330 0.0000000000000000 0.0000000000000000 0.0000000000000000 0.0000000000000000 -6.2403421235088219 -15.4102523503969238 -16.0646171455193638 
9 2 -0.0260435732874933 0.0000440920457307 -0.0167799884361897 1.3575415502453905 3.8120573883794564 3.2139034336416543 0.0000000000000000 0.0000000000000000 0.0000000000000000 0.0000000000000000 -8.2282048006978421 -12.8876784887696125 -8.9798543808745013 
5 1 0.0247809880335273 0.0288178772859646 -0.0130223048205028 2.9545064857619177 2.6651048424951784 4.2235356471029242 0.0000000000000000 0.0000000000000000 0.0000000000000000 0.0000000000000000 17.9315964384081710 -0.9631911517751259 27.3936678506535465 
7 2 0.0493829808892170 0.0008663544442923 0.0149789453082454 2.8485877161109334 4.3637470124772992 2.7984897841120846 0.0000000000000000 0.0000000000000000 0.0000000000000000 0.0000000000000000 14.2780355919314417 -1.7857985896665989 -11.4035970269638138 
