ITEM: TIMESTEP
0
ITEM: NUMBER OF ATOMS
6
ITEM: BOX BOUNDS pp pp pp
0.0000000000000000e+00 4.8819591223992003e+00
0.0000000000000000e+00 4.8819591223992003e+00
0.0000000000000000e+00 4.8819591223992003e+00
ITEM: ATOMS id type fx fy fz x y z rho_SPH width_SPH omega_SPH u_SPH vx vy vz 
5 2 -0.0000004184949843 -0.0000022161988315 0.0000000607487572 1.6803260007827143 0.0926757709304676 1.4016820283688107 0.0000073050525843 2.4334076523829138 0.1749345890651927 0.0000000002614900 4.2176772357732011 -24.5969142181029277 -12.3931973598129392 
1 1 0.0000007011306495 0.0000026772082678 0.0000006228355684 2.7270022481356526 1.9337257802056282 0.3127937079036167 0.0000046892824161 2.5802734325657219 0.1593086493101226 0.0000000040017420 -3.1820096435216181 -16.0669176721405904 -15.8575669915482163 
4 2 -0.0000003470485081 -0.0000020763061825 -0.0000029074169469 4.8246916802983826 2.2215343300295416 2.3036231637675928 0.0000055913850840 2.4852189523659689 0.1209544906438746 0.0000000062363061 -10.2390957426030447 15.6252840675957447 6.2356987838954243 
6 2 -0.0000014021017666 0.0000019164860496 0.0000003831847582 3.3769858722209922 2.1199918628495138 2.9399105237482557 0.0000076078884260 2.4102145732405100 0.1657263164348528 -0.0000000014873543 6.0214185068298445 8.9716301505071829 6.1574985759175194 
3 1 0.0000005625149266 0.0000011245249567 0.0000012609172814 1.3575415502453905 3.8120573883794564 3.2139034336416543 0.0000077406976408 2.4029623962590216 0.1619613582291494 -0.0000000010985539 6.2965294774816654 -0.8262456804144124 -5.0721862552633015 
2 1 0.0000009039996830 -0.0000014257142601 0.0000005797305817 2.8485877161109334 4.3637470124772992 2.7984897841120846 0.0000080790169295 2.3822611618685947 0.1522346956600662 -0.0000000021549913 -3.1145198339600233 16.8931633525550140 20.9297532468115293 
ITEM: TIMESTEP
1
ITEM: NUMBER OF ATOMS
6
ITEM: BOX BOUNDS pp pp pp
0.0000000000000000e+00 4.8819591223992003e+00
0.0000000000000000e+00 4.8819591223992003e+00
0.0000000000000000e+00 4.8819591223992003e+00
ITEM: ATOMS id type fx fy fz x y z rho_SPH width_SPH omega_SPH u_SPH vx vy vz 
5 2 -0.0070817709821136 -0.0054787131796731 -0.0276826910196194 1.6807477685027155 0.0902160794897187 1.4004427086333486 0.0000025110313936 3.6539311926498832 0.0835483804523620 -0.0000142843469507 4.2170720240601796 -24.5973825934081702 -12.3955629915347885 
1 1 0.0022627431725174 0.0106919200587903 0.0066461583224220 2.7266840471772920 1.9321190884612924 0.3112079512097843 0.0000013690915492 4.0912687492281679 0.0701297964041632 0.0000145834548742 -3.1818162198623843 -16.0660037604819159 -15.8569989878505311 
4 2 0.0023634705520384 -0.0038671626244968 -0.0086167503833736 4.8236677707211566 2.2230968584185580 2.3042467336211367 0.0000016329505952 3.8893256670561351 0.0542879186709699 0.0000129592102835 -10.2388938008125461 15.6249534200285058 6.2349621871297121 
6 2 -0.0091436801786658 -0.0163740420826985 -0.0084306700085878 3.3775880140596937 2.1208890258809419 2.9405262736091218 0.0000026141431799 3.6103638382856782 0.0803798279207817 0.0000030450419490 6.0206370096769426 8.9702310630907558 6.1567781619344686 
3 1 -0.0120802280212501 -0.0054870206112349 0.0312951215087293 1.3581712031979456 3.8119747638210248 3.2133962150269033 0.0000026614928886 3.5935623746326217 0.0780841073895107 0.0000165495159787 6.2954972041885764 -0.8267144801519187 -5.0695118087124618 
2 1 0.0236794654574736 0.0205150184393129 0.0067888315804295 2.8482762641352628 4.3654363288003708 2.8005827594417201 0.0000027787022752 3.5508359769561366 0.0735168607312507 -0.0000284469881984 -3.1124962172507429 16.8949163509227525 20.9303334390336140 
ITEM: TIMESTEP
2
ITEM: NUMBER OF ATOMS
6
ITEM: BOX BOUNDS pp pp pp
0.0000000000000000e+00 4.8819591223992003e+00
0.0000000000000000e+00 4.8819591223992003e+00
0.0000000000000000e+00 4.8819591223992003e+00
ITEM: ATOMS id type fx fy fz x y z rho_SPH width_SPH omega_SPH u_SPH vx vy vz 
5 2 -36.3200019861912082 -66.8249198716444113 -389.5094950153677473 1.6811694151875265 0.0877562944117860 1.3992029157705039 0.0000008681011683 5.3242151775394984 0.0404848992266508 -0.1058773827667619 1.1127246099098533 -30.3084046071823217 -45.6836391391130761 
1 1 39.5825744189643629 167.2161063708207109 108.1255483355405431 2.7263658848916803 1.9305125794535318 0.3096223081060465 0.0000004010830211 6.2882873944679938 0.0307227663109764 0.2190362993502090 0.2009239886624989 -1.7755618873871608 -6.6165132773195090 
4 2 26.1570078883583506 -15.9641402441343576 -88.5518950371186406 4.8226439015382203 2.2246593207135472 2.3048701562050184 0.0000004786658180 5.9483700197177285 0.0240357645831143 0.0876758271248275 -8.0034328599712410 14.2604001067580253 -1.3330165033996053 
6 2 -122.2051273521475849 -266.7630614288339643 -149.2181916167573377 3.3781899996229279 2.1217859090621318 2.9411418793806425 0.0000009038614275 5.2562461217931142 0.0391902300383128 0.0519824432706833 -4.4232389366423615 -13.8275265600789936 -6.5954505089627231 
3 1 -171.9152910522830098 -86.0088813173723850 477.1756160407684320 1.3588006496862282 3.8118920454834262 3.2128895312799117 0.0000009204893915 5.2277283510511339 0.0379931749645890 0.2673834287377572 -8.3966342650842432 -8.1771113277124226 35.7104211631642627 
2 1 264.7008380832991179 268.3448964911643770 41.9784172929347577 2.8479652168674834 4.3671259957474833 2.8026758507998917 0.0000009612669862 5.1583955069007157 0.0358456343057767 -0.3039506606364369 19.5096574631255208 39.8282042756028787 24.5181982656306658 
