ITEM: TIMESTEP
60050
ITEM: NUMBER OF ATOMS
512
ITEM: BOX BOUNDS ss ss ss
-2.1589663964569298e-02 5.0933846546203574e+00
-1.7364439631764822e-01 5.0865807164741392e+00
-1.8176655292622759e-01 5.1255068607205727e+00
ITEM: ATOMS id x y z width_SPH x_COM y_COM z_COM vx vy vz 
2 0.301069 0.775937 0.24686 0.5 0 0 0 -1.37941 -0.579547 0.06876 
3 0.259448 1.29101 0.605719 0.5 0 0 0 -2.08445 -0.964702 0.287721 
4 0.787482 1.24764 1.03676 0.5 0 0 0 -0.386244 -0.340109 0.749224 
5 1.73538 1.8934 0.823937 0.5 0 0 0 0.958604 0.35212 0.221119 
6 0.274208 2.07866 0.848526 0.5 0 0 0 -2.11849 0.86044 1.16654 
7 0.54666 1.58454 0.34255 0.5 0 0 0 -0.688708 -0.372107 -0.682137 
8 1.33606 0.225902 0.773357 0.5 0 0 0 0.0500335 -0.685435 1.18415 
9 1.53468 0.98643 0.331383 0.5 0 0 0 0.774116 0.260747 -0.747348 
10 1.11158 1.53603 -0.0685392 0.5 0 0 0 0.9838 -0.388509 -2.84957 
11 1.39604 1.22774 0.796167 0.5 0 0 0 0.782372 0.130051 0.282629 
38 1.08306 2.32881 0.776645 0.5 0 0 0 0.516908 0.421811 0.862964 
41 2.23083 2.37931 1.02289 0.5 0 0 0 0.351386 -0.20226 0.55658 
14 1.26048 2.06321 0.329273 0.5 0 0 0 1.32271 0.117822 -0.380277 
15 1.54693 0.0394838 0.976112 0.5 0 0 0 1.23301 -1.50691 2.12376 
37 0.636913 0.390268 0.353982 0.5 0 0 0 -1.47741 -0.586557 0.379679 
17 1.08139 0.119438 0.519714 0.5 0 0 0 -1.29669 -0.687423 0.53849 
18 1.50826 -0.016483 0.0459036 0.5 0 0 0 0.0210522 -0.949843 -1.15239 
40 1.99512 0.669575 0.604459 0.5 0 0 0 1.3927 -0.197916 0.904865 
20 0.369829 1.75927 1.04788 0.5 0 0 0 -1.7314 0.35003 1.28569 
21 1.87799 1.79468 0.745542 0.5 0 0 0 1.08077 0.226372 -0.00312889 
22 0.552789 2.4223 0.409934 0.5 0 0 0 -0.558259 0.212978 0.657481 
39 0.791151 1.5785 0.810198 0.5 0 0 0 0.140693 0.227591 0.408962 
24 0.00342362 0.59829 0.0816956 0.5 0 0 0 -2.72813 -0.779943 -0.133788 
25 1.95435 0.260604 0.581874 0.5 0 0 0 1.68414 -0.755017 1.36427 
26 1.35581 0.890949 0.584786 0.5 0 0 0 0.399643 0.0193742 -0.00984085 
27 0.864666 1.8141 0.90015 0.5 0 0 0 0.377424 0.670922 0.691838 
28 2.15663 0.959744 0.35946 0.5 0 0 0 0.883608 0.501633 -0.229975 
29 2.42448 1.35995 0.269415 0.5 0 0 0 0.107996 1.01782 -1.19048 
30 1.3992 0.242436 0.884054 0.5 0 0 0 0.488751 -0.821795 1.45707 
31 1.65837 1.51847 0.685685 0.5 0 0 0 1.20246 0.362166 0.0101824 
32 1.30152 2.09592 0.25096 0.5 0 0 0 1.47642 0.00635108 -0.70891 
33 1.46276 1.14326 0.721757 0.5 0 0 0 0.856879 0.0701628 0.199765 
34 0.622257 2.08925 -0.0271133 0.5 0 0 0 -0.447998 -0.5754 -2.02295 
35 1.77115 0.0448127 -0.128807 0.5 0 0 0 1.17619 -0.864754 -2.25473 
36 0.968306 0.883229 0.0786245 0.5 0 0 0 0.0955806 0.0328338 -1.47967 
144 0.0212185 2.45507 0.114577 0.5 0 0 0 -3.16828 -0.78003 -1.09896 
43 1.54523 0.0677373 1.9523 0.5 0 0 0 1.54682 -2.05901 2.27939 
44 1.36472 2.35713 1.90941 0.5 0 0 0 0.773351 -0.347957 0.538671 
45 1.3338 1.11988 1.48552 0.5 0 0 0 0.476516 -0.198907 1.5575 
46 1.38771 2.23672 2.32625 0.5 0 0 0 0.773106 -0.849678 1.17322 
47 1.3959 1.26088 1.91895 0.5 0 0 0 -0.0998554 -0.503567 2.36789 
48 1.18006 0.812495 1.47865 0.5 0 0 0 0.169828 -0.42696 1.76229 
49 2.47935 2.34211 1.69817 0.5 0 0 0 0.558065 -0.173271 1.19153 
50 0.891255 0.608883 1.67018 0.5 0 0 0 -1.07947 -0.542218 2.51081 
51 1.96892 0.939592 1.80623 0.5 0 0 0 0.474708 -1.09681 1.64683 
52 0.671611 1.64139 1.33339 0.5 0 0 0 -0.669232 0.0976982 1.6157 
53 2.12469 1.44177 1.7179 0.5 0 0 0 0.456243 0.123629 0.952303 
54 0.390193 0.0429243 2.20343 0.5 0 0 0 -1.55318 -1.25138 0.557865 
55 1.73184 1.84185 1.70752 0.5 0 0 0 0.650565 0.164937 0.906597 
16 2.25736 2.0163 1.1787 0.5 0 0 0 0.457664 -0.0719144 0.552912 
57 2.38803 1.07707 1.62868 0.5 0 0 0 0.472662 -0.693344 0.755409 
58 1.78528 0.149203 2.23909 0.5 0 0 0 1.03276 -2.02285 2.71647 
59 1.24235 0.582602 2.37877 0.5 0 0 0 0.260481 -0.272388 3.92154 
60 0.669156 1.69642 1.57451 0.5 0 0 0 -0.980011 -0.221859 2.09615 
61 1.33411 0.300404 1.71431 0.5 0 0 0 0.887221 -1.21208 2.26361 
78 1.05745 1.89882 1.61753 0.5 0 0 0 0.147243 0.000560695 1.16137 
63 2.01583 1.57785 2.03481 0.5 0 0 0 0.300808 -0.0541523 1.40503 
64 0.517039 0.357614 2.37906 0.5 0 0 0 -0.56538 0.530342 2.62096 
65 1.06184 1.77545 2.19872 0.5 0 0 0 -0.468642 -1.40533 2.1214 
66 2.34198 0.86195 2.01782 0.5 0 0 0 0.0265271 -1.35151 1.67452 
67 1.10298 0.688533 2.02626 0.5 0 0 0 -0.328022 -0.221914 3.45715 
68 2.05806 1.47707 1.72367 0.5 0 0 0 0.443919 0.165865 1.00092 
69 1.40306 0.742948 2.26941 0.5 0 0 0 -0.0128193 -0.602021 3.56718 
77 0.387406 1.54418 1.42854 0.5 0 0 0 -2.22899 -0.477374 2.42536 
71 0.737615 0.532109 1.43847 0.5 0 0 0 -1.94549 -0.911237 1.66727 
72 1.00639 2.24108 2.44177 0.5 0 0 0 0.00220278 -1.2581 1.46175 
73 2.05737 1.03319 1.69108 0.5 0 0 0 0.568105 -0.882766 1.23014 
74 2.23184 1.01522 2.36172 0.5 0 0 0 -0.384267 -1.45773 2.51915 
75 0.0297826 2.31121 2.22173 0.5 0 0 0 -2.35314 -1.61494 0.705468 
76 0.971337 1.10815 1.45354 0.5 0 0 0 -0.382624 -0.281282 1.81097 
12 1.34528 1.51116 1.24545 0.5 0 0 0 0.683796 0.377354 0.874137 
13 1.8662 1.32627 1.25809 0.5 0 0 0 0.997094 -0.0560187 0.662298 
312 2.49224 -0.0785297 1.66921 0.5 0 0 0 -0.146826 -2.94615 1.29969 
42 1.22906 0.726344 1.23555 0.5 0 0 0 0.353156 -0.502418 1.15912 
79 1.43519 2.24239 3.26305 0.5 0 0 0 0.0223949 -2.28944 1.21444 
80 0.722428 0.183721 2.71176 0.5 0 0 0 1.47954 0.523561 2.97281 
81 1.07276 0.414988 2.90578 0.5 0 0 0 1.6268 0.318639 4.42192 
82 1.30862 1.94325 2.75295 0.5 0 0 0 -0.307582 -2.04025 1.9101 
83 1.70365 2.04279 2.87993 0.5 0 0 0 0.281048 -1.52936 1.51932 
84 1.24766 0.840112 3.71737 0.5 0 0 0 1.33467 -3.77993 4.56314 
85 2.0247 1.8402 2.82633 0.5 0 0 0 0.380666 -1.35919 1.64401 
106 1.36419 1.31963 2.61106 0.5 0 0 0 -0.890101 -2.18688 3.25944 
87 0.898794 2.29176 3.34264 0.5 0 0 0 -0.293891 -2.93027 0.785326 
88 1.94612 1.38121 2.97941 0.5 0 0 0 -0.745041 -2.92618 2.85497 
89 1.47551 0.236471 3.78192 0.5 0 0 0 0.219649 1.79091 4.5816 
100 0.580249 2.16472 2.54006 0.5 0 0 0 -0.486561 -1.98838 1.75445 
91 1.72849 1.44585 2.74126 0.5 0 0 0 -0.619541 -2.43818 2.6774 
92 0.127776 2.09692 2.83729 0.5 0 0 0 -1.29467 -2.82387 1.55065 
93 0.715274 0.310066 2.79199 0.5 0 0 0 1.35815 0.930477 3.27147 
94 1.45135 1.94302 2.6258 0.5 0 0 0 0.0977509 -1.59545 1.72406 
95 2.18937 2.14759 3.16345 0.5 0 0 0 0.868334 -1.23579 1.3645 
96 0.949794 1.87739 2.59392 0.5 0 0 0 -0.661408 -2.26233 2.27317 
97 1.79657 0.470854 3.60664 0.5 0 0 0 -2.3429 -1.28851 5.27542 
98 0.273041 1.57186 2.88923 0.5 0 0 0 -0.472735 -2.69589 1.99027 
99 2.15148 1.76574 3.33724 0.5 0 0 0 -0.062344 -2.43035 1.94145 
105 0.748292 0.114086 3.13349 0.5 0 0 0 2.42408 0.805958 3.07575 
186 0.405526 2.44495 2.60322 0.5 0 0 0 -0.466402 -1.47827 1.20448 
102 1.8431 1.71238 3.01664 0.5 0 0 0 -0.358363 -2.45653 2.1748 
103 0.428584 1.03811 3.21398 0.5 0 0 0 1.28696 -1.21722 2.32732 
231 1.26226 2.35116 3.50858 0.5 0 0 0 0.166548 -2.64021 0.961378 
62 2.18333 1.76448 2.56415 0.5 0 0 0 0.450594 -0.647139 1.47221 
131 1.85477 1.65841 3.77349 0.5 0 0 0 -0.993906 -4.30609 2.0313 
56 2.44015 0.522588 2.4815 0.5 0 0 0 -0.93999 -1.83371 2.60208 
107 1.79925 0.179179 4.53987 0.5 0 0 0 -2.45846 2.41516 -3.0907 
108 1.07473 1.50092 4.4532 0.5 0 0 0 2.23012 -3.92931 -0.410838 
109 1.80423 0.539856 4.27432 0.5 0 0 0 -4.08435 -0.27011 -1.06253 
110 1.90999 0.686728 4.17965 0.5 0 0 0 -4.68746 -2.3371 0.535278 
139 1.00998 0.534255 4.84213 0.5 0 0 0 4.1841 -0.557466 -2.80618 
112 1.75818 0.698015 4.66545 0.5 0 0 0 -1.94952 -1.78468 -4.66991 
113 1.92757 1.25307 4.43647 0.5 0 0 0 -2.1627 -4.87602 -0.595471 
114 0.872973 0.925246 4.48013 0.5 0 0 0 4.97081 -2.01782 -2.19325 
115 1.84023 0.570509 4.46822 0.5 0 0 0 -3.73047 -0.563607 -3.3809 
116 0.780031 0.159621 4.30331 0.5 0 0 0 4.86769 0.454796 -1.14705 
117 0.976191 0.936294 4.21248 0.5 0 0 0 4.89002 -3.28018 -0.842742 
138 0.0273676 1.19268 4.38544 0.5 0 0 0 0.0333289 -1.92557 0.369652 
119 0.767829 1.80939 4.39848 0.5 0 0 0 1.55631 -2.82262 0.538755 
120 1.48918 0.684133 4.13281 0.5 0 0 0 0.291222 -2.81581 1.22417 
121 1.88099 0.771589 3.94799 0.5 0 0 0 -3.89046 -3.61047 3.38617 
122 0.203647 -0.136022 4.07609 0.5 0 0 0 1.17962 -1.13965 0.140243 
123 1.22006 0.0987918 4.57305 0.5 0 0 0 3.27609 1.8973 -2.95659 
124 0.694196 0.489421 4.10319 0.5 0 0 0 4.98985 -0.112302 -0.715364 
125 1.57984 0.388096 4.1862 0.5 0 0 0 -1.13414 2.13393 0.184328 
126 1.32388 0.547612 4.31049 0.5 0 0 0 3.62967 -0.26061 -2.29517 
127 1.22246 2.04544 4.70511 0.5 0 0 0 0.529217 -2.49877 0.73864 
128 1.13271 0.893342 4.24918 0.5 0 0 0 4.63197 -3.84411 -1.04831 
129 0.157203 1.59084 4.15841 0.5 0 0 0 1.00224 -2.69923 -0.130529 
130 0.546418 0.828486 4.34959 0.5 0 0 0 3.6036 -1.03139 -1.40441 
137 0.139755 2.14506 3.86316 0.5 0 0 0 -0.174373 -3.34837 -0.349454 
132 2.24816 1.87941 3.83283 0.5 0 0 0 -0.369843 -2.65512 1.08227 
133 1.36567 0.564189 4.27386 0.5 0 0 0 2.91157 -0.547849 -1.67124 
134 1.70918 2.16356 4.92569 0.5 0 0 0 -0.345956 -2.30077 0.355989 
135 2.2642 0.167803 4.66814 0.5 0 0 0 -2.70286 -0.457087 -0.978179 
136 1.59585 1.61785 4.25902 0.5 0 0 0 -0.174927 -5.05058 0.598262 
86 1.99544 1.4438 3.89321 0.5 0 0 0 -1.58186 -4.76351 2.01607 
252 1.97124 2.33462 4.62375 0.5 0 0 0 -0.38046 -2.5047 -0.187738 
372 2.44559 0.703634 4.33783 0.5 0 0 0 -4.58208 -1.31108 -0.49039 
111 1.47987 2.39444 3.94321 0.5 0 0 0 0.573455 -2.60445 1.12611 
90 1.33533 1.25025 3.83516 0.5 0 0 0 0.0441709 -5.92818 2.69828 
104 1.86759 1.04365 3.82193 0.5 0 0 0 -2.65257 -5.30369 3.62871 
118 2.50961 1.67312 4.55116 0.5 0 0 0 -2.0092 -2.35971 -0.414639 
101 1.63832 0.949636 3.80754 0.5 0 0 0 -1.76216 -5.38841 4.48042 
140 2.46899 2.49535 0.521337 0.5 0 0 0 -0.128936 -0.497144 0.0925389 
141 0.969155 3.25075 0.881208 0.5 0 0 0 -0.687537 -0.0542248 0.763208 
142 1.05819 3.61895 0.280846 0.5 0 0 0 0.0762486 0.567505 -0.305128 
143 0.613295 3.01274 0.597906 0.5 0 0 0 -0.779375 -0.0736813 1.18859 
167 1.34249 2.79902 0.683507 0.5 0 0 0 0.862687 -0.285245 0.459352 
168 1.60812 2.59703 0.915713 0.5 0 0 0 0.694688 -0.0649718 0.373869 
146 1.06775 3.21913 0.367262 0.5 0 0 0 0.565054 -0.407084 0.137568 
147 0.573206 4.49282 0.517002 0.5 0 0 0 1.158 -0.171682 0.303756 
148 1.97431 3.78989 0.433882 0.5 0 0 0 0.683067 -0.368955 -0.379226 
149 0.683854 3.59681 0.0907947 0.5 0 0 0 -0.32005 1.05833 -0.716967 
150 1.89594 4.42723 0.806369 0.5 0 0 0 -0.262474 0.03039 0.357094 
151 0.0450039 3.44437 0.10618 0.5 0 0 0 -1.64557 0.618001 -0.0465265 
152 1.35725 3.63101 1.14384 0.5 0 0 0 0.113059 -0.00934277 0.199464 
153 2.20121 4.40131 0.258876 0.5 0 0 0 -0.252441 -0.133622 -0.977981 
154 2.33911 4.58276 0.684232 0.5 0 0 0 -0.385072 -0.355665 0.255398 
155 1.29543 3.739 0.71187 0.5 0 0 0 -0.0563046 0.396065 0.295762 
156 0.448868 4.37763 1.05829 0.5 0 0 0 -0.637504 -0.993371 1.12885 
157 2.28878 2.65211 1.12402 0.5 0 0 0 0.33363 -0.230744 0.723534 
158 1.97601 4.15404 0.975267 0.5 0 0 0 0.40455 -0.540385 0.510187 
159 1.30202 3.80287 0.707773 0.5 0 0 0 -0.132029 0.516331 0.258972 
160 2.25978 2.64393 -0.0732734 0.5 0 0 0 -0.478529 -0.501494 -2.67311 
23 0.962127 2.54199 0.248239 0.5 0 0 0 0.775347 -0.195288 -0.0476396 
162 1.69242 3.28376 0.68821 0.5 0 0 0 1.10822 -0.412035 0.186961 
163 0.0413271 4.44313 0.0101819 0.5 0 0 0 0.227764 -0.443128 -0.609404 
164 2.14712 2.84689 0.19152 0.5 0 0 0 -0.0992163 -0.12157 -1.1025 
165 0.0909636 3.27533 0.313751 0.5 0 0 0 -1.79359 0.168439 0.889014 
166 2.19765 3.29178 0.984011 0.5 0 0 0 0.426686 -0.0728845 0.437595 
169 0.463454 3.13037 2.39827 0.5 0 0 0 -0.761714 0.716309 0.071662 
170 1.91534 3.15615 2.11444 0.5 0 0 0 0.850075 -0.609259 0.276083 
171 0.0731468 4.12224 2.28629 0.5 0 0 0 -2.32477 -0.638988 -1.31697 
172 1.10384 2.49108 1.83478 0.5 0 0 0 0.113776 -0.0897635 0.287105 
173 1.82173 3.36308 1.88122 0.5 0 0 0 0.624534 -0.353064 -0.192842 
174 1.26914 2.64237 1.45142 0.5 0 0 0 0.152522 0.0686398 0.0521954 
175 1.51649 4.31088 1.98113 0.5 0 0 0 0.608813 -0.492259 -0.24915 
176 1.55213 2.54249 1.97066 0.5 0 0 0 1.07783 -0.388517 0.45578 
177 -0.000848112 2.8616 2.38797 0.5 0 0 0 -2.34378 0.4461 0.184753 
178 1.44946 3.12326 1.43829 0.5 0 0 0 0.262709 -0.115134 -0.0447693 
179 2.14585 3.0696 2.45798 0.5 0 0 0 1.21858 -1.04113 0.798677 
180 1.15673 3.75587 1.50516 0.5 0 0 0 -0.819997 -0.0253571 -0.175391 
181 1.90675 4.8254 1.69836 0.5 0 0 0 -0.110067 0.569169 -0.338531 
182 1.13562 4.0265 1.86656 0.5 0 0 0 -0.897805 -0.269053 -0.176421 
183 1.54777 4.578 2.2453 0.5 0 0 0 0.407821 -0.184477 0.382031 
184 0.37532 2.61523 1.72661 0.5 0 0 0 -1.25207 0.28874 -0.281931 
185 1.31385 4.74035 2.2815 0.5 0 0 0 -0.397781 0.234689 0.573791 
204 1.32468 2.72488 2.02243 0.5 0 0 0 0.411417 -0.151368 0.337847 
187 1.38994 2.59811 2.25107 0.5 0 0 0 0.729222 -0.475082 0.78564 
188 1.50496 3.99844 2.40064 0.5 0 0 0 0.211215 -0.474676 0.65101 
189 1.72032 3.51607 2.26762 0.5 0 0 0 0.268733 -0.402708 0.325115 
202 0.972536 3.69504 1.79271 0.5 0 0 0 -1.44573 -0.0254252 -0.100621 
191 2.16535 2.9869 2.46312 0.5 0 0 0 1.31938 -1.07888 0.829749 
192 1.889 3.66892 2.05625 0.5 0 0 0 0.648613 -0.477207 -0.120474 
193 0.891356 3.87886 2.43149 0.5 0 0 0 -1.18057 -0.0752817 0.529405 
194 0.584989 3.06103 2.1515 0.5 0 0 0 -0.561705 0.71977 -0.131455 
195 1.99792 2.8463 1.96781 0.5 0 0 0 1.2703 -0.681309 0.435222 
196 1.34713 4.40977 1.55939 0.5 0 0 0 -0.11293 0.0288076 -0.883006 
190 1.78496 4.9338 1.1726 0.5 0 0 0 -1.13942 1.85126 -0.304668 
198 0.86473 4.5435 2.00967 0.5 0 0 0 -2.11483 0.135865 -0.143093 
199 1.34387 3.07489 2.36975 0.5 0 0 0 -0.0317827 -0.265237 0.531306 
200 2.34844 5.02928 2.31953 0.5 0 0 0 -0.796959 1.59991 0.324461 
201 0.447631 2.72568 2.13465 0.5 0 0 0 -0.558501 0.0894262 0.113383 
70 0.869077 2.53772 2.15016 0.5 0 0 0 -0.0074266 -0.379517 0.682893 
145 2.0849 2.5666 1.35061 0.5 0 0 0 0.613562 -0.220209 0.593892 
161 0.304227 3.15921 1.21596 0.5 0 0 0 -2.20427 0.586684 0.685977 
205 1.20045 3.53231 3.03398 0.5 0 0 0 0.067849 -0.333965 0.264402 
206 1.96354 4.32897 3.03559 0.5 0 0 0 -0.110288 -0.374453 0.795753 
207 0.125255 4.09144 3.71369 0.5 0 0 0 -0.808919 -0.464143 0.109159 
208 0.84359 2.50925 3.69924 0.5 0 0 0 0.234167 -2.55711 0.728954 
209 1.51896 3.92171 3.16325 0.5 0 0 0 0.196414 -0.117542 0.840661 
210 1.84192 3.57402 3.51447 0.5 0 0 0 0.186016 -0.797542 0.527521 
211 1.88265 3.75203 2.61168 0.5 0 0 0 0.452342 -0.560309 0.722479 
212 1.26728 4.95011 2.96344 0.5 0 0 0 -0.263374 0.344998 0.888492 
213 2.05996 3.14168 2.58516 0.5 0 0 0 0.926689 -0.952248 0.886791 
214 1.2445 3.27321 3.65914 0.5 0 0 0 0.794313 -0.802955 0.93252 
215 0.723584 3.13221 3.31572 0.5 0 0 0 -0.405296 -0.703693 -0.116977 
216 0.445436 3.18581 3.33118 0.5 0 0 0 -1.08583 -0.462236 -0.477969 
217 2.47749 2.71686 2.75586 0.5 0 0 0 1.39752 -1.20613 0.862042 
218 2.38561 5.03042 3.71335 0.5 0 0 0 -0.964833 1.53918 0.410983 
219 1.09024 2.61491 3.18492 0.5 0 0 0 0.202245 -1.6944 0.472073 
220 2.32371 4.8339 2.95769 0.5 0 0 0 -0.618091 0.361652 0.828838 
221 1.05556 3.48504 3.60297 0.5 0 0 0 0.438459 -0.233056 0.805264 
222 2.43947 3.20194 3.06529 0.5 0 0 0 0.899514 -1.47827 0.585517 
223 1.90844 2.58351 3.3342 0.5 0 0 0 1.00398 -1.3916 0.908079 
224 0.518847 4.92289 3.11834 0.5 0 0 0 -0.680171 1.04934 -0.188424 
225 0.511127 3.84252 3.64451 0.5 0 0 0 -0.152905 0.0962332 0.347046 
226 0.947704 4.03002 2.86601 0.5 0 0 0 -0.664902 0.111403 0.686539 
227 1.10353 3.04117 3.11188 0.5 0 0 0 0.291884 -0.94648 0.135885 
228 0.26092 4.35829 2.60106 0.5 0 0 0 -1.13182 -0.263868 -0.4065 
229 0.262294 4.30495 3.51799 0.5 0 0 0 -0.219827 -0.166065 -0.264817 
230 1.60813 2.9128 3.13402 0.5 0 0 0 0.859973 -1.11713 0.637783 
234 1.25336 3.65657 3.14787 0.5 0 0 0 0.170568 -0.177602 0.462598 
232 2.45704 3.29095 3.07976 0.5 0 0 0 0.789209 -1.45305 0.514958 
233 1.25656 4.7676 3.40159 0.5 0 0 0 0.262853 -0.270099 0.631799 
472 2.51545 4.84304 2.81895 0.5 0 0 0 -0.522642 0.376684 0.860481 
251 1.85861 2.53247 3.78307 0.5 0 0 0 0.796348 -1.9707 0.861946 
452 2.41994 3.93784 3.55703 0.5 0 0 0 -0.618578 -0.767762 -0.227218 
254 1.67058 4.93834 3.76207 0.5 0 0 0 -0.108533 -0.00646272 -0.12681 
197 1.56002 4.63702 2.4755 0.5 0 0 0 0.194484 -0.0431551 0.939265 
235 1.25867 4.88886 4.11647 0.5 0 0 0 -0.065116 -0.422458 -0.500066 
236 2.01964 3.92687 3.99277 0.5 0 0 0 -1.36757 -0.449649 -0.153218 
237 0.59482 2.54957 3.92611 0.5 0 0 0 0.437815 -2.27671 0.911931 
238 0.923657 4.7717 4.37611 0.5 0 0 0 0.150133 -0.396485 -0.108971 
239 0.871876 3.75292 3.98211 0.5 0 0 0 0.547524 0.0330017 1.33287 
240 2.0614 4.57359 4.57908 0.5 0 0 0 -2.31882 1.31127 0.100685 
241 2.18405 4.38618 4.75142 0.5 0 0 0 -2.57621 0.697056 0.68102 
242 0.097277 3.19401 4.41598 0.5 0 0 0 0.712078 -0.0226388 0.53037 
243 -0.0210897 2.72654 4.80954 0.5 0 0 0 0.478512 -2.54415 1.85164 
244 0.523837 4.91628 4.84729 0.5 0 0 0 -0.89259 0.136724 1.01539 
245 1.52928 3.07001 4.95429 0.5 0 0 0 -1.2863 -1.12744 1.45298 
246 1.24538 3.71929 4.41729 0.5 0 0 0 -0.181743 -0.942059 1.03639 
247 2.42627 3.35712 3.82755 0.5 0 0 0 -0.0792572 -1.8033 -0.263746 
248 1.72736 2.67641 4.86734 0.5 0 0 0 -0.717068 -1.99977 0.514711 
249 1.67259 3.00148 4.12671 0.5 0 0 0 0.268972 -1.74659 0.717895 
250 1.29946 2.62048 3.95289 0.5 0 0 0 0.753749 -2.0844 1.28448 
259 0.58731 2.8217 3.88903 0.5 0 0 0 0.41485 -1.32146 0.940623 
258 0.0372936 2.95955 4.02069 0.5 0 0 0 -0.312643 -0.790856 -0.239216 
253 0.163215 2.67727 3.94064 0.5 0 0 0 -0.222712 -1.89765 0.00968213 
498 2.47241 3.56395 4.29258 0.5 0 0 0 -1.2095 -2.02106 -0.680391 
255 0.213918 3.66474 4.84726 0.5 0 0 0 0.696291 0.260075 1.04163 
256 2.32358 4.09436 4.60624 0.5 0 0 0 -2.25493 -0.685995 -0.152635 
257 1.27313 4.24125 4.86155 0.5 0 0 0 -0.926744 -1.02028 1.44444 
260 4.00548 -0.156973 0.919826 0.5 0 0 0 -0.224105 -2.77575 0.556827 
261 3.19555 2.28939 1.12979 0.5 0 0 0 -0.766316 0.0920812 1.3475 
262 4.78766 2.0216 0.404298 0.5 0 0 0 1.76577 0.433346 -1.08049 
263 4.86348 0.626853 0.989588 0.5 0 0 0 1.13949 -1.77803 0.856647 
264 3.25884 0.915971 0.201993 0.5 0 0 0 -0.773223 0.955056 -0.970849 
265 4.90554 1.41686 1.11291 0.5 0 0 0 1.84995 0.293417 1.42068 
266 4.83436 0.647198 -0.0129198 0.5 0 0 0 0.867949 -0.263335 -3.22927 
267 3.45729 1.79731 0.886206 0.5 0 0 0 -1.61349 -0.356163 0.380761 
268 2.89322 0.522866 0.8449 0.5 0 0 0 -0.15367 -0.39754 1.69465 
269 3.96982 1.81193 0.22406 0.5 0 0 0 -1.04675 -0.483304 -2.25337 
270 3.93633 1.90245 1.01935 0.5 0 0 0 -0.967796 0.532203 1.32249 
293 3.0209 2.402 0.572195 0.5 0 0 0 -0.796804 -0.43317 0.20858 
272 4.42309 1.79276 0.74169 0.5 0 0 0 0.0471583 0.718787 0.202836 
273 4.85213 1.36363 0.800134 0.5 0 0 0 1.45542 -0.322702 -0.105072 
274 2.68345 0.714079 0.824463 0.5 0 0 0 0.231256 -0.090357 1.49877 
275 2.53788 2.34775 0.0564554 0.5 0 0 0 -0.496836 -1.07397 -2.05818 
276 5.08106 0.0669241 0.787802 0.5 0 0 0 1.14276 -1.66576 0.654544 
294 3.1399 0.0915021 0.349255 0.5 0 0 0 0.150661 -2.31547 -0.195638 
278 3.60828 1.88445 0.935525 0.5 0 0 0 -1.47467 -0.0204844 0.739845 
279 3.71217 0.457471 0.171553 0.5 0 0 0 0.354182 -1.32191 -1.49397 
295 2.73143 1.13214 0.898661 0.5 0 0 0 -0.159665 0.170721 0.868996 
281 3.0564 0.15121 0.970864 0.5 0 0 0 -0.451432 -1.93765 1.77545 
282 3.8744 1.69556 1.09782 0.5 0 0 0 -1.31088 0.0497933 1.41511 
283 3.80613 2.33927 -0.181267 0.5 0 0 0 -1.1012 -0.928714 -3.77642 
284 4.16863 2.09976 0.500959 0.5 0 0 0 -0.29808 0.731274 -0.333621 
285 3.41146 2.33265 0.439948 0.5 0 0 0 -1.11929 -0.145078 -0.370706 
286 3.72184 0.963264 0.427499 0.5 0 0 0 -1.14013 -0.231052 -0.451828 
287 4.34117 1.03841 0.421526 0.5 0 0 0 -0.486988 -1.23548 -1.49512 
288 4.07944 1.6191 1.03376 0.5 0 0 0 -1.10343 0.12366 1.24641 
289 4.36668 1.05293 0.596496 0.5 0 0 0 -0.637213 -1.32413 -0.787559 
290 3.33104 0.992292 0.623103 0.5 0 0 0 -1.22183 0.311981 0.681969 
291 2.90505 1.00379 0.0831454 0.5 0 0 0 -0.43235 1.52798 -1.78161 
297 3.16281 0.422651 1.81525 0.5 0 0 0 -1.2963 -1.5532 0.777119 
298 3.83873 2.08749 2.17161 0.5 0 0 0 -1.14489 -0.142793 1.04441 
299 3.06609 0.732193 2.23273 0.5 0 0 0 -0.806987 -0.563642 1.53064 
323 3.16958 1.7184 1.55878 0.5 0 0 0 -0.674025 -0.158866 1.15616 
301 3.32709 1.70196 2.15387 0.5 0 0 0 -0.572209 0.0774489 1.27872 
302 3.70478 0.970468 1.80798 0.5 0 0 0 -0.872659 0.19539 1.52384 
303 3.80396 0.847812 1.9442 0.5 0 0 0 -0.641858 0.0391985 1.64937 
292 4.33293 1.2853 1.24699 0.5 0 0 0 -0.63975 -0.24934 1.77528 
305 4.06196 1.45733 1.37116 0.5 0 0 0 -1.02106 0.152819 2.08164 
306 4.61121 1.24738 1.92466 0.5 0 0 0 0.787691 -0.0452642 1.55543 
307 4.02807 0.00291318 2.16168 0.5 0 0 0 -1.98923 -2.04564 -0.125264 
308 4.72506 0.104431 2.27495 0.5 0 0 0 0.0573909 -0.247083 0.0162226 
309 3.95474 0.747128 1.92068 0.5 0 0 0 -0.468751 -0.276008 1.65569 
310 4.61075 2.32872 1.97826 0.5 0 0 0 0.484499 -0.142866 0.410055 
311 3.53786 2.25907 2.09171 0.5 0 0 0 -0.893492 0.158272 1.12889 
321 4.85074 -0.0225661 2.20583 0.5 0 0 0 0.482403 -0.650872 -0.309889 
313 2.56726 1.50595 2.20377 0.5 0 0 0 0.109521 0.00600371 1.31396 
320 2.69246 1.31431 1.8726 0.5 0 0 0 0.0635918 -0.0689073 0.908755 
315 3.26739 0.871675 1.95479 0.5 0 0 0 -0.805002 -0.121796 1.16742 
316 4.50044 1.00423 2.30411 0.5 0 0 0 0.307794 0.0216555 0.921462 
317 4.42454 1.96835 2.33396 0.5 0 0 0 -0.426075 -0.757612 0.429064 
318 3.62757 0.647105 1.4244 0.5 0 0 0 -1.29713 -0.894223 0.717631 
319 3.17122 2.16817 1.97115 0.5 0 0 0 -0.361792 0.250654 1.24403 
271 4.89444 1.59838 1.20693 0.5 0 0 0 1.99264 1.05747 1.86768 
19 2.58919 1.86326 1.1735 0.5 0 0 0 0.0130761 -0.264313 0.53989 
280 3.82518 0.808426 1.18765 0.5 0 0 0 -1.36643 -0.816565 0.795801 
300 4.20682 2.38481 1.22811 0.5 0 0 0 -0.0437973 0.850191 1.85785 
296 4.29953 0.620878 1.17349 0.5 0 0 0 -0.391229 -1.6917 0.799885 
277 3.47974 2.13584 1.17679 0.5 0 0 0 -1.08783 0.311794 1.56502 
324 4.2005 1.07209 3.60419 0.5 0 0 0 -1.49449 0.447598 -0.557462 
325 3.13527 0.346662 3.34053 0.5 0 0 0 -3.12548 -1.26462 1.33763 
326 3.6674 1.472 3.67458 0.5 0 0 0 -1.94335 -0.405541 -0.0547296 
327 4.15864 1.37272 2.56514 0.5 0 0 0 -0.879736 -0.248805 0.532213 
328 3.56054 0.74607 2.82266 0.5 0 0 0 -1.2303 0.19739 0.970876 
329 4.6547 1.85821 2.76121 0.5 0 0 0 0.287466 -1.60696 -0.422642 
330 3.37922 1.61927 3.26273 0.5 0 0 0 -1.49019 -0.393453 0.612966 
331 4.42015 1.68675 3.2659 0.5 0 0 0 -1.11423 -1.26902 -0.40789 
332 4.72992 0.335372 2.57276 0.5 0 0 0 0.295642 0.868852 -0.287352 
333 2.66871 0.745666 3.45055 0.5 0 0 0 -3.12685 -1.52283 2.19037 
334 4.39709 0.492241 3.23253 0.5 0 0 0 -0.533082 0.856194 -1.84115 
335 5.05885 2.33764 2.8635 0.5 0 0 0 3.0418 -1.0072 -0.903895 
336 4.0552 0.349994 3.25554 0.5 0 0 0 -1.7558 0.276345 -0.965989 
350 2.94786 1.6205 2.67099 0.5 0 0 0 -0.331901 -0.231854 1.44437 
338 2.75766 1.04702 3.7024 0.5 0 0 0 -3.05281 -1.44822 1.35406 
339 2.70522 0.895151 2.7066 0.5 0 0 0 -1.0301 -1.15824 2.43868 
340 2.93399 1.02899 3.59672 0.5 0 0 0 -2.76066 -1.00175 1.23854 
341 4.47473 1.9948 3.43292 0.5 0 0 0 -1.11104 -1.62644 0.0347247 
342 4.92133 1.8847 3.61398 0.5 0 0 0 1.0879 -1.75823 0.255134 
343 3.24145 1.5906 2.6238 0.5 0 0 0 -0.676345 -0.187403 1.25357 
349 4.19681 -0.0384024 3.21982 0.5 0 0 0 -1.68687 -1.34804 -1.6107 
345 3.47824 0.0426716 3.05535 0.5 0 0 0 -2.73645 -2.2144 0.525262 
346 3.69695 0.812518 3.53319 0.5 0 0 0 -2.4489 0.196104 0.13307 
347 2.80181 1.66492 2.63692 0.5 0 0 0 -0.102866 -0.190685 1.44766 
348 2.63913 1.65882 2.67643 0.5 0 0 0 0.0403257 -0.42434 1.55996 
352 4.94758 1.25163 3.70679 0.5 0 0 0 1.53045 -0.0804674 -0.468097 
469 4.12805 2.45323 2.60915 0.5 0 0 0 -1.94944 -0.327552 -0.220556 
304 2.73538 0.148592 2.52862 0.5 0 0 0 -1.73144 -2.67715 1.93473 
384 4.55125 0.3138 3.78159 0.5 0 0 0 -1.086 0.714429 -1.93765 
351 4.81681 0.433172 4.13217 0.5 0 0 0 0.535562 1.28443 -0.255612 
381 3.28515 1.87301 4.23843 0.5 0 0 0 -1.69198 -1.05934 -1.04766 
353 3.42787 1.25797 4.13506 0.5 0 0 0 -2.41261 -0.74173 -0.231697 
354 3.93464 1.93869 4.94641 0.5 0 0 0 -0.469309 -0.731159 1.15889 
355 4.89446 2.33385 4.0075 0.5 0 0 0 0.313467 -1.36291 1.33117 
356 4.45181 -0.173144 4.76968 0.5 0 0 0 -1.85983 -2.81264 1.58594 
383 4.1318 0.484742 4.9929 0.5 0 0 0 -2.19947 0.864407 2.56489 
358 5.09288 1.5728 4.75783 0.5 0 0 0 1.28549 -0.321757 1.65902 
359 3.01965 1.92093 4.29428 0.5 0 0 0 -1.64717 -1.29446 -1.07778 
360 4.55824 0.294836 4.19705 0.5 0 0 0 -1.20753 0.680723 -0.312532 
361 5.0107 2.27457 4.16294 0.5 0 0 0 0.815506 -1.71618 1.74505 
362 4.17114 0.254776 4.2464 0.5 0 0 0 -3.31805 0.0157505 -0.205764 
363 3.91131 0.319092 4.53698 0.5 0 0 0 -4.12059 -0.228896 0.557712 
364 2.66474 1.94635 4.90103 0.5 0 0 0 -2.0336 -1.87526 0.775549 
365 3.1697 1.79582 4.59542 0.5 0 0 0 -1.6319 -1.52832 -0.429124 
366 4.61144 0.911559 4.1486 0.5 0 0 0 -0.161803 1.71042 0.501378 
367 3.81679 -0.0602411 3.84489 0.5 0 0 0 -4.38256 -2.21104 0.189146 
368 4.0643 1.84856 4.28442 0.5 0 0 0 -1.15829 -0.718862 -0.0177362 
369 3.49421 1.48242 4.35657 0.5 0 0 0 -1.88369 -0.953647 -0.468831 
370 2.83 0.443286 4.66007 0.5 0 0 0 -3.54677 -1.08067 0.089957 
371 4.72582 0.250735 4.64224 0.5 0 0 0 0.354037 0.645317 1.61311 
382 3.8842 0.944611 3.84084 0.5 0 0 0 -2.45416 0.362239 -0.0352858 
373 4.63289 0.300488 3.94054 0.5 0 0 0 -0.776855 0.734418 -1.37535 
374 4.53402 0.486196 4.04811 0.5 0 0 0 -1.13014 1.24207 -0.778849 
375 5.03446 0.0101023 4.98311 0.5 0 0 0 3.59478 -1.18726 3.20958 
376 4.10392 1.60789 4.6828 0.5 0 0 0 -0.582508 -0.440835 0.453468 
377 4.01537 2.10371 5.10766 0.5 0 0 0 -0.109834 -0.494933 2.13396 
378 2.9176 1.64264 5.01091 0.5 0 0 0 -1.92866 -2.16828 1.57482 
379 3.53379 0.926496 5.07408 0.5 0 0 0 -2.38337 -0.425524 1.83421 
380 3.06477 2.29048 4.29765 0.5 0 0 0 -1.41924 -1.25236 -1.06826 
385 2.72743 3.16667 0.678623 0.5 0 0 0 -0.25941 0.0375955 0.477884 
386 4.46001 4.72631 0.0499744 0.5 0 0 0 0.670297 0.329409 -0.709628 
387 3.86554 3.94207 0.138873 0.5 0 0 0 0.119289 -0.411061 -0.42801 
388 4.32021 4.0172 1.07919 0.5 0 0 0 -0.817774 -0.172891 -1.10386 
389 3.81849 3.08829 0.79495 0.5 0 0 0 -0.593931 0.0886953 0.755463 
390 3.64731 4.11213 0.128382 0.5 0 0 0 0.0900865 -0.597348 0.0534262 
391 5.05322 4.32998 1.07581 0.5 0 0 0 2.14331 1.08724 -1.2954 
392 4.88877 2.67893 0.29546 0.5 0 0 0 1.3215 0.365202 -0.297587 
393 4.52615 4.58372 0.677725 0.5 0 0 0 -0.0148288 1.27509 -0.991733 
394 2.76375 2.92559 1.08836 0.5 0 0 0 0.0172042 -0.151015 1.30117 
395 4.9111 2.95984 0.998599 0.5 0 0 0 1.35507 -0.497248 1.1416 
396 4.08242 3.07659 0.017518 0.5 0 0 0 -0.343932 0.450871 -1.52544 
397 5.07975 4.04744 0.825055 0.5 0 0 0 2.38254 -0.0624144 -1.63075 
398 2.92734 4.94156 0.00822492 0.5 0 0 0 -0.477061 2.03749 -1.5009 
399 3.38818 4.92148 0.588323 0.5 0 0 0 0.578048 1.09103 -0.331009 
400 3.33767 4.51274 0.419336 0.5 0 0 0 0.195519 -0.603892 0.275913 
401 3.37374 2.65717 0.071997 0.5 0 0 0 -0.978856 -0.396978 -1.65037 
402 2.72655 3.11912 0.688005 0.5 0 0 0 -0.262882 0.0100025 0.537545 
403 4.76397 3.22272 0.182967 0.5 0 0 0 0.431437 0.481352 -1.3442 
404 4.20748 2.63552 0.142014 0.5 0 0 0 -0.164157 0.531475 -0.894113 
405 4.05945 4.87615 -0.0238886 0.5 0 0 0 0.282923 0.873276 -0.164257 
406 4.20553 3.58907 1.03062 0.5 0 0 0 -0.88748 -0.743162 -0.290754 
407 2.81353 4.21131 -0.0113258 0.5 0 0 0 -0.346714 -0.769317 -1.25039 
408 4.99349 3.11745 0.424444 0.5 0 0 0 1.24847 -0.0506848 -0.253558 
409 3.77206 3.30856 0.562627 0.5 0 0 0 -0.53597 0.0681272 0.0362124 
410 3.87007 2.62726 0.885768 0.5 0 0 0 -0.532605 0.71418 1.23175 
411 4.18383 2.65307 1.06401 0.5 0 0 0 -0.135415 0.559479 1.46077 
412 3.0916 3.18162 0.446708 0.5 0 0 0 -0.480468 0.0500747 0.0615177 
413 2.9187 3.71694 0.925143 0.5 0 0 0 -0.225711 -0.363162 0.330769 
414 2.70955 4.48431 0.643285 0.5 0 0 0 -0.107232 -0.9303 0.142364 
415 2.6388 4.93666 1.1135 0.5 0 0 0 -1.07921 0.88634 -0.319957 
417 3.0858 3.60769 0.193229 0.5 0 0 0 -0.439158 -0.300423 -0.622336 
418 4.81606 4.17573 1.6567 0.5 0 0 0 0.591423 -0.344359 0.0452474 
419 2.97104 3.77732 2.20127 0.5 0 0 0 0.527205 -1.67753 0.597803 
420 4.87673 3.94974 2.41375 0.5 0 0 0 0.274898 -1.57642 0.677299 
421 4.8751 4.57038 1.80973 0.5 0 0 0 1.0116 1.67479 -0.455616 
422 4.26911 4.54908 1.75393 0.5 0 0 0 0.210604 0.978852 0.159579 
423 3.64883 4.60707 1.39654 0.5 0 0 0 0.361023 0.133706 -1.23187 
424 4.35686 3.80958 1.43822 0.5 0 0 0 -0.729263 -1.16541 0.524535 
425 2.78397 3.15329 1.33964 0.5 0 0 0 0.223695 -0.293649 1.28227 
426 3.24265 4.55351 2.11576 0.5 0 0 0 0.105222 -0.908447 1.66021 
427 3.29534 4.61706 1.65763 0.5 0 0 0 -0.180095 -0.610719 -0.144512 
428 4.92767 4.3107 2.00987 0.5 0 0 0 0.632471 -0.199099 0.0995091 
429 3.19585 4.83427 1.72876 0.5 0 0 0 -0.35662 0.283532 0.170769 
430 2.95765 4.84836 1.32107 0.5 0 0 0 -0.875978 0.354238 -0.984357 
431 3.50766 2.67592 2.37491 0.5 0 0 0 -0.874525 -0.138885 0.589053 
432 3.95776 2.50817 1.47999 0.5 0 0 0 -0.675014 0.427717 1.94305 
433 2.74246 4.35531 2.39777 0.5 0 0 0 -0.216753 -1.01738 0.873618 
434 3.13473 4.5078 1.94042 0.5 0 0 0 -0.332042 -1.07926 0.870734 
435 3.61635 4.6595 1.62657 0.5 0 0 0 0.532125 0.0850765 -0.176554 
436 3.34108 3.27577 2.05506 0.5 0 0 0 -0.14177 -0.940384 0.961195 
437 3.80656 3.98332 1.78453 0.5 0 0 0 -0.714656 -1.51629 0.94081 
438 5.00233 3.52832 1.86043 0.5 0 0 0 1.73066 -1.93288 0.236829 
439 4.48504 4.48045 2.45637 0.5 0 0 0 -0.699928 0.100633 1.44695 
440 2.64624 3.87469 2.23009 0.5 0 0 0 0.37475 -1.16797 0.247918 
441 2.92968 4.74914 2.12021 0.5 0 0 0 -0.681679 -0.0018945 1.10793 
442 3.06368 4.58908 1.38181 0.5 0 0 0 -0.702533 -0.753028 -1.05752 
443 3.87393 4.11951 1.9644 0.5 0 0 0 -0.426234 -1.36561 1.44376 
444 2.67807 4.3564 1.89243 0.5 0 0 0 -0.768882 -0.933551 -0.157707 
445 4.42925 3.75366 1.23855 0.5 0 0 0 -0.571528 -1.03454 -0.0131133 
446 4.16137 3.88015 2.29141 0.5 0 0 0 -0.971933 -1.56516 1.40271 
447 3.98414 3.83381 1.7099 0.5 0 0 0 -1.00353 -1.50698 1.02253 
448 4.54614 2.8292 2.22811 0.5 0 0 0 -0.167317 0.273022 -0.265186 
449 3.08114 3.86143 1.29596 0.5 0 0 0 -0.376899 -0.892209 0.0159874 
450 3.48301 3.36566 1.39671 0.5 0 0 0 -0.555965 -0.723576 1.08947 
416 4.4394 3.86706 1.2623 0.5 0 0 0 -0.553573 -0.823897 -0.162327 
203 2.54257 2.99444 1.48494 0.5 0 0 0 0.543118 -0.349905 1.11908 
322 2.8968 2.52125 1.86349 0.5 0 0 0 0.201467 -0.0968772 1.34306 
314 4.95152 2.49957 1.43986 0.5 0 0 0 2.1804 0.0170279 0.881116 
479 2.67201 3.66334 3.67498 0.5 0 0 0 -0.203292 -1.64082 -0.627309 
453 4.81672 2.73412 3.25351 0.5 0 0 0 0.8317 0.571519 -0.423177 
454 3.96862 3.31053 2.81272 0.5 0 0 0 -1.04525 -0.0946969 0.106193 
455 2.9786 4.28332 3.66019 0.5 0 0 0 -0.726522 -0.932013 -1.02455 
456 2.78682 4.65171 3.10914 0.5 0 0 0 -0.203214 -0.442463 0.326361 
457 3.04669 4.89391 2.94079 0.5 0 0 0 0.553139 0.687058 0.706082 
458 3.38148 3.15475 2.90913 0.5 0 0 0 -0.536568 -0.87764 0.20481 
459 4.79833 4.06689 2.63941 0.5 0 0 0 -0.12809 -1.06001 1.1476 
460 4.33881 2.93316 3.14829 0.5 0 0 0 -1.28475 1.05589 -0.479679 
461 4.46962 4.44766 2.57145 0.5 0 0 0 -0.80402 -0.0312549 1.57338 
462 4.70144 4.99916 2.54254 0.5 0 0 0 0.456852 4.60252 1.38152 
463 4.41339 2.63817 2.73774 0.5 0 0 0 -1.2262 -0.00236214 -0.778434 
464 3.08229 3.82563 3.12878 0.5 0 0 0 0.299043 -1.73471 -0.110352 
465 3.5702 3.9329 3.56068 0.5 0 0 0 0.454653 -1.22729 -1.19887 
466 4.19209 2.57746 3.01758 0.5 0 0 0 -2.12607 -0.251401 -0.64059 
467 3.47467 4.4369 3.46202 0.5 0 0 0 0.871119 -0.3335 -0.872577 
468 4.83204 2.71881 2.53955 0.5 0 0 0 1.39738 0.238209 -0.966845 
344 4.18941 2.52632 3.41191 0.5 0 0 0 -2.05259 -0.494516 0.00246723 
470 4.4847 2.5291 3.64937 0.5 0 0 0 -1.05991 -0.473917 0.538419 
471 3.84037 4.76542 3.03905 0.5 0 0 0 0.428626 1.21803 0.489429 
451 2.79986 3.7981 2.4996 0.5 0 0 0 0.673208 -1.50348 0.668482 
473 2.91846 5.08608 3.74857 0.5 0 0 0 -0.149621 2.67791 0.232542 
474 4.50734 2.85756 3.62549 0.5 0 0 0 -0.710958 1.04265 0.308595 
478 3.98903 2.61315 3.41298 0.5 0 0 0 -2.49944 -0.215968 -0.0580811 
476 4.67836 3.70549 3.01079 0.5 0 0 0 0.0893721 -0.00658441 0.817266 
477 2.80107 4.25513 2.56629 0.5 0 0 0 0.0882632 -1.26944 0.940784 
337 4.00856 2.47713 3.28526 0.5 0 0 0 -2.56725 -0.587875 -0.210905 
475 4.80452 4.05407 3.78608 0.5 0 0 0 0.939257 -0.0504997 -0.155884 
480 3.58953 3.8089 4.79312 0.5 0 0 0 1.28084 -1.32214 0.955303 
481 4.13979 3.02609 4.95777 0.5 0 0 0 -0.26798 -1.47022 2.14241 
482 3.77861 3.59845 4.00781 0.5 0 0 0 0.420752 -0.998597 -1.09708 
483 4.4053 4.8875 4.10612 0.5 0 0 0 0.263 0.500352 -1.75152 
484 3.17257 4.00243 3.96811 0.5 0 0 0 -0.446903 -1.44903 -1.51131 
485 3.66541 3.93623 4.40886 0.5 0 0 0 1.30975 -0.836064 -0.600801 
486 4.72062 4.70312 4.34976 0.5 0 0 0 -0.0982788 -0.899101 -1.3662 
487 3.2799 3.12529 4.27903 0.5 0 0 0 -0.664693 -1.98192 -0.831784 
488 4.67013 3.1766 4.66622 0.5 0 0 0 0.0223965 0.0686825 0.971339 
489 3.35019 4.8371 5.0897 0.5 0 0 0 -0.173021 3.09083 3.98369 
490 3.58041 3.44623 4.24509 0.5 0 0 0 -0.0362818 -1.73968 -0.884392 
491 3.71317 4.11091 4.82947 0.5 0 0 0 2.05167 -0.117182 1.33704 
492 2.66401 3.19065 4.79124 0.5 0 0 0 -1.28715 -2.59113 0.923028 
493 4.51493 3.66925 4.72374 0.5 0 0 0 1.18598 0.523283 0.678269 
494 3.42613 3.64516 5.12501 0.5 0 0 0 0.777875 -2.09062 3.3119 
495 2.68331 4.06725 4.41672 0.5 0 0 0 -1.05391 -0.908463 -1.1587 
496 2.62238 3.80937 4.95755 0.5 0 0 0 -1.3785 -1.77679 1.45776 
497 3.38169 4.37698 3.94441 0.5 0 0 0 0.446716 -0.250723 -1.31621 
357 3.44985 2.49541 4.63855 0.5 0 0 0 -0.880714 -1.29879 0.135065 
499 3.95609 2.50646 4.05607 0.5 0 0 0 -1.53391 -0.749104 0.251148 
500 4.65468 4.93223 4.97398 0.5 0 0 0 -0.725119 -0.119519 1.69284 
501 4.62616 4.81561 4.90393 0.5 0 0 0 -0.283527 -0.293757 1.29277 
502 2.68187 3.97567 4.77886 0.5 0 0 0 -0.999069 -1.16855 0.287559 
503 2.93975 4.25916 4.55902 0.5 0 0 0 -0.375771 -0.128697 -0.685967 
504 3.55114 3.30537 4.29101 0.5 0 0 0 -0.234593 -1.87491 -0.698666 
505 3.69576 4.82259 4.28552 0.5 0 0 0 1.42039 1.7747 -0.194306 
506 4.09435 4.02173 3.97424 0.5 0 0 0 1.82466 0.0293943 -0.947382 
507 4.9127 2.81897 3.94309 0.5 0 0 0 0.483254 0.990109 0.557424 
508 2.87514 3.92812 4.68636 0.5 0 0 0 -0.391886 -1.40779 -0.269415 
509 3.30514 4.7555 4.40391 0.5 0 0 0 0.178911 1.78599 -0.100234 
510 3.0845 4.49512 4.06088 0.5 0 0 0 -0.596077 0.201677 -1.22222 
511 2.64438 3.03167 4.50455 0.5 0 0 0 -1.03006 -2.20836 -0.126196 
512 2.666 2.82481 4.36838 0.5 0 0 0 -0.847095 -1.88604 -0.442513 
513 4.86973 3.02687 4.2985 0.5 0 0 0 0.304406 1.03375 0.59124 
ITEM: TIMESTEP
60051
ITEM: NUMBER OF ATOMS
512
ITEM: BOX BOUNDS ss ss ss
-2.1589663964569298e-02 5.0933846546203574e+00
-1.7364439631764822e-01 5.0865807164741392e+00
-1.8176655292622759e-01 5.1255068607205727e+00
ITEM: ATOMS id x y z width_SPH x_COM y_COM z_COM vx vy vz 
2 0.301069 0.775937 0.24686 0.5 0 0 0 -1.3794 -0.579543 0.0687652 
3 0.259447 1.29101 0.605719 0.5 0 0 0 -2.08444 -0.964698 0.287724 
4 0.787481 1.24764 1.03676 0.5 0 0 0 -0.386243 -0.340108 0.749221 
5 1.73538 1.8934 0.823937 0.5 0 0 0 0.958597 0.352118 0.22112 
6 0.274207 2.07866 0.848526 0.5 0 0 0 -2.11849 0.860438 1.16654 
7 0.54666 1.58454 0.34255 0.5 0 0 0 -0.688704 -0.372104 -0.682132 
8 1.33606 0.225902 0.773358 0.5 0 0 0 0.050033 -0.685434 1.18414 
9 1.53468 0.98643 0.331382 0.5 0 0 0 0.774111 0.260743 -0.747348 
10 1.11158 1.53603 -0.0685407 0.5 0 0 0 0.983799 -0.388508 -2.84957 
11 1.39604 1.22774 0.796167 0.5 0 0 0 0.782365 0.130049 0.28263 
38 1.08306 2.32881 0.776645 0.5 0 0 0 0.516902 0.421808 0.862962 
41 2.23083 2.37931 1.02289 0.5 0 0 0 0.351384 -0.20226 0.556578 
14 1.26048 2.06321 0.329273 0.5 0 0 0 1.3227 0.117821 -0.380275 
15 1.54694 0.0394831 0.976113 0.5 0 0 0 1.23301 -1.50691 2.12376 
37 0.636913 0.390268 0.353982 0.5 0 0 0 -1.4774 -0.586554 0.379682 
17 1.08139 0.119438 0.519714 0.5 0 0 0 -1.29669 -0.687419 0.538488 
18 1.50826 -0.0164835 0.0459031 0.5 0 0 0 0.0210507 -0.949833 -1.15238 
40 1.99512 0.669575 0.604459 0.5 0 0 0 1.39269 -0.197921 0.904862 
20 0.369828 1.75927 1.04788 0.5 0 0 0 -1.73139 0.35003 1.28568 
21 1.87799 1.79469 0.745542 0.5 0 0 0 1.08076 0.22637 -0.00312697 
22 0.552789 2.4223 0.409935 0.5 0 0 0 -0.558257 0.212978 0.657482 
39 0.791151 1.5785 0.810198 0.5 0 0 0 0.140692 0.227591 0.408961 
24 0.00342225 0.59829 0.0816955 0.5 0 0 0 -2.72812 -0.779938 -0.133783 
25 1.95435 0.260604 0.581875 0.5 0 0 0 1.68413 -0.755018 1.36426 
26 1.35581 0.890949 0.584786 0.5 0 0 0 0.399638 0.0193708 -0.00984115 
27 0.864666 1.8141 0.90015 0.5 0 0 0 0.377422 0.670919 0.691836 
28 2.15663 0.959744 0.35946 0.5 0 0 0 0.883602 0.501628 -0.229976 
29 2.42448 1.35995 0.269415 0.5 0 0 0 0.107996 1.01782 -1.19048 
30 1.3992 0.242435 0.884055 0.5 0 0 0 0.48875 -0.821794 1.45706 
31 1.65837 1.51847 0.685685 0.5 0 0 0 1.20245 0.362164 0.0101845 
32 1.30152 2.09592 0.25096 0.5 0 0 0 1.47641 0.00635068 -0.708909 
33 1.46276 1.14326 0.721758 0.5 0 0 0 0.856872 0.0701602 0.199767 
34 0.622257 2.08925 -0.0271143 0.5 0 0 0 -0.447996 -0.575398 -2.02295 
35 1.77116 0.0448123 -0.128808 0.5 0 0 0 1.17619 -0.864742 -2.25471 
36 0.968306 0.883229 0.0786238 0.5 0 0 0 0.0955825 0.0328327 -1.47967 
144 0.0212169 2.45507 0.114577 0.5 0 0 0 -3.16827 -0.780032 -1.09896 
43 1.54523 0.0677363 1.9523 0.5 0 0 0 1.54681 -2.05901 2.27939 
44 1.36472 2.35713 1.90941 0.5 0 0 0 0.773347 -0.347959 0.538674 
45 1.3338 1.11988 1.48552 0.5 0 0 0 0.476515 -0.198908 1.5575 
46 1.38771 2.23672 2.32625 0.5 0 0 0 0.773103 -0.849677 1.17322 
47 1.3959 1.26088 1.91895 0.5 0 0 0 -0.0998539 -0.503567 2.36788 
48 1.18006 0.812494 1.47865 0.5 0 0 0 0.16983 -0.42696 1.76228 
49 2.47935 2.34211 1.69817 0.5 0 0 0 0.558062 -0.173272 1.19153 
50 0.891255 0.608883 1.67018 0.5 0 0 0 -1.07947 -0.542214 2.51081 
51 1.96892 0.939592 1.80623 0.5 0 0 0 0.474705 -1.09681 1.64683 
52 0.671611 1.64139 1.33339 0.5 0 0 0 -0.669228 0.097697 1.61569 
53 2.12469 1.44177 1.7179 0.5 0 0 0 0.45624 0.123627 0.952305 
54 0.390192 0.0429237 2.20343 0.5 0 0 0 -1.55318 -1.25138 0.557874 
55 1.73184 1.84185 1.70752 0.5 0 0 0 0.650561 0.164934 0.906599 
16 2.25736 2.0163 1.1787 0.5 0 0 0 0.457661 -0.0719152 0.552913 
57 2.38803 1.07707 1.62868 0.5 0 0 0 0.472659 -0.693345 0.75541 
58 1.78528 0.149202 2.23909 0.5 0 0 0 1.03276 -2.02284 2.71646 
59 1.24235 0.582602 2.37877 0.5 0 0 0 0.260489 -0.272384 3.92152 
60 0.669155 1.69642 1.57451 0.5 0 0 0 -0.980007 -0.22186 2.09614 
61 1.33411 0.300404 1.71431 0.5 0 0 0 0.887224 -1.21208 2.26361 
78 1.05745 1.89882 1.61753 0.5 0 0 0 0.147243 0.000558977 1.16136 
63 2.01583 1.57785 2.03481 0.5 0 0 0 0.300805 -0.0541546 1.40503 
64 0.517039 0.357614 2.37907 0.5 0 0 0 -0.565374 0.530345 2.62097 
65 1.06184 1.77545 2.19872 0.5 0 0 0 -0.46864 -1.40532 2.1214 
66 2.34198 0.86195 2.01782 0.5 0 0 0 0.0265248 -1.3515 1.67452 
67 1.10298 0.688533 2.02626 0.5 0 0 0 -0.328014 -0.22191 3.45715 
68 2.05806 1.47707 1.72367 0.5 0 0 0 0.443916 0.165862 1.00093 
69 1.40306 0.742947 2.26941 0.5 0 0 0 -0.0128135 -0.602016 3.56717 
77 0.387405 1.54418 1.42854 0.5 0 0 0 -2.22898 -0.477376 2.42536 
71 0.737614 0.532109 1.43847 0.5 0 0 0 -1.94548 -0.911235 1.66727 
72 1.00639 2.24108 2.44177 0.5 0 0 0 0.00220166 -1.2581 1.46175 
73 2.05737 1.03319 1.69108 0.5 0 0 0 0.568101 -0.882767 1.23014 
74 2.23184 1.01522 2.36172 0.5 0 0 0 -0.384267 -1.45772 2.51915 
75 0.0297814 2.31121 2.22173 0.5 0 0 0 -2.35313 -1.61493 0.705467 
76 0.971337 1.10815 1.45355 0.5 0 0 0 -0.382621 -0.281281 1.81097 
12 1.34528 1.51116 1.24545 0.5 0 0 0 0.683792 0.377352 0.874137 
13 1.8662 1.32627 1.25809 0.5 0 0 0 0.997088 -0.056021 0.6623 
312 2.49224 -0.0785312 1.66921 0.5 0 0 0 -0.146824 -2.94613 1.29969 
42 1.22906 0.726343 1.23555 0.5 0 0 0 0.353156 -0.502418 1.15912 
79 1.43519 2.24238 3.26305 0.5 0 0 0 0.0223947 -2.28944 1.21443 
80 0.722429 0.183721 2.71176 0.5 0 0 0 1.47954 0.52356 2.97281 
81 1.07276 0.414988 2.90578 0.5 0 0 0 1.6268 0.318637 4.42191 
82 1.30862 1.94325 2.75295 0.5 0 0 0 -0.307582 -2.04024 1.91009 
83 1.70365 2.04279 2.87993 0.5 0 0 0 0.281047 -1.52935 1.51932 
84 1.24766 0.84011 3.71738 0.5 0 0 0 1.33466 -3.7799 4.56311 
85 2.02471 1.8402 2.82633 0.5 0 0 0 0.380664 -1.35919 1.64401 
106 1.36419 1.31963 2.61106 0.5 0 0 0 -0.890095 -2.18687 3.25942 
87 0.898793 2.29176 3.34264 0.5 0 0 0 -0.293891 -2.93026 0.785322 
88 1.94612 1.38121 2.97941 0.5 0 0 0 -0.74504 -2.92617 2.85496 
89 1.47551 0.236471 3.78192 0.5 0 0 0 0.219644 1.79091 4.58157 
100 0.580248 2.16472 2.54006 0.5 0 0 0 -0.486559 -1.98837 1.75445 
91 1.72849 1.44585 2.74126 0.5 0 0 0 -0.619539 -2.43817 2.67739 
92 0.127776 2.09691 2.83729 0.5 0 0 0 -1.29466 -2.82386 1.55065 
93 0.715275 0.310067 2.79199 0.5 0 0 0 1.35815 0.930473 3.27147 
94 1.45135 1.94302 2.6258 0.5 0 0 0 0.0977504 -1.59545 1.72405 
95 2.18937 2.14759 3.16345 0.5 0 0 0 0.86833 -1.23579 1.3645 
96 0.949794 1.87739 2.59392 0.5 0 0 0 -0.661407 -2.26232 2.27316 
97 1.79657 0.470853 3.60664 0.5 0 0 0 -2.34289 -1.28848 5.2754 
98 0.273041 1.57185 2.88923 0.5 0 0 0 -0.472728 -2.69587 1.99026 
99 2.15148 1.76574 3.33724 0.5 0 0 0 -0.0623458 -2.43035 1.94144 
105 0.748293 0.114087 3.13349 0.5 0 0 0 2.42407 0.805952 3.07575 
186 0.405526 2.44495 2.60322 0.5 0 0 0 -0.466398 -1.47827 1.20448 
102 1.8431 1.71237 3.01664 0.5 0 0 0 -0.358363 -2.45652 2.17479 
103 0.428584 1.0381 3.21398 0.5 0 0 0 1.28696 -1.21721 2.32732 
231 1.26226 2.35116 3.50858 0.5 0 0 0 0.166547 -2.6402 0.961373 
62 2.18333 1.76448 2.56415 0.5 0 0 0 0.45059 -0.64714 1.47221 
131 1.85477 1.65841 3.77349 0.5 0 0 0 -0.993904 -4.30608 2.03129 
56 2.44015 0.522587 2.4815 0.5 0 0 0 -0.939988 -1.8337 2.60207 
107 1.79925 0.17918 4.53987 0.5 0 0 0 -2.45843 2.41515 -3.09067 
108 1.07473 1.50092 4.4532 0.5 0 0 0 2.2301 -3.92931 -0.410838 
109 1.80423 0.539856 4.27432 0.5 0 0 0 -4.08428 -0.270114 -1.06251 
110 1.90999 0.686726 4.17965 0.5 0 0 0 -4.6874 -2.33709 0.535279 
139 1.00998 0.534255 4.84212 0.5 0 0 0 4.18406 -0.557473 -2.80619 
112 1.75817 0.698014 4.66545 0.5 0 0 0 -1.94949 -1.78468 -4.66989 
113 1.92757 1.25307 4.43647 0.5 0 0 0 -2.16268 -4.87601 -0.595471 
114 0.872975 0.925245 4.48013 0.5 0 0 0 4.97077 -2.01783 -2.19325 
115 1.84023 0.570509 4.46822 0.5 0 0 0 -3.73042 -0.563613 -3.38087 
116 0.780034 0.159621 4.3033 0.5 0 0 0 4.86764 0.454789 -1.14704 
117 0.976194 0.936292 4.21248 0.5 0 0 0 4.88998 -3.28018 -0.842734 
138 0.0273676 1.19268 4.38544 0.5 0 0 0 0.0333286 -1.92558 0.369665 
119 0.76783 1.80938 4.39848 0.5 0 0 0 1.5563 -2.82262 0.538755 
120 1.48918 0.684132 4.13281 0.5 0 0 0 0.291224 -2.81578 1.22415 
121 1.88099 0.771587 3.948 0.5 0 0 0 -3.89042 -3.61044 3.38615 
122 0.203648 -0.136023 4.07609 0.5 0 0 0 1.17962 -1.13963 0.140261 
123 1.22006 0.0987928 4.57305 0.5 0 0 0 3.27605 1.8973 -2.95658 
124 0.694199 0.489421 4.10319 0.5 0 0 0 4.9898 -0.112309 -0.715353 
125 1.57984 0.388097 4.1862 0.5 0 0 0 -1.13411 2.13389 0.184334 
126 1.32388 0.547612 4.31049 0.5 0 0 0 3.62961 -0.260617 -2.29513 
127 1.22246 2.04544 4.70511 0.5 0 0 0 0.52921 -2.49876 0.73864 
128 1.13271 0.89334 4.24918 0.5 0 0 0 4.63193 -3.84409 -1.0483 
129 0.157204 1.59084 4.15841 0.5 0 0 0 1.00225 -2.69923 -0.130525 
130 0.54642 0.828486 4.34959 0.5 0 0 0 3.60356 -1.03139 -1.4044 
137 0.139755 2.14505 3.86316 0.5 0 0 0 -0.174366 -3.34836 -0.349451 
132 2.24816 1.8794 3.83284 0.5 0 0 0 -0.369844 -2.65512 1.08226 
133 1.36567 0.564189 4.27386 0.5 0 0 0 2.91152 -0.547853 -1.67121 
134 1.70918 2.16356 4.92569 0.5 0 0 0 -0.345954 -2.30077 0.35599 
135 2.2642 0.167803 4.66814 0.5 0 0 0 -2.70283 -0.457095 -0.978165 
136 1.59585 1.61784 4.25902 0.5 0 0 0 -0.174924 -5.05057 0.598258 
86 1.99544 1.44379 3.89321 0.5 0 0 0 -1.58185 -4.7635 2.01607 
252 1.97124 2.33462 4.62375 0.5 0 0 0 -0.380457 -2.50469 -0.187739 
372 2.44559 0.703633 4.33783 0.5 0 0 0 -4.58205 -1.31108 -0.490383 
111 1.47987 2.39444 3.94321 0.5 0 0 0 0.573453 -2.60444 1.12611 
90 1.33534 1.25025 3.83516 0.5 0 0 0 0.044175 -5.92816 2.69827 
104 1.86759 1.04365 3.82193 0.5 0 0 0 -2.65256 -5.30367 3.6287 
118 2.50961 1.67312 4.55116 0.5 0 0 0 -2.00919 -2.3597 -0.414638 
101 1.63832 0.949633 3.80754 0.5 0 0 0 -1.76214 -5.38838 4.4804 
140 2.46899 2.49535 0.521337 0.5 0 0 0 -0.128935 -0.497142 0.092539 
141 0.969155 3.25075 0.881208 0.5 0 0 0 -0.687539 -0.0542256 0.763207 
142 1.05819 3.61895 0.280846 0.5 0 0 0 0.0762482 0.567501 -0.30513 
143 0.613294 3.01274 0.597907 0.5 0 0 0 -0.779377 -0.0736819 1.18858 
167 1.34249 2.79902 0.683507 0.5 0 0 0 0.862682 -0.285244 0.45935 
168 1.60812 2.59703 0.915714 0.5 0 0 0 0.694683 -0.064972 0.373869 
146 1.06775 3.21913 0.367262 0.5 0 0 0 0.565051 -0.407085 0.137565 
147 0.573207 4.49282 0.517002 0.5 0 0 0 1.15799 -0.171674 0.303753 
148 1.97431 3.78989 0.433882 0.5 0 0 0 0.683065 -0.368955 -0.379227 
149 0.683854 3.59681 0.0907944 0.5 0 0 0 -0.320047 1.05832 -0.716969 
150 1.89594 4.42723 0.806369 0.5 0 0 0 -0.262472 0.030389 0.357095 
151 0.0450031 3.44437 0.10618 0.5 0 0 0 -1.64555 0.617992 -0.0465225 
152 1.35725 3.63101 1.14384 0.5 0 0 0 0.11306 -0.00934355 0.199466 
153 2.20121 4.40131 0.258876 0.5 0 0 0 -0.252439 -0.133622 -0.977983 
154 2.33911 4.58276 0.684232 0.5 0 0 0 -0.385069 -0.355664 0.255399 
155 1.29543 3.739 0.71187 0.5 0 0 0 -0.0563043 0.396062 0.295762 
156 0.448867 4.37763 1.05829 0.5 0 0 0 -0.637509 -0.993364 1.12884 
157 2.28878 2.65211 1.12402 0.5 0 0 0 0.333628 -0.230743 0.723532 
158 1.97601 4.15404 0.975267 0.5 0 0 0 0.40455 -0.540384 0.510188 
159 1.30202 3.80287 0.707773 0.5 0 0 0 -0.132028 0.516328 0.258973 
160 2.25978 2.64393 -0.0732747 0.5 0 0 0 -0.478527 -0.50149 -2.6731 
23 0.962127 2.54199 0.248239 0.5 0 0 0 0.775342 -0.195288 -0.0476403 
162 1.69242 3.28376 0.68821 0.5 0 0 0 1.10821 -0.412033 0.18696 
163 0.0413272 4.44313 0.0101816 0.5 0 0 0 0.227762 -0.443119 -0.609403 
164 2.14712 2.84689 0.191519 0.5 0 0 0 -0.0992155 -0.121568 -1.1025 
165 0.0909627 3.27533 0.313751 0.5 0 0 0 -1.79358 0.168433 0.889016 
166 2.19765 3.29178 0.984011 0.5 0 0 0 0.426683 -0.0728833 0.437594 
169 0.463454 3.13037 2.39827 0.5 0 0 0 -0.76171 0.716302 0.0716643 
170 1.91534 3.15615 2.11444 0.5 0 0 0 0.850071 -0.609258 0.276085 
171 0.0731456 4.12224 2.28628 0.5 0 0 0 -2.32476 -0.638987 -1.31697 
172 1.10384 2.49108 1.83478 0.5 0 0 0 0.113773 -0.0897657 0.287107 
173 1.82173 3.36308 1.88122 0.5 0 0 0 0.624531 -0.353062 -0.19284 
174 1.26914 2.64237 1.45142 0.5 0 0 0 0.152518 0.0686377 0.0521981 
175 1.51649 4.31088 1.98113 0.5 0 0 0 0.608814 -0.492258 -0.249149 
176 1.55214 2.54249 1.97066 0.5 0 0 0 1.07782 -0.388519 0.455783 
177 -0.000849284 2.8616 2.38797 0.5 0 0 0 -2.34378 0.446096 0.184755 
178 1.44946 3.12326 1.43829 0.5 0 0 0 0.262706 -0.115134 -0.0447661 
179 2.14585 3.0696 2.45798 0.5 0 0 0 1.21857 -1.04112 0.798677 
180 1.15673 3.75587 1.50516 0.5 0 0 0 -0.819995 -0.0253582 -0.175387 
181 1.90675 4.8254 1.69836 0.5 0 0 0 -0.110066 0.569168 -0.338528 
182 1.13562 4.0265 1.86656 0.5 0 0 0 -0.897801 -0.269053 -0.176418 
183 1.54777 4.578 2.2453 0.5 0 0 0 0.407821 -0.184478 0.382029 
184 0.375319 2.61523 1.72661 0.5 0 0 0 -1.25206 0.288737 -0.281928 
185 1.31385 4.74035 2.2815 0.5 0 0 0 -0.397779 0.234688 0.573787 
204 1.32468 2.72488 2.02243 0.5 0 0 0 0.411413 -0.15137 0.33785 
187 1.38994 2.59811 2.25107 0.5 0 0 0 0.729218 -0.475083 0.785642 
188 1.50496 3.99844 2.40064 0.5 0 0 0 0.211215 -0.474676 0.651007 
189 1.72032 3.51607 2.26762 0.5 0 0 0 0.268731 -0.402708 0.325115 
202 0.972535 3.69504 1.79271 0.5 0 0 0 -1.44572 -0.0254269 -0.100618 
191 2.16535 2.9869 2.46312 0.5 0 0 0 1.31937 -1.07888 0.829749 
192 1.889 3.66892 2.05625 0.5 0 0 0 0.64861 -0.477204 -0.120472 
193 0.891355 3.87886 2.43149 0.5 0 0 0 -1.18056 -0.0752833 0.529404 
194 0.584989 3.06103 2.1515 0.5 0 0 0 -0.561701 0.719762 -0.131452 
195 1.99792 2.8463 1.96781 0.5 0 0 0 1.27029 -0.681308 0.435225 
196 1.34713 4.40977 1.55939 0.5 0 0 0 -0.112928 0.0288075 -0.883 
190 1.78496 4.9338 1.1726 0.5 0 0 0 -1.13942 1.85126 -0.304667 
198 0.864729 4.5435 2.00967 0.5 0 0 0 -2.11482 0.135865 -0.143093 
199 1.34387 3.07489 2.36975 0.5 0 0 0 -0.0317838 -0.265239 0.531307 
200 2.34844 5.02928 2.31953 0.5 0 0 0 -0.796955 1.59991 0.324457 
201 0.447631 2.72568 2.13465 0.5 0 0 0 -0.558497 0.0894224 0.113385 
70 0.869077 2.53772 2.15016 0.5 0 0 0 -0.00742788 -0.379518 0.682894 
145 2.0849 2.5666 1.35062 0.5 0 0 0 0.613558 -0.220208 0.593892 
161 0.304226 3.15921 1.21596 0.5 0 0 0 -2.20426 0.58668 0.685976 
205 1.20045 3.53231 3.03398 0.5 0 0 0 0.067849 -0.333968 0.264402 
206 1.96354 4.32897 3.03559 0.5 0 0 0 -0.110287 -0.374454 0.79575 
207 0.125255 4.09144 3.71369 0.5 0 0 0 -0.808917 -0.464145 0.109159 
208 0.84359 2.50925 3.69924 0.5 0 0 0 0.234167 -2.5571 0.72895 
209 1.51896 3.92171 3.16325 0.5 0 0 0 0.196413 -0.117544 0.840658 
210 1.84192 3.57402 3.51447 0.5 0 0 0 0.186016 -0.797543 0.52752 
211 1.88265 3.75203 2.61168 0.5 0 0 0 0.45234 -0.560308 0.722476 
212 1.26728 4.95011 2.96344 0.5 0 0 0 -0.263374 0.344995 0.888486 
213 2.05996 3.14168 2.58516 0.5 0 0 0 0.926683 -0.952247 0.88679 
214 1.2445 3.27321 3.65914 0.5 0 0 0 0.79431 -0.802958 0.932518 
215 0.723584 3.13221 3.31572 0.5 0 0 0 -0.405295 -0.703695 -0.116976 
216 0.445436 3.18581 3.33118 0.5 0 0 0 -1.08583 -0.462238 -0.477967 
217 2.47749 2.71686 2.75586 0.5 0 0 0 1.39751 -1.20613 0.862042 
218 2.38561 5.03042 3.71336 0.5 0 0 0 -0.964823 1.53917 0.410981 
219 1.09024 2.61491 3.18492 0.5 0 0 0 0.202245 -1.69439 0.472072 
220 2.32371 4.8339 2.95769 0.5 0 0 0 -0.618087 0.361647 0.828834 
221 1.05556 3.48504 3.60297 0.5 0 0 0 0.438458 -0.233061 0.805263 
222 2.43947 3.20194 3.06529 0.5 0 0 0 0.899507 -1.47826 0.585516 
223 1.90844 2.58351 3.3342 0.5 0 0 0 1.00397 -1.3916 0.908078 
224 0.518847 4.92289 3.11834 0.5 0 0 0 -0.680173 1.04934 -0.188425 
225 0.511127 3.84252 3.64451 0.5 0 0 0 -0.152903 0.096229 0.347046 
226 0.947704 4.03002 2.86601 0.5 0 0 0 -0.6649 0.111401 0.686536 
227 1.10353 3.04117 3.11188 0.5 0 0 0 0.291884 -0.946481 0.135886 
228 0.26092 4.35829 2.60106 0.5 0 0 0 -1.13181 -0.263868 -0.406495 
229 0.262294 4.30495 3.51799 0.5 0 0 0 -0.219825 -0.166065 -0.264816 
230 1.60813 2.9128 3.13402 0.5 0 0 0 0.85997 -1.11713 0.637783 
234 1.25336 3.65657 3.14787 0.5 0 0 0 0.170567 -0.177605 0.462596 
232 2.45704 3.29095 3.07976 0.5 0 0 0 0.789203 -1.45305 0.514957 
233 1.25656 4.7676 3.40159 0.5 0 0 0 0.26285 -0.270101 0.631795 
472 2.51545 4.84304 2.81895 0.5 0 0 0 -0.52264 0.37668 0.860477 
251 1.85861 2.53247 3.78307 0.5 0 0 0 0.796344 -1.97069 0.861941 
452 2.41994 3.93784 3.55703 0.5 0 0 0 -0.618576 -0.76776 -0.227217 
254 1.67058 4.93834 3.76207 0.5 0 0 0 -0.10853 -0.00646684 -0.126811 
197 1.56002 4.63702 2.4755 0.5 0 0 0 0.194484 -0.0431568 0.93926 
235 1.25867 4.88886 4.11647 0.5 0 0 0 -0.0651172 -0.422459 -0.500062 
236 2.01964 3.92687 3.99277 0.5 0 0 0 -1.36756 -0.449651 -0.153219 
237 0.59482 2.54957 3.92611 0.5 0 0 0 0.437815 -2.2767 0.911929 
238 0.923657 4.7717 4.37611 0.5 0 0 0 0.150127 -0.396485 -0.108969 
239 0.871877 3.75292 3.98211 0.5 0 0 0 0.547521 0.0329966 1.33287 
240 2.0614 4.57359 4.57908 0.5 0 0 0 -2.31879 1.31126 0.100681 
241 2.18405 4.38619 4.75142 0.5 0 0 0 -2.57619 0.697051 0.681017 
242 0.0972774 3.19401 4.41598 0.5 0 0 0 0.71208 -0.0226402 0.53037 
243 -0.0210894 2.72654 4.80954 0.5 0 0 0 0.478513 -2.54415 1.85164 
244 0.523836 4.91628 4.84729 0.5 0 0 0 -0.892587 0.136725 1.01539 
245 1.52928 3.07001 4.95429 0.5 0 0 0 -1.2863 -1.12744 1.45298 
246 1.24538 3.71929 4.41729 0.5 0 0 0 -0.181743 -0.942061 1.03639 
247 2.42627 3.35712 3.82755 0.5 0 0 0 -0.0792571 -1.80329 -0.263745 
248 1.72736 2.67641 4.86734 0.5 0 0 0 -0.717066 -1.99976 0.514709 
249 1.67259 3.00148 4.12672 0.5 0 0 0 0.26897 -1.74658 0.717891 
250 1.29946 2.62048 3.95289 0.5 0 0 0 0.753746 -2.08439 1.28447 
259 0.587311 2.8217 3.88903 0.5 0 0 0 0.414851 -1.32145 0.940623 
258 0.0372934 2.95955 4.02069 0.5 0 0 0 -0.312641 -0.790855 -0.239215 
253 0.163215 2.67727 3.94064 0.5 0 0 0 -0.222709 -1.89765 0.00968307 
498 2.47241 3.56395 4.29258 0.5 0 0 0 -1.20949 -2.02105 -0.680388 
255 0.213918 3.66474 4.84726 0.5 0 0 0 0.696288 0.260068 1.04162 
256 2.32358 4.09436 4.60624 0.5 0 0 0 -2.25492 -0.685994 -0.152636 
257 1.27313 4.24125 4.86155 0.5 0 0 0 -0.926742 -1.02028 1.44443 
260 4.00548 -0.156974 0.919826 0.5 0 0 0 -0.224108 -2.77572 0.556827 
261 3.19555 2.28939 1.12979 0.5 0 0 0 -0.766312 0.092081 1.3475 
262 4.78766 2.0216 0.404298 0.5 0 0 0 1.76576 0.433338 -1.08048 
263 4.86348 0.626852 0.989588 0.5 0 0 0 1.13948 -1.77802 0.856641 
264 3.25884 0.915972 0.201993 0.5 0 0 0 -0.77322 0.955051 -0.970843 
265 4.90554 1.41686 1.11291 0.5 0 0 0 1.84994 0.293415 1.42067 
266 4.83436 0.647198 -0.0129214 0.5 0 0 0 0.867938 -0.263323 -3.22924 
267 3.45729 1.79731 0.886207 0.5 0 0 0 -1.61348 -0.356162 0.380756 
268 2.89322 0.522866 0.8449 0.5 0 0 0 -0.15367 -0.39754 1.69465 
269 3.96982 1.81193 0.224059 0.5 0 0 0 -1.04674 -0.483304 -2.25336 
270 3.93633 1.90245 1.01935 0.5 0 0 0 -0.967788 0.5322 1.32249 
293 3.0209 2.402 0.572195 0.5 0 0 0 -0.796799 -0.433169 0.208579 
272 4.42309 1.79276 0.74169 0.5 0 0 0 0.047159 0.718782 0.202836 
273 4.85213 1.36363 0.800134 0.5 0 0 0 1.45541 -0.322704 -0.105075 
274 2.68345 0.714079 0.824464 0.5 0 0 0 0.231254 -0.090359 1.49876 
275 2.53788 2.34775 0.0564544 0.5 0 0 0 -0.496832 -1.07396 -2.05817 
276 5.08106 0.0669232 0.787802 0.5 0 0 0 1.14275 -1.66575 0.65454 
294 3.1399 0.0915009 0.349255 0.5 0 0 0 0.150658 -2.31547 -0.19564 
278 3.60827 1.88445 0.935525 0.5 0 0 0 -1.47466 -0.0204849 0.73984 
279 3.71217 0.45747 0.171552 0.5 0 0 0 0.354183 -1.32191 -1.49396 
295 2.73142 1.13214 0.898662 0.5 0 0 0 -0.159664 0.170718 0.868995 
281 3.0564 0.151209 0.970865 0.5 0 0 0 -0.45143 -1.93764 1.77545 
282 3.8744 1.69556 1.09782 0.5 0 0 0 -1.31087 0.0497917 1.4151 
283 3.80613 2.33927 -0.181268 0.5 0 0 0 -1.1012 -0.928717 -3.77641 
284 4.16863 2.09976 0.500959 0.5 0 0 0 -0.298077 0.73127 -0.333618 
285 3.41146 2.33265 0.439948 0.5 0 0 0 -1.11929 -0.145078 -0.370705 
286 3.72184 0.963264 0.427498 0.5 0 0 0 -1.14013 -0.23105 -0.451822 
287 4.34117 1.03841 0.421525 0.5 0 0 0 -0.486981 -1.23547 -1.49511 
288 4.07944 1.6191 1.03376 0.5 0 0 0 -1.10342 0.123658 1.24641 
289 4.36668 1.05293 0.596495 0.5 0 0 0 -0.637207 -1.32413 -0.787555 
290 3.33103 0.992292 0.623103 0.5 0 0 0 -1.22182 0.311978 0.68197 
291 2.90505 1.00379 0.0831445 0.5 0 0 0 -0.43235 1.52797 -1.78161 
297 3.16281 0.42265 1.81525 0.5 0 0 0 -1.29629 -1.5532 0.77712 
298 3.83873 2.08749 2.17161 0.5 0 0 0 -1.14488 -0.142794 1.04441 
299 3.06609 0.732193 2.23273 0.5 0 0 0 -0.806987 -0.563643 1.53064 
323 3.16958 1.7184 1.55878 0.5 0 0 0 -0.674023 -0.158866 1.15616 
301 3.32709 1.70196 2.15388 0.5 0 0 0 -0.572208 0.0774466 1.27872 
302 3.70478 0.970468 1.80799 0.5 0 0 0 -0.872655 0.195389 1.52383 
303 3.80396 0.847812 1.9442 0.5 0 0 0 -0.641857 0.0391978 1.64937 
292 4.33293 1.2853 1.24699 0.5 0 0 0 -0.639745 -0.24934 1.77527 
305 4.06196 1.45733 1.37116 0.5 0 0 0 -1.02105 0.152818 2.08163 
306 4.61121 1.24738 1.92466 0.5 0 0 0 0.787686 -0.0452644 1.55542 
307 4.02807 0.00291216 2.16168 0.5 0 0 0 -1.98923 -2.04564 -0.125266 
308 4.72506 0.10443 2.27495 0.5 0 0 0 0.0573887 -0.247081 0.0162219 
309 3.95474 0.747128 1.92068 0.5 0 0 0 -0.46875 -0.276008 1.65568 
310 4.61075 2.32872 1.97826 0.5 0 0 0 0.484496 -0.142865 0.410055 
311 3.53786 2.25907 2.09171 0.5 0 0 0 -0.893489 0.15827 1.12889 
321 4.85074 -0.0225664 2.20583 0.5 0 0 0 0.482401 -0.650869 -0.30989 
313 2.56726 1.50595 2.20377 0.5 0 0 0 0.109517 0.00600089 1.31396 
320 2.69246 1.31431 1.8726 0.5 0 0 0 0.0635898 -0.0689096 0.908756 
315 3.26739 0.871675 1.95479 0.5 0 0 0 -0.805001 -0.121798 1.16742 
316 4.50044 1.00423 2.30411 0.5 0 0 0 0.30779 0.0216556 0.921458 
317 4.42454 1.96835 2.33396 0.5 0 0 0 -0.426075 -0.757607 0.429065 
318 3.62757 0.647104 1.4244 0.5 0 0 0 -1.29713 -0.894223 0.717628 
319 3.17122 2.16817 1.97115 0.5 0 0 0 -0.361793 0.250652 1.24403 
271 4.89444 1.59838 1.20693 0.5 0 0 0 1.99263 1.05747 1.86768 
19 2.58919 1.86326 1.1735 0.5 0 0 0 0.0130765 -0.264312 0.53989 
280 3.82517 0.808425 1.18765 0.5 0 0 0 -1.36642 -0.816563 0.795796 
300 4.20682 2.38481 1.22811 0.5 0 0 0 -0.0437944 0.850185 1.85784 
296 4.29953 0.620877 1.17349 0.5 0 0 0 -0.391225 -1.69169 0.799878 
277 3.47974 2.13584 1.17679 0.5 0 0 0 -1.08782 0.311793 1.56501 
324 4.2005 1.07209 3.60419 0.5 0 0 0 -1.49449 0.447597 -0.55746 
325 3.13527 0.346661 3.34053 0.5 0 0 0 -3.12547 -1.26462 1.33763 
326 3.6674 1.472 3.67458 0.5 0 0 0 -1.94334 -0.405539 -0.0547283 
327 4.15864 1.37272 2.56514 0.5 0 0 0 -0.879736 -0.248802 0.532213 
328 3.56054 0.74607 2.82266 0.5 0 0 0 -1.2303 0.197388 0.970875 
329 4.6547 1.85821 2.76121 0.5 0 0 0 0.287463 -1.60695 -0.422638 
330 3.37922 1.61927 3.26273 0.5 0 0 0 -1.49019 -0.393453 0.612965 
331 4.42015 1.68675 3.2659 0.5 0 0 0 -1.11423 -1.26901 -0.407889 
332 4.72992 0.335373 2.57276 0.5 0 0 0 0.29564 0.868851 -0.287349 
333 2.66871 0.745665 3.45055 0.5 0 0 0 -3.12685 -1.52283 2.19036 
334 4.39709 0.492242 3.23253 0.5 0 0 0 -0.533084 0.856193 -1.84115 
335 5.05885 2.33764 2.8635 0.5 0 0 0 3.0418 -1.0072 -0.903889 
336 4.0552 0.349995 3.25554 0.5 0 0 0 -1.7558 0.276346 -0.965981 
350 2.94786 1.6205 2.67099 0.5 0 0 0 -0.331903 -0.231855 1.44437 
338 2.75766 1.04702 3.7024 0.5 0 0 0 -3.05281 -1.44822 1.35406 
339 2.70522 0.895151 2.7066 0.5 0 0 0 -1.0301 -1.15823 2.43868 
340 2.93399 1.02899 3.59672 0.5 0 0 0 -2.76065 -1.00175 1.23854 
341 4.47473 1.9948 3.43292 0.5 0 0 0 -1.11104 -1.62643 0.0347241 
342 4.92133 1.88469 3.61398 0.5 0 0 0 1.08789 -1.75822 0.255128 
343 3.24145 1.5906 2.6238 0.5 0 0 0 -0.676345 -0.187405 1.25357 
349 4.1968 -0.0384031 3.21982 0.5 0 0 0 -1.68687 -1.34804 -1.61069 
345 3.47824 0.0426705 3.05535 0.5 0 0 0 -2.73644 -2.2144 0.525264 
346 3.69695 0.812518 3.53319 0.5 0 0 0 -2.44889 0.196099 0.133071 
347 2.80181 1.66492 2.63693 0.5 0 0 0 -0.102869 -0.190686 1.44765 
348 2.63913 1.65882 2.67643 0.5 0 0 0 0.0403222 -0.424341 1.55996 
352 4.94758 1.25163 3.70679 0.5 0 0 0 1.53045 -0.0804642 -0.468099 
469 4.12805 2.45323 2.60915 0.5 0 0 0 -1.94943 -0.327553 -0.22055 
304 2.73538 0.14859 2.52862 0.5 0 0 0 -1.73143 -2.67713 1.93473 
384 4.55125 0.3138 3.78159 0.5 0 0 0 -1.086 0.714427 -1.93764 
351 4.81681 0.433173 4.13217 0.5 0 0 0 0.535563 1.28443 -0.255601 
381 3.28515 1.87301 4.23842 0.5 0 0 0 -1.69198 -1.05934 -1.04766 
353 3.42787 1.25797 4.13506 0.5 0 0 0 -2.4126 -0.741731 -0.231692 
354 3.93464 1.93869 4.94641 0.5 0 0 0 -0.469314 -0.731159 1.15888 
355 4.89446 2.33385 4.0075 0.5 0 0 0 0.313461 -1.36291 1.33116 
356 4.45181 -0.173146 4.76968 0.5 0 0 0 -1.85985 -2.81265 1.58592 
383 4.1318 0.484742 4.9929 0.5 0 0 0 -2.19945 0.864405 2.56488 
358 5.09289 1.5728 4.75783 0.5 0 0 0 1.28547 -0.321759 1.65901 
359 3.01964 1.92093 4.29428 0.5 0 0 0 -1.64716 -1.29446 -1.07777 
360 4.55824 0.294837 4.19705 0.5 0 0 0 -1.20753 0.68072 -0.312522 
361 5.0107 2.27457 4.16294 0.5 0 0 0 0.815496 -1.71617 1.74504 
362 4.17114 0.254776 4.2464 0.5 0 0 0 -3.31805 0.0157441 -0.205758 
363 3.91131 0.319092 4.53698 0.5 0 0 0 -4.12058 -0.228903 0.557707 
364 2.66474 1.94635 4.90103 0.5 0 0 0 -2.03359 -1.87525 0.775549 
365 3.1697 1.79582 4.59542 0.5 0 0 0 -1.63189 -1.52832 -0.42912 
366 4.61144 0.91156 4.1486 0.5 0 0 0 -0.161801 1.71042 0.501385 
367 3.81679 -0.0602422 3.84489 0.5 0 0 0 -4.38255 -2.21105 0.189155 
368 4.0643 1.84855 4.28442 0.5 0 0 0 -1.15828 -0.718858 -0.0177364 
369 3.49421 1.48242 4.35656 0.5 0 0 0 -1.88369 -0.953647 -0.468826 
370 2.83 0.443286 4.66007 0.5 0 0 0 -3.54676 -1.08067 0.0899617 
371 4.72582 0.250736 4.64224 0.5 0 0 0 0.354033 0.645323 1.6131 
382 3.8842 0.944611 3.84084 0.5 0 0 0 -2.45415 0.362233 -0.0352839 
373 4.63289 0.300489 3.94053 0.5 0 0 0 -0.776858 0.734416 -1.37534 
374 4.53402 0.486197 4.04811 0.5 0 0 0 -1.13014 1.24207 -0.77884 
375 5.03446 0.0101017 4.98311 0.5 0 0 0 3.59477 -1.18724 3.20955 
376 4.10392 1.60789 4.6828 0.5 0 0 0 -0.582509 -0.440837 0.453465 
377 4.01537 2.10371 5.10766 0.5 0 0 0 -0.109842 -0.494933 2.13395 
378 2.9176 1.64264 5.01092 0.5 0 0 0 -1.92866 -2.16828 1.57482 
379 3.53379 0.926496 5.07408 0.5 0 0 0 -2.38337 -0.425523 1.8342 
380 3.06477 2.29048 4.29765 0.5 0 0 0 -1.41923 -1.25236 -1.06825 
385 2.72743 3.16667 0.678624 0.5 0 0 0 -0.259409 0.0375945 0.477881 
386 4.46001 4.72631 0.049974 0.5 0 0 0 0.670292 0.329402 -0.709621 
387 3.86554 3.94207 0.138873 0.5 0 0 0 0.119291 -0.411059 -0.428008 
388 4.32021 4.0172 1.07919 0.5 0 0 0 -0.817769 -0.172887 -1.10386 
389 3.81849 3.08829 0.794951 0.5 0 0 0 -0.593927 0.0886927 0.755457 
390 3.64731 4.11213 0.128382 0.5 0 0 0 0.0900863 -0.597345 0.0534263 
391 5.05322 4.32998 1.07581 0.5 0 0 0 2.1433 1.08723 -1.29539 
392 4.88877 2.67893 0.29546 0.5 0 0 0 1.32149 0.365197 -0.297579 
393 4.52615 4.58372 0.677725 0.5 0 0 0 -0.0148318 1.27508 -0.99172 
394 2.76375 2.92559 1.08836 0.5 0 0 0 0.0172043 -0.151015 1.30117 
395 4.91111 2.95984 0.9986 0.5 0 0 0 1.35507 -0.497246 1.14159 
396 4.08242 3.07659 0.0175173 0.5 0 0 0 -0.343931 0.450868 -1.52543 
397 5.07976 4.04744 0.825054 0.5 0 0 0 2.38253 -0.0624203 -1.63074 
398 2.92734 4.94156 0.00822417 0.5 0 0 0 -0.477065 2.03749 -1.5009 
399 3.38818 4.92148 0.588323 0.5 0 0 0 0.578047 1.09103 -0.331006 
400 3.33767 4.51274 0.419336 0.5 0 0 0 0.195518 -0.603891 0.275913 
401 3.37374 2.65717 0.0719962 0.5 0 0 0 -0.978852 -0.396978 -1.65037 
402 2.72655 3.11912 0.688005 0.5 0 0 0 -0.262881 0.0100016 0.537541 
403 4.76397 3.22272 0.182966 0.5 0 0 0 0.43143 0.481352 -1.34419 
404 4.20748 2.63552 0.142014 0.5 0 0 0 -0.164158 0.53147 -0.894103 
405 4.05945 4.87615 -0.0238887 0.5 0 0 0 0.282916 0.873272 -0.164256 
406 4.20553 3.58907 1.03062 0.5 0 0 0 -0.887473 -0.743158 -0.290755 
407 2.81353 4.21131 -0.0113264 0.5 0 0 0 -0.346714 -0.769316 -1.25039 
408 4.99349 3.11745 0.424444 0.5 0 0 0 1.24846 -0.0506842 -0.253551 
409 3.77206 3.30856 0.562627 0.5 0 0 0 -0.535965 0.0681251 0.0362105 
410 3.87007 2.62726 0.885769 0.5 0 0 0 -0.532601 0.714174 1.23174 
411 4.18383 2.65307 1.06401 0.5 0 0 0 -0.135412 0.559473 1.46076 
412 3.0916 3.18162 0.446708 0.5 0 0 0 -0.480465 0.0500725 0.0615162 
413 2.9187 3.71694 0.925143 0.5 0 0 0 -0.22571 -0.36316 0.330768 
414 2.70955 4.48431 0.643285 0.5 0 0 0 -0.107229 -0.930299 0.142364 
415 2.6388 4.93666 1.1135 0.5 0 0 0 -1.07921 0.886341 -0.319953 
417 3.0858 3.60769 0.193228 0.5 0 0 0 -0.439158 -0.300424 -0.622335 
418 4.81606 4.17573 1.6567 0.5 0 0 0 0.591421 -0.344361 0.0452481 
419 2.97104 3.77732 2.20127 0.5 0 0 0 0.527201 -1.67752 0.597801 
420 4.87673 3.94974 2.41375 0.5 0 0 0 0.274894 -1.57641 0.677293 
421 4.8751 4.57038 1.80973 0.5 0 0 0 1.01159 1.67479 -0.455614 
422 4.26911 4.54908 1.75393 0.5 0 0 0 0.210607 0.978853 0.15958 
423 3.64883 4.60707 1.39654 0.5 0 0 0 0.361025 0.133707 -1.23186 
424 4.35686 3.80958 1.43822 0.5 0 0 0 -0.729257 -1.1654 0.524535 
425 2.78397 3.15329 1.33964 0.5 0 0 0 0.223694 -0.293648 1.28227 
426 3.24265 4.55351 2.11576 0.5 0 0 0 0.105223 -0.908445 1.6602 
427 3.29534 4.61706 1.65763 0.5 0 0 0 -0.180094 -0.610718 -0.144511 
428 4.92767 4.3107 2.00987 0.5 0 0 0 0.632465 -0.199101 0.0995102 
429 3.19585 4.83427 1.72876 0.5 0 0 0 -0.356619 0.283533 0.17077 
430 2.95764 4.84836 1.32107 0.5 0 0 0 -0.875976 0.354237 -0.984352 
431 3.50766 2.67592 2.37491 0.5 0 0 0 -0.874523 -0.138886 0.589053 
432 3.95776 2.50817 1.47999 0.5 0 0 0 -0.675011 0.427713 1.94304 
433 2.74246 4.35531 2.39777 0.5 0 0 0 -0.216754 -1.01737 0.873614 
434 3.13473 4.5078 1.94042 0.5 0 0 0 -0.332041 -1.07925 0.870731 
435 3.61635 4.6595 1.62657 0.5 0 0 0 0.532126 0.0850775 -0.176552 
436 3.34108 3.27577 2.05506 0.5 0 0 0 -0.141771 -0.940381 0.961192 
437 3.80656 3.98332 1.78453 0.5 0 0 0 -0.714651 -1.51628 0.940808 
438 5.00233 3.52832 1.86043 0.5 0 0 0 1.73066 -1.93287 0.236822 
439 4.48504 4.48045 2.45637 0.5 0 0 0 -0.699927 0.100628 1.44694 
440 2.64624 3.87469 2.23009 0.5 0 0 0 0.374746 -1.16797 0.247917 
441 2.92967 4.74914 2.12021 0.5 0 0 0 -0.681678 -0.00189348 1.10792 
442 3.06368 4.58908 1.38181 0.5 0 0 0 -0.702531 -0.753027 -1.05752 
443 3.87393 4.11951 1.9644 0.5 0 0 0 -0.42623 -1.36561 1.44375 
444 2.67807 4.3564 1.89243 0.5 0 0 0 -0.768882 -0.933548 -0.157707 
445 4.42925 3.75366 1.23855 0.5 0 0 0 -0.571522 -1.03454 -0.0131131 
446 4.16137 3.88015 2.29142 0.5 0 0 0 -0.971925 -1.56515 1.4027 
447 3.98414 3.83381 1.7099 0.5 0 0 0 -1.00352 -1.50698 1.02253 
448 4.54614 2.8292 2.22811 0.5 0 0 0 -0.167318 0.273017 -0.265182 
449 3.08114 3.86143 1.29596 0.5 0 0 0 -0.376899 -0.892205 0.0159881 
450 3.48301 3.36566 1.39671 0.5 0 0 0 -0.555963 -0.723574 1.08947 
416 4.4394 3.86706 1.2623 0.5 0 0 0 -0.553568 -0.823893 -0.162326 
203 2.54257 2.99444 1.48494 0.5 0 0 0 0.543114 -0.349904 1.11908 
322 2.8968 2.52125 1.86349 0.5 0 0 0 0.201464 -0.0968784 1.34306 
314 4.95152 2.49957 1.43986 0.5 0 0 0 2.18039 0.0170279 0.881112 
479 2.67201 3.66334 3.67498 0.5 0 0 0 -0.203291 -1.64082 -0.627305 
453 4.81672 2.73412 3.25351 0.5 0 0 0 0.831703 0.571514 -0.423176 
454 3.96862 3.31053 2.81272 0.5 0 0 0 -1.04524 -0.0946976 0.106193 
455 2.9786 4.28332 3.66019 0.5 0 0 0 -0.72652 -0.93201 -1.02455 
456 2.78682 4.65171 3.10914 0.5 0 0 0 -0.203215 -0.442464 0.326361 
457 3.04669 4.89391 2.94079 0.5 0 0 0 0.553138 0.687056 0.70608 
458 3.38148 3.15475 2.90913 0.5 0 0 0 -0.536568 -0.877638 0.204811 
459 4.79833 4.06689 2.63941 0.5 0 0 0 -0.128093 -1.06001 1.14759 
460 4.33881 2.93316 3.14829 0.5 0 0 0 -1.28475 1.05588 -0.479675 
461 4.46962 4.44766 2.57145 0.5 0 0 0 -0.804018 -0.0312589 1.57337 
462 4.70144 4.99917 2.54254 0.5 0 0 0 0.456855 4.60252 1.38151 
463 4.41339 2.63817 2.73774 0.5 0 0 0 -1.2262 -0.00236611 -0.778426 
464 3.08229 3.82563 3.12878 0.5 0 0 0 0.299039 -1.73471 -0.11035 
465 3.5702 3.9329 3.56068 0.5 0 0 0 0.454648 -1.22729 -1.19886 
466 4.19208 2.57746 3.01758 0.5 0 0 0 -2.12606 -0.251405 -0.640583 
467 3.47467 4.4369 3.46202 0.5 0 0 0 0.871114 -0.3335 -0.87257 
468 4.83204 2.71881 2.53955 0.5 0 0 0 1.39738 0.238205 -0.966837 
344 4.18941 2.52632 3.41191 0.5 0 0 0 -2.05258 -0.494519 0.00246927 
470 4.4847 2.5291 3.64937 0.5 0 0 0 -1.05991 -0.473919 0.538417 
471 3.84037 4.76542 3.03905 0.5 0 0 0 0.428624 1.21803 0.489425 
451 2.79986 3.7981 2.4996 0.5 0 0 0 0.673203 -1.50347 0.668479 
473 2.91846 5.08608 3.74857 0.5 0 0 0 -0.149617 2.6779 0.232545 
474 4.50734 2.85756 3.62549 0.5 0 0 0 -0.710953 1.04264 0.308594 
478 3.98903 2.61315 3.41298 0.5 0 0 0 -2.49943 -0.215972 -0.0580783 
476 4.67836 3.70549 3.01079 0.5 0 0 0 0.0893712 -0.00658571 0.81726 
477 2.80107 4.25513 2.56629 0.5 0 0 0 0.0882612 -1.26943 0.94078 
337 4.00856 2.47713 3.28526 0.5 0 0 0 -2.56724 -0.587877 -0.2109 
475 4.80452 4.05407 3.78608 0.5 0 0 0 0.939256 -0.0504994 -0.155885 
480 3.58953 3.8089 4.79312 0.5 0 0 0 1.28083 -1.32213 0.955298 
481 4.13979 3.02609 4.95777 0.5 0 0 0 -0.267984 -1.47022 2.1424 
482 3.77861 3.59845 4.00781 0.5 0 0 0 0.420745 -0.998592 -1.09707 
483 4.4053 4.8875 4.10612 0.5 0 0 0 0.262997 0.500351 -1.75151 
484 3.17257 4.00243 3.96811 0.5 0 0 0 -0.446899 -1.44903 -1.5113 
485 3.66541 3.93623 4.40886 0.5 0 0 0 1.30974 -0.836058 -0.600799 
486 4.72062 4.70312 4.34976 0.5 0 0 0 -0.0982736 -0.899097 -1.3662 
487 3.2799 3.12529 4.27903 0.5 0 0 0 -0.664693 -1.98191 -0.831781 
488 4.67013 3.1766 4.66622 0.5 0 0 0 0.0223895 0.0686764 0.97133 
489 3.35019 4.8371 5.0897 0.5 0 0 0 -0.173045 3.0908 3.98367 
490 3.58041 3.44623 4.24509 0.5 0 0 0 -0.0362858 -1.73967 -0.884388 
491 3.71317 4.11091 4.82947 0.5 0 0 0 2.05166 -0.117177 1.33703 
492 2.66401 3.19065 4.79124 0.5 0 0 0 -1.28715 -2.59112 0.923027 
493 4.51493 3.66925 4.72374 0.5 0 0 0 1.18596 0.52328 0.678262 
494 3.42613 3.64516 5.12501 0.5 0 0 0 0.777864 -2.09061 3.3119 
495 2.68331 4.06725 4.41672 0.5 0 0 0 -1.0539 -0.908459 -1.1587 
496 2.62238 3.80937 4.95755 0.5 0 0 0 -1.37849 -1.77679 1.45776 
497 3.38169 4.37698 3.94441 0.5 0 0 0 0.446715 -0.250723 -1.3162 
357 3.44985 2.4954 4.63855 0.5 0 0 0 -0.880714 -1.29879 0.135065 
499 3.95608 2.50646 4.05607 0.5 0 0 0 -1.53391 -0.749103 0.251148 
500 4.65468 4.93223 4.97398 0.5 0 0 0 -0.725114 -0.11952 1.69283 
501 4.62616 4.81561 4.90393 0.5 0 0 0 -0.283526 -0.293758 1.29276 
502 2.68187 3.97567 4.77886 0.5 0 0 0 -0.999058 -1.16854 0.287559 
503 2.93975 4.25916 4.55902 0.5 0 0 0 -0.375762 -0.128692 -0.685964 
504 3.55114 3.30537 4.29101 0.5 0 0 0 -0.234595 -1.87491 -0.698663 
505 3.69576 4.82259 4.28552 0.5 0 0 0 1.42038 1.77468 -0.194306 
506 4.09435 4.02173 3.97424 0.5 0 0 0 1.82464 0.0293949 -0.947375 
507 4.9127 2.81897 3.94309 0.5 0 0 0 0.48325 0.990103 0.557414 
508 2.87514 3.92812 4.68636 0.5 0 0 0 -0.391877 -1.40778 -0.269414 
509 3.30514 4.7555 4.40391 0.5 0 0 0 0.178907 1.78598 -0.100232 
510 3.0845 4.49512 4.06088 0.5 0 0 0 -0.596073 0.201677 -1.22221 
511 2.64438 3.03167 4.50455 0.5 0 0 0 -1.03005 -2.20835 -0.126197 
512 2.666 2.82481 4.36838 0.5 0 0 0 -0.847092 -1.88603 -0.442513 
513 4.86973 3.02687 4.2985 0.5 0 0 0 0.3044 1.03375 0.59123 
ITEM: TIMESTEP
60052
ITEM: NUMBER OF ATOMS
512
ITEM: BOX BOUNDS ss ss ss
-2.1589663964569298e-02 5.0933846546203574e+00
-1.7364439631764822e-01 5.0865807164741392e+00
-1.8176655292622759e-01 5.1255068607205727e+00
ITEM: ATOMS id x y z width_SPH x_COM y_COM z_COM vx vy vz 
2 0.301068 0.775936 0.24686 0.5 0 0 0 -1.37938 -0.579539 0.0687704 
3 0.259446 1.29101 0.60572 0.5 0 0 0 -2.08443 -0.964694 0.287728 
4 0.787481 1.24764 1.03676 0.5 0 0 0 -0.386241 -0.340108 0.749218 
5 1.73538 1.8934 0.823937 0.5 0 0 0 0.958591 0.352116 0.221122 
6 0.274206 2.07866 0.848527 0.5 0 0 0 -2.11848 0.860436 1.16654 
7 0.546659 1.58454 0.34255 0.5 0 0 0 -0.688701 -0.3721 -0.682128 
8 1.33606 0.225901 0.773358 0.5 0 0 0 0.0500325 -0.685432 1.18414 
9 1.53468 0.98643 0.331382 0.5 0 0 0 0.774105 0.260739 -0.747348 
10 1.11158 1.53603 -0.0685421 0.5 0 0 0 0.983797 -0.388506 -2.84957 
11 1.39605 1.22774 0.796168 0.5 0 0 0 0.782359 0.130048 0.282632 
38 1.08306 2.32881 0.776645 0.5 0 0 0 0.516896 0.421804 0.86296 
41 2.23083 2.37931 1.02289 0.5 0 0 0 0.351382 -0.20226 0.556577 
14 1.26049 2.06321 0.329273 0.5 0 0 0 1.3227 0.11782 -0.380273 
15 1.54694 0.0394823 0.976114 0.5 0 0 0 1.23301 -1.50691 2.12375 
37 0.636912 0.390268 0.353982 0.5 0 0 0 -1.47739 -0.586552 0.379686 
17 1.08139 0.119438 0.519714 0.5 0 0 0 -1.29668 -0.687416 0.538487 
18 1.50826 -0.0164839 0.0459025 0.5 0 0 0 0.0210491 -0.949823 -1.15236 
40 1.99512 0.669575 0.60446 0.5 0 0 0 1.39268 -0.197925 0.90486 
20 0.369827 1.75927 1.04788 0.5 0 0 0 -1.73139 0.350029 1.28568 
21 1.87799 1.79469 0.745542 0.5 0 0 0 1.08075 0.226368 -0.00312506 
22 0.552789 2.4223 0.409935 0.5 0 0 0 -0.558256 0.212978 0.657482 
39 0.791151 1.5785 0.810198 0.5 0 0 0 0.140692 0.227591 0.40896 
24 0.00342089 0.598289 0.0816955 0.5 0 0 0 -2.7281 -0.779933 -0.133777 
25 1.95435 0.260603 0.581875 0.5 0 0 0 1.68412 -0.75502 1.36426 
26 1.35581 0.890949 0.584786 0.5 0 0 0 0.399633 0.0193673 -0.00984145 
27 0.864666 1.8141 0.90015 0.5 0 0 0 0.37742 0.670917 0.691834 
28 2.15663 0.959744 0.35946 0.5 0 0 0 0.883597 0.501623 -0.229976 
29 2.42448 1.35995 0.269414 0.5 0 0 0 0.107996 1.01781 -1.19047 
30 1.3992 0.242435 0.884055 0.5 0 0 0 0.488749 -0.821792 1.45706 
31 1.65837 1.51848 0.685685 0.5 0 0 0 1.20244 0.362162 0.0101866 
32 1.30153 2.09592 0.250959 0.5 0 0 0 1.47641 0.00635028 -0.708907 
33 1.46276 1.14326 0.721758 0.5 0 0 0 0.856866 0.0701577 0.199768 
34 0.622257 2.08925 -0.0271153 0.5 0 0 0 -0.447995 -0.575395 -2.02295 
35 1.77116 0.0448119 -0.128809 0.5 0 0 0 1.17618 -0.86473 -2.2547 
36 0.968306 0.88323 0.078623 0.5 0 0 0 0.0955843 0.0328316 -1.47966 
144 0.0212153 2.45507 0.114576 0.5 0 0 0 -3.16826 -0.780034 -1.09896 
43 1.54523 0.0677352 1.95231 0.5 0 0 0 1.54681 -2.059 2.27938 
44 1.36472 2.35713 1.90941 0.5 0 0 0 0.773342 -0.347961 0.538676 
45 1.3338 1.11988 1.48552 0.5 0 0 0 0.476515 -0.198909 1.5575 
46 1.38771 2.23672 2.32625 0.5 0 0 0 0.7731 -0.849676 1.17322 
47 1.3959 1.26088 1.91895 0.5 0 0 0 -0.0998524 -0.503567 2.36788 
48 1.18006 0.812494 1.47865 0.5 0 0 0 0.169832 -0.426959 1.76228 
49 2.47935 2.34211 1.69817 0.5 0 0 0 0.558058 -0.173273 1.19153 
50 0.891254 0.608883 1.67018 0.5 0 0 0 -1.07946 -0.542211 2.51081 
51 1.96892 0.939591 1.80623 0.5 0 0 0 0.474702 -1.09681 1.64682 
52 0.671611 1.64139 1.33339 0.5 0 0 0 -0.669224 0.0976958 1.61568 
53 2.1247 1.44177 1.7179 0.5 0 0 0 0.456236 0.123625 0.952307 
54 0.390191 0.0429231 2.20343 0.5 0 0 0 -1.55318 -1.25139 0.557883 
55 1.73184 1.84185 1.70752 0.5 0 0 0 0.650558 0.16493 0.906601 
16 2.25736 2.0163 1.1787 0.5 0 0 0 0.457659 -0.0719161 0.552913 
57 2.38803 1.07707 1.62868 0.5 0 0 0 0.472655 -0.693346 0.755412 
58 1.78528 0.149201 2.23909 0.5 0 0 0 1.03275 -2.02283 2.71645 
59 1.24235 0.582601 2.37877 0.5 0 0 0 0.260497 -0.272379 3.92151 
60 0.669155 1.69642 1.57451 0.5 0 0 0 -0.980003 -0.221862 2.09614 
61 1.33411 0.300403 1.71431 0.5 0 0 0 0.887226 -1.21207 2.26361 
78 1.05745 1.89882 1.61753 0.5 0 0 0 0.147243 0.000557259 1.16136 
63 2.01583 1.57785 2.03482 0.5 0 0 0 0.300803 -0.0541569 1.40504 
64 0.517039 0.357615 2.37907 0.5 0 0 0 -0.565368 0.530348 2.62097 
65 1.06184 1.77545 2.19872 0.5 0 0 0 -0.468639 -1.40532 2.12139 
66 2.34198 0.861949 2.01782 0.5 0 0 0 0.0265225 -1.3515 1.67452 
67 1.10298 0.688533 2.02626 0.5 0 0 0 -0.328006 -0.221906 3.45714 
68 2.05806 1.47707 1.72367 0.5 0 0 0 0.443912 0.16586 1.00093 
69 1.40306 0.742947 2.26941 0.5 0 0 0 -0.0128076 -0.602012 3.56715 
77 0.387404 1.54418 1.42854 0.5 0 0 0 -2.22898 -0.477377 2.42535 
71 0.737614 0.532108 1.43847 0.5 0 0 0 -1.94548 -0.911233 1.66727 
72 1.00639 2.24108 2.44177 0.5 0 0 0 0.00220054 -1.25809 1.46175 
73 2.05737 1.03319 1.69108 0.5 0 0 0 0.568097 -0.882767 1.23014 
74 2.23184 1.01522 2.36172 0.5 0 0 0 -0.384267 -1.45772 2.51914 
75 0.0297802 2.31121 2.22173 0.5 0 0 0 -2.35313 -1.61493 0.705465 
76 0.971336 1.10815 1.45355 0.5 0 0 0 -0.382619 -0.281281 1.81096 
12 1.34528 1.51116 1.24545 0.5 0 0 0 0.683788 0.37735 0.874136 
13 1.86621 1.32627 1.25809 0.5 0 0 0 0.997083 -0.0560234 0.662301 
312 2.49224 -0.0785327 1.66921 0.5 0 0 0 -0.146823 -2.94612 1.29969 
42 1.22906 0.726343 1.23555 0.5 0 0 0 0.353157 -0.502418 1.15912 
79 1.43519 2.24238 3.26306 0.5 0 0 0 0.0223946 -2.28943 1.21443 
80 0.72243 0.183721 2.71176 0.5 0 0 0 1.47954 0.523558 2.97282 
81 1.07277 0.414988 2.90578 0.5 0 0 0 1.6268 0.318635 4.42189 
82 1.30862 1.94324 2.75295 0.5 0 0 0 -0.307581 -2.04023 1.91009 
83 1.70365 2.04279 2.87993 0.5 0 0 0 0.281046 -1.52935 1.51932 
84 1.24767 0.840109 3.71738 0.5 0 0 0 1.33466 -3.77988 4.56308 
85 2.02471 1.8402 2.82633 0.5 0 0 0 0.380661 -1.35919 1.64401 
106 1.36419 1.31963 2.61106 0.5 0 0 0 -0.89009 -2.18686 3.25941 
87 0.898793 2.29176 3.34264 0.5 0 0 0 -0.29389 -2.93025 0.785319 
88 1.94612 1.38121 2.97941 0.5 0 0 0 -0.745038 -2.92616 2.85495 
89 1.47551 0.236472 3.78192 0.5 0 0 0 0.219639 1.79091 4.58154 
100 0.580248 2.16471 2.54006 0.5 0 0 0 -0.486557 -1.98836 1.75444 
91 1.72849 1.44584 2.74126 0.5 0 0 0 -0.619537 -2.43817 2.67738 
92 0.127775 2.09691 2.83729 0.5 0 0 0 -1.29465 -2.82385 1.55064 
93 0.715276 0.310067 2.79199 0.5 0 0 0 1.35815 0.93047 3.27147 
94 1.45135 1.94302 2.6258 0.5 0 0 0 0.0977498 -1.59544 1.72405 
95 2.18937 2.14759 3.16345 0.5 0 0 0 0.868325 -1.23579 1.36449 
96 0.949793 1.87739 2.59392 0.5 0 0 0 -0.661405 -2.26231 2.27315 
97 1.79657 0.470853 3.60664 0.5 0 0 0 -2.34287 -1.28846 5.27538 
98 0.273041 1.57185 2.88923 0.5 0 0 0 -0.47272 -2.69586 1.99025 
99 2.15148 1.76574 3.33724 0.5 0 0 0 -0.0623476 -2.43034 1.94143 
105 0.748294 0.114087 3.13349 0.5 0 0 0 2.42406 0.805945 3.07575 
186 0.405526 2.44495 2.60322 0.5 0 0 0 -0.466394 -1.47826 1.20447 
102 1.8431 1.71237 3.01665 0.5 0 0 0 -0.358363 -2.45652 2.17478 
103 0.428585 1.0381 3.21398 0.5 0 0 0 1.28695 -1.21721 2.32732 
231 1.26226 2.35116 3.50858 0.5 0 0 0 0.166547 -2.64019 0.961368 
62 2.18333 1.76448 2.56415 0.5 0 0 0 0.450586 -0.64714 1.47221 
131 1.85477 1.65841 3.77349 0.5 0 0 0 -0.993902 -4.30608 2.03128 
56 2.44015 0.522586 2.4815 0.5 0 0 0 -0.939986 -1.83369 2.60206 
107 1.79925 0.179181 4.53986 0.5 0 0 0 -2.4584 2.41514 -3.09065 
108 1.07473 1.50092 4.4532 0.5 0 0 0 2.23008 -3.9293 -0.410837 
109 1.80423 0.539856 4.27432 0.5 0 0 0 -4.08422 -0.270119 -1.06249 
110 1.90999 0.686725 4.17965 0.5 0 0 0 -4.68735 -2.33707 0.53528 
139 1.00999 0.534255 4.84212 0.5 0 0 0 4.18402 -0.55748 -2.8062 
112 1.75817 0.698013 4.66544 0.5 0 0 0 -1.94946 -1.78469 -4.66987 
113 1.92757 1.25307 4.43647 0.5 0 0 0 -2.16265 -4.876 -0.59547 
114 0.872978 0.925244 4.48013 0.5 0 0 0 4.97073 -2.01783 -2.19324 
115 1.84022 0.570508 4.46822 0.5 0 0 0 -3.73037 -0.563618 -3.38084 
116 0.780036 0.159621 4.3033 0.5 0 0 0 4.8676 0.454783 -1.14704 
117 0.976196 0.936291 4.21248 0.5 0 0 0 4.88993 -3.28017 -0.842726 
138 0.0273676 1.19268 4.38544 0.5 0 0 0 0.0333283 -1.9256 0.369678 
119 0.76783 1.80938 4.39848 0.5 0 0 0 1.55629 -2.82262 0.538754 
120 1.48918 0.68413 4.13281 0.5 0 0 0 0.291226 -2.81575 1.22413 
121 1.88099 0.771585 3.948 0.5 0 0 0 -3.89039 -3.61042 3.38613 
122 0.203649 -0.136023 4.07609 0.5 0 0 0 1.17962 -1.13962 0.14028 
123 1.22007 0.0987937 4.57305 0.5 0 0 0 3.27602 1.89729 -2.95657 
124 0.694201 0.489421 4.10319 0.5 0 0 0 4.98975 -0.112315 -0.715343 
125 1.57984 0.388098 4.1862 0.5 0 0 0 -1.13409 2.13386 0.184341 
126 1.32388 0.547612 4.31049 0.5 0 0 0 3.62955 -0.260624 -2.2951 
127 1.22246 2.04544 4.70511 0.5 0 0 0 0.529203 -2.49876 0.73864 
128 1.13272 0.893338 4.24918 0.5 0 0 0 4.63188 -3.84408 -1.04829 
129 0.157204 1.59084 4.15841 0.5 0 0 0 1.00226 -2.69923 -0.130521 
130 0.546422 0.828485 4.34959 0.5 0 0 0 3.60351 -1.03139 -1.40439 
137 0.139755 2.14505 3.86316 0.5 0 0 0 -0.174359 -3.34835 -0.349447 
132 2.24816 1.8794 3.83284 0.5 0 0 0 -0.369846 -2.65511 1.08226 
133 1.36567 0.564188 4.27386 0.5 0 0 0 2.91147 -0.547856 -1.67118 
134 1.70918 2.16356 4.92569 0.5 0 0 0 -0.345952 -2.30076 0.355992 
135 2.2642 0.167803 4.66814 0.5 0 0 0 -2.70281 -0.457102 -0.978151 
136 1.59585 1.61784 4.25902 0.5 0 0 0 -0.174922 -5.05056 0.598255 
86 1.99544 1.44379 3.89321 0.5 0 0 0 -1.58185 -4.7635 2.01606 
252 1.97124 2.33462 4.62375 0.5 0 0 0 -0.380453 -2.50469 -0.18774 
372 2.44559 0.703633 4.33783 0.5 0 0 0 -4.58202 -1.31108 -0.490376 
111 1.47987 2.39444 3.94321 0.5 0 0 0 0.573452 -2.60443 1.1261 
90 1.33534 1.25024 3.83516 0.5 0 0 0 0.0441791 -5.92814 2.69825 
104 1.86759 1.04364 3.82194 0.5 0 0 0 -2.65254 -5.30365 3.62868 
118 2.50961 1.67312 4.55116 0.5 0 0 0 -2.00918 -2.3597 -0.414636 
101 1.63832 0.94963 3.80755 0.5 0 0 0 -1.76212 -5.38835 4.48037 
140 2.46899 2.49535 0.521337 0.5 0 0 0 -0.128933 -0.497141 0.0925392 
141 0.969155 3.25075 0.881209 0.5 0 0 0 -0.687541 -0.0542264 0.763206 
142 1.05819 3.61895 0.280845 0.5 0 0 0 0.0762479 0.567497 -0.305132 
143 0.613294 3.01274 0.597907 0.5 0 0 0 -0.779378 -0.0736824 1.18858 
167 1.34249 2.79902 0.683507 0.5 0 0 0 0.862677 -0.285244 0.459349 
168 1.60812 2.59703 0.915714 0.5 0 0 0 0.694679 -0.0649723 0.373869 
146 1.06775 3.21913 0.367263 0.5 0 0 0 0.565047 -0.407085 0.137562 
147 0.573207 4.49282 0.517003 0.5 0 0 0 1.15799 -0.171666 0.303751 
148 1.97431 3.78989 0.433882 0.5 0 0 0 0.683063 -0.368955 -0.379228 
149 0.683854 3.59681 0.090794 0.5 0 0 0 -0.320045 1.05831 -0.71697 
150 1.89594 4.42723 0.806369 0.5 0 0 0 -0.26247 0.0303879 0.357096 
151 0.0450022 3.44437 0.10618 0.5 0 0 0 -1.64554 0.617984 -0.0465185 
152 1.35725 3.63101 1.14384 0.5 0 0 0 0.11306 -0.00934434 0.199468 
153 2.20121 4.40131 0.258875 0.5 0 0 0 -0.252437 -0.133622 -0.977986 
154 2.33911 4.58276 0.684232 0.5 0 0 0 -0.385065 -0.355664 0.255399 
155 1.29543 3.739 0.71187 0.5 0 0 0 -0.056304 0.39606 0.295763 
156 0.448867 4.37763 1.05829 0.5 0 0 0 -0.637514 -0.993357 1.12884 
157 2.28878 2.65211 1.12402 0.5 0 0 0 0.333626 -0.230743 0.723529 
158 1.97601 4.15404 0.975267 0.5 0 0 0 0.404549 -0.540383 0.51019 
159 1.30202 3.80287 0.707773 0.5 0 0 0 -0.132028 0.516325 0.258973 
160 2.25978 2.64393 -0.073276 0.5 0 0 0 -0.478524 -0.501485 -2.67309 
23 0.962128 2.54199 0.248239 0.5 0 0 0 0.775337 -0.195287 -0.0476409 
162 1.69242 3.28376 0.68821 0.5 0 0 0 1.10821 -0.412032 0.18696 
163 0.0413273 4.44313 0.0101812 0.5 0 0 0 0.22776 -0.443109 -0.609402 
164 2.14712 2.84689 0.191519 0.5 0 0 0 -0.0992148 -0.121567 -1.1025 
165 0.0909618 3.27533 0.313752 0.5 0 0 0 -1.79357 0.168427 0.889018 
166 2.19765 3.29178 0.984011 0.5 0 0 0 0.426679 -0.072882 0.437593 
169 0.463453 3.13038 2.39827 0.5 0 0 0 -0.761705 0.716295 0.0716667 
170 1.91534 3.15615 2.11444 0.5 0 0 0 0.850067 -0.609256 0.276087 
171 0.0731444 4.12224 2.28628 0.5 0 0 0 -2.32475 -0.638986 -1.31696 
172 1.10385 2.49108 1.83478 0.5 0 0 0 0.113769 -0.0897678 0.287109 
173 1.82173 3.36308 1.88122 0.5 0 0 0 0.624527 -0.35306 -0.192837 
174 1.26914 2.64237 1.45142 0.5 0 0 0 0.152514 0.0686355 0.0522008 
175 1.51649 4.31088 1.98113 0.5 0 0 0 0.608814 -0.492258 -0.249148 
176 1.55214 2.54248 1.97066 0.5 0 0 0 1.07782 -0.388521 0.455787 
177 -0.000850456 2.8616 2.38797 0.5 0 0 0 -2.34377 0.446093 0.184756 
178 1.44946 3.12326 1.43829 0.5 0 0 0 0.262704 -0.115134 -0.0447628 
179 2.14585 3.0696 2.45798 0.5 0 0 0 1.21856 -1.04112 0.798677 
180 1.15673 3.75587 1.50516 0.5 0 0 0 -0.819992 -0.0253593 -0.175383 
181 1.90675 4.8254 1.69836 0.5 0 0 0 -0.110066 0.569166 -0.338525 
182 1.13562 4.0265 1.86656 0.5 0 0 0 -0.897797 -0.269053 -0.176415 
183 1.54777 4.578 2.2453 0.5 0 0 0 0.407822 -0.184479 0.382026 
184 0.375319 2.61523 1.72661 0.5 0 0 0 -1.25205 0.288733 -0.281924 
185 1.31385 4.74035 2.2815 0.5 0 0 0 -0.397777 0.234686 0.573784 
204 1.32468 2.72488 2.02243 0.5 0 0 0 0.411409 -0.151372 0.337852 
187 1.38994 2.59811 2.25107 0.5 0 0 0 0.729214 -0.475084 0.785644 
188 1.50496 3.99844 2.40064 0.5 0 0 0 0.211214 -0.474676 0.651004 
189 1.72032 3.51607 2.26762 0.5 0 0 0 0.268729 -0.402707 0.325115 
202 0.972535 3.69504 1.79271 0.5 0 0 0 -1.44572 -0.0254286 -0.100615 
191 2.16535 2.9869 2.46312 0.5 0 0 0 1.31936 -1.07888 0.829749 
192 1.889 3.66892 2.05625 0.5 0 0 0 0.648606 -0.477202 -0.120471 
193 0.891355 3.87886 2.43149 0.5 0 0 0 -1.18056 -0.0752849 0.529402 
194 0.584989 3.06103 2.1515 0.5 0 0 0 -0.561698 0.719755 -0.131448 
195 1.99792 2.84629 1.96781 0.5 0 0 0 1.27029 -0.681307 0.435228 
196 1.34713 4.40977 1.55939 0.5 0 0 0 -0.112926 0.0288074 -0.882993 
190 1.78496 4.9338 1.1726 0.5 0 0 0 -1.13942 1.85126 -0.304667 
198 0.864728 4.5435 2.00967 0.5 0 0 0 -2.11482 0.135866 -0.143092 
199 1.34387 3.07489 2.36975 0.5 0 0 0 -0.031785 -0.26524 0.531308 
200 2.34844 5.02928 2.31953 0.5 0 0 0 -0.796951 1.59991 0.324454 
201 0.44763 2.72568 2.13465 0.5 0 0 0 -0.558492 0.0894186 0.113387 
70 0.869077 2.53772 2.15016 0.5 0 0 0 -0.00742917 -0.379519 0.682895 
145 2.0849 2.5666 1.35062 0.5 0 0 0 0.613554 -0.220208 0.593892 
161 0.304225 3.15921 1.21596 0.5 0 0 0 -2.20426 0.586677 0.685975 
205 1.20045 3.53231 3.03398 0.5 0 0 0 0.067849 -0.333971 0.264402 
206 1.96354 4.32897 3.03559 0.5 0 0 0 -0.110286 -0.374455 0.795746 
207 0.125254 4.09144 3.71369 0.5 0 0 0 -0.808915 -0.464146 0.109159 
208 0.84359 2.50925 3.69924 0.5 0 0 0 0.234167 -2.55709 0.728946 
209 1.51896 3.92171 3.16325 0.5 0 0 0 0.196413 -0.117547 0.840654 
210 1.84192 3.57402 3.51447 0.5 0 0 0 0.186015 -0.797544 0.527518 
211 1.88265 3.75203 2.61168 0.5 0 0 0 0.452337 -0.560307 0.722473 
212 1.26728 4.95011 2.96344 0.5 0 0 0 -0.263374 0.344992 0.888479 
213 2.05996 3.14168 2.58516 0.5 0 0 0 0.926678 -0.952245 0.886789 
214 1.2445 3.27321 3.65914 0.5 0 0 0 0.794307 -0.80296 0.932517 
215 0.723584 3.13221 3.31572 0.5 0 0 0 -0.405293 -0.703696 -0.116975 
216 0.445435 3.18581 3.33118 0.5 0 0 0 -1.08582 -0.46224 -0.477966 
217 2.47749 2.71686 2.75586 0.5 0 0 0 1.3975 -1.20612 0.862042 
218 2.38561 5.03042 3.71336 0.5 0 0 0 -0.964813 1.53916 0.410979 
219 1.09024 2.61491 3.18492 0.5 0 0 0 0.202245 -1.69439 0.472072 
220 2.32371 4.8339 2.95769 0.5 0 0 0 -0.618083 0.361642 0.82883 
221 1.05556 3.48504 3.60297 0.5 0 0 0 0.438457 -0.233065 0.805262 
222 2.43947 3.20194 3.06529 0.5 0 0 0 0.899501 -1.47826 0.585516 
223 1.90844 2.58351 3.3342 0.5 0 0 0 1.00397 -1.3916 0.908076 
224 0.518846 4.92289 3.11834 0.5 0 0 0 -0.680174 1.04935 -0.188426 
225 0.511127 3.84252 3.64451 0.5 0 0 0 -0.152902 0.0962248 0.347046 
226 0.947704 4.03002 2.86601 0.5 0 0 0 -0.664898 0.111398 0.686533 
227 1.10353 3.04117 3.11188 0.5 0 0 0 0.291883 -0.946482 0.135888 
228 0.260919 4.35829 2.60106 0.5 0 0 0 -1.1318 -0.263867 -0.406491 
229 0.262294 4.30495 3.51799 0.5 0 0 0 -0.219824 -0.166066 -0.264816 
230 1.60813 2.9128 3.13402 0.5 0 0 0 0.859967 -1.11713 0.637784 
234 1.25336 3.65657 3.14787 0.5 0 0 0 0.170567 -0.177608 0.462595 
232 2.45704 3.29095 3.07976 0.5 0 0 0 0.789198 -1.45304 0.514957 
233 1.25656 4.7676 3.40159 0.5 0 0 0 0.262847 -0.270103 0.631791 
472 2.51545 4.84304 2.81896 0.5 0 0 0 -0.522637 0.376676 0.860473 
251 1.85861 2.53247 3.78307 0.5 0 0 0 0.796341 -1.97069 0.861937 
452 2.41994 3.93784 3.55703 0.5 0 0 0 -0.618574 -0.767758 -0.227216 
254 1.67058 4.93834 3.76207 0.5 0 0 0 -0.108527 -0.00647096 -0.126811 
197 1.56002 4.63702 2.4755 0.5 0 0 0 0.194484 -0.0431585 0.939256 
235 1.25867 4.88886 4.11647 0.5 0 0 0 -0.0651184 -0.42246 -0.500059 
236 2.01964 3.92687 3.99277 0.5 0 0 0 -1.36755 -0.449652 -0.153219 
237 0.594821 2.54957 3.92611 0.5 0 0 0 0.437815 -2.27669 0.911927 
238 0.923657 4.7717 4.37611 0.5 0 0 0 0.150122 -0.396484 -0.108967 
239 0.871877 3.75292 3.98212 0.5 0 0 0 0.547517 0.0329914 1.33286 
240 2.0614 4.57359 4.57908 0.5 0 0 0 -2.31877 1.31125 0.100678 
241 2.18405 4.38619 4.75142 0.5 0 0 0 -2.57616 0.697047 0.681014 
242 0.0972777 3.19401 4.41598 0.5 0 0 0 0.712082 -0.0226415 0.53037 
243 -0.0210892 2.72653 4.80955 0.5 0 0 0 0.478514 -2.54415 1.85163 
244 0.523836 4.91628 4.84729 0.5 0 0 0 -0.892584 0.136725 1.01538 
245 1.52928 3.07001 4.95429 0.5 0 0 0 -1.2863 -1.12744 1.45298 
246 1.24538 3.71929 4.41729 0.5 0 0 0 -0.181743 -0.942064 1.03638 
247 2.42627 3.35712 3.82755 0.5 0 0 0 -0.0792571 -1.80329 -0.263744 
248 1.72736 2.67641 4.86734 0.5 0 0 0 -0.717064 -1.99976 0.514708 
249 1.67259 3.00148 4.12672 0.5 0 0 0 0.268969 -1.74658 0.717887 
250 1.29946 2.62048 3.95289 0.5 0 0 0 0.753744 -2.08438 1.28447 
259 0.587311 2.8217 3.88903 0.5 0 0 0 0.414853 -1.32145 0.940622 
258 0.0372933 2.95955 4.02069 0.5 0 0 0 -0.312638 -0.790855 -0.239214 
253 0.163215 2.67727 3.94064 0.5 0 0 0 -0.222707 -1.89765 0.00968401 
498 2.47241 3.56394 4.29258 0.5 0 0 0 -1.20948 -2.02105 -0.680386 
255 0.213919 3.66474 4.84726 0.5 0 0 0 0.696284 0.260061 1.04161 
256 2.32357 4.09436 4.60624 0.5 0 0 0 -2.25491 -0.685993 -0.152637 
257 1.27313 4.24125 4.86155 0.5 0 0 0 -0.92674 -1.02028 1.44443 
260 4.00548 -0.156976 0.919826 0.5 0 0 0 -0.224111 -2.7757 0.556827 
261 3.19555 2.28939 1.12979 0.5 0 0 0 -0.766308 0.0920808 1.34749 
262 4.78766 2.0216 0.404297 0.5 0 0 0 1.76575 0.433329 -1.08047 
263 4.86348 0.626851 0.989589 0.5 0 0 0 1.13947 -1.77801 0.856636 
264 3.25884 0.915972 0.201992 0.5 0 0 0 -0.773217 0.955047 -0.970838 
265 4.90554 1.41686 1.11291 0.5 0 0 0 1.84993 0.293413 1.42067 
266 4.83436 0.647198 -0.012923 0.5 0 0 0 0.867927 -0.263312 -3.22921 
267 3.45728 1.79731 0.886207 0.5 0 0 0 -1.61348 -0.356161 0.380752 
268 2.89322 0.522866 0.844901 0.5 0 0 0 -0.15367 -0.39754 1.69464 
269 3.96982 1.81192 0.224057 0.5 0 0 0 -1.04674 -0.483305 -2.25336 
270 3.93633 1.90245 1.01935 0.5 0 0 0 -0.967781 0.532197 1.32248 
293 3.0209 2.402 0.572195 0.5 0 0 0 -0.796793 -0.433168 0.208577 
272 4.42309 1.79276 0.74169 0.5 0 0 0 0.0471597 0.718778 0.202835 
273 4.85213 1.36363 0.800134 0.5 0 0 0 1.4554 -0.322706 -0.105077 
274 2.68345 0.714079 0.824465 0.5 0 0 0 0.231253 -0.090361 1.49876 
275 2.53788 2.34775 0.0564533 0.5 0 0 0 -0.496827 -1.07396 -2.05817 
276 5.08106 0.0669224 0.787802 0.5 0 0 0 1.14273 -1.66573 0.654536 
294 3.1399 0.0914998 0.349254 0.5 0 0 0 0.150654 -2.31546 -0.195642 
278 3.60827 1.88445 0.935525 0.5 0 0 0 -1.47466 -0.0204855 0.739834 
279 3.71217 0.457469 0.171551 0.5 0 0 0 0.354185 -1.32191 -1.49395 
295 2.73142 1.13214 0.898662 0.5 0 0 0 -0.159662 0.170715 0.868994 
281 3.0564 0.151208 0.970865 0.5 0 0 0 -0.451429 -1.93763 1.77544 
282 3.8744 1.69556 1.09782 0.5 0 0 0 -1.31086 0.0497901 1.41509 
283 3.80613 2.33927 -0.18127 0.5 0 0 0 -1.1012 -0.928719 -3.7764 
284 4.16863 2.09976 0.500959 0.5 0 0 0 -0.298075 0.731266 -0.333615 
285 3.41146 2.33265 0.439947 0.5 0 0 0 -1.11928 -0.145078 -0.370704 
286 3.72184 0.963264 0.427498 0.5 0 0 0 -1.14012 -0.231049 -0.451815 
287 4.34117 1.03841 0.421524 0.5 0 0 0 -0.486975 -1.23547 -1.49511 
288 4.07944 1.6191 1.03376 0.5 0 0 0 -1.10341 0.123656 1.2464 
289 4.36668 1.05293 0.596495 0.5 0 0 0 -0.637202 -1.32413 -0.787552 
290 3.33103 0.992292 0.623103 0.5 0 0 0 -1.22181 0.311975 0.681971 
291 2.90505 1.00379 0.0831436 0.5 0 0 0 -0.432349 1.52796 -1.78161 
297 3.16281 0.422649 1.81526 0.5 0 0 0 -1.29629 -1.55319 0.777121 
298 3.83873 2.08749 2.17161 0.5 0 0 0 -1.14488 -0.142795 1.04441 
299 3.06609 0.732193 2.23273 0.5 0 0 0 -0.806987 -0.563643 1.53064 
323 3.16958 1.7184 1.55878 0.5 0 0 0 -0.67402 -0.158867 1.15615 
301 3.32709 1.70196 2.15388 0.5 0 0 0 -0.572207 0.0774443 1.27872 
302 3.70478 0.970469 1.80799 0.5 0 0 0 -0.872652 0.195388 1.52383 
303 3.80396 0.847812 1.9442 0.5 0 0 0 -0.641855 0.0391971 1.64936 
292 4.33293 1.2853 1.24699 0.5 0 0 0 -0.63974 -0.24934 1.77526 
305 4.06196 1.45734 1.37116 0.5 0 0 0 -1.02104 0.152817 2.08162 
306 4.61121 1.24738 1.92466 0.5 0 0 0 0.787682 -0.0452646 1.55541 
307 4.02807 0.00291114 2.16168 0.5 0 0 0 -1.98923 -2.04564 -0.125267 
308 4.72506 0.10443 2.27495 0.5 0 0 0 0.0573865 -0.247078 0.0162211 
309 3.95474 0.747128 1.92068 0.5 0 0 0 -0.468748 -0.276007 1.65568 
310 4.61075 2.32872 1.97826 0.5 0 0 0 0.484494 -0.142865 0.410055 
311 3.53786 2.25907 2.09171 0.5 0 0 0 -0.893485 0.158268 1.12889 
321 4.85074 -0.0225668 2.20583 0.5 0 0 0 0.482399 -0.650866 -0.309891 
313 2.56726 1.50595 2.20377 0.5 0 0 0 0.109514 0.00599807 1.31397 
320 2.69246 1.31431 1.8726 0.5 0 0 0 0.0635878 -0.0689119 0.908758 
315 3.26739 0.871674 1.95479 0.5 0 0 0 -0.805 -0.1218 1.16742 
316 4.50044 1.00423 2.30411 0.5 0 0 0 0.307786 0.0216558 0.921454 
317 4.42454 1.96835 2.33396 0.5 0 0 0 -0.426076 -0.757602 0.429065 
318 3.62757 0.647104 1.4244 0.5 0 0 0 -1.29712 -0.894222 0.717625 
319 3.17122 2.16817 1.97115 0.5 0 0 0 -0.361793 0.250649 1.24403 
271 4.89444 1.59838 1.20693 0.5 0 0 0 1.99263 1.05747 1.86767 
19 2.58919 1.86326 1.1735 0.5 0 0 0 0.013077 -0.264312 0.539889 
280 3.82517 0.808425 1.18765 0.5 0 0 0 -1.36641 -0.816561 0.795791 
300 4.20682 2.38482 1.22811 0.5 0 0 0 -0.0437914 0.850178 1.85783 
296 4.29953 0.620876 1.17349 0.5 0 0 0 -0.391221 -1.69169 0.799871 
277 3.47974 2.13584 1.17679 0.5 0 0 0 -1.08782 0.311792 1.565 
324 4.2005 1.07209 3.60419 0.5 0 0 0 -1.49449 0.447596 -0.557459 
325 3.13527 0.346661 3.34054 0.5 0 0 0 -3.12545 -1.26462 1.33762 
326 3.6674 1.472 3.67458 0.5 0 0 0 -1.94334 -0.405538 -0.0547269 
327 4.15864 1.37272 2.56514 0.5 0 0 0 -0.879736 -0.2488 0.532213 
328 3.56054 0.74607 2.82266 0.5 0 0 0 -1.2303 0.197385 0.970874 
329 4.6547 1.85821 2.76121 0.5 0 0 0 0.28746 -1.60694 -0.422634 
330 3.37922 1.61927 3.26273 0.5 0 0 0 -1.49019 -0.393452 0.612965 
331 4.42015 1.68675 3.2659 0.5 0 0 0 -1.11423 -1.269 -0.407887 
332 4.72992 0.335373 2.57276 0.5 0 0 0 0.295638 0.868849 -0.287345 
333 2.66871 0.745665 3.45055 0.5 0 0 0 -3.12685 -1.52282 2.19036 
334 4.39709 0.492242 3.23253 0.5 0 0 0 -0.533087 0.856192 -1.84114 
335 5.05885 2.33764 2.8635 0.5 0 0 0 3.04181 -1.00719 -0.903883 
336 4.0552 0.349995 3.25553 0.5 0 0 0 -1.75579 0.276346 -0.965973 
350 2.94786 1.6205 2.67099 0.5 0 0 0 -0.331905 -0.231857 1.44437 
338 2.75766 1.04702 3.7024 0.5 0 0 0 -3.0528 -1.44822 1.35405 
339 2.70522 0.89515 2.7066 0.5 0 0 0 -1.0301 -1.15823 2.43867 
340 2.93399 1.02899 3.59672 0.5 0 0 0 -2.76065 -1.00175 1.23854 
341 4.47473 1.9948 3.43292 0.5 0 0 0 -1.11104 -1.62642 0.0347235 
342 4.92133 1.88469 3.61398 0.5 0 0 0 1.08789 -1.7582 0.255123 
343 3.24145 1.5906 2.6238 0.5 0 0 0 -0.676345 -0.187407 1.25356 
349 4.1968 -0.0384038 3.21982 0.5 0 0 0 -1.68687 -1.34804 -1.61068 
345 3.47824 0.0426694 3.05535 0.5 0 0 0 -2.73643 -2.21439 0.525266 
346 3.69695 0.812518 3.53319 0.5 0 0 0 -2.44889 0.196094 0.133073 
347 2.80181 1.66492 2.63693 0.5 0 0 0 -0.102872 -0.190688 1.44765 
348 2.63913 1.65882 2.67643 0.5 0 0 0 0.0403186 -0.424342 1.55996 
352 4.94759 1.25163 3.70679 0.5 0 0 0 1.53044 -0.080461 -0.4681 
469 4.12805 2.45323 2.60915 0.5 0 0 0 -1.94943 -0.327555 -0.220544 
304 2.73538 0.148589 2.52862 0.5 0 0 0 -1.73142 -2.67712 1.93472 
384 4.55125 0.3138 3.78159 0.5 0 0 0 -1.086 0.714425 -1.93763 
351 4.81681 0.433173 4.13216 0.5 0 0 0 0.535564 1.28442 -0.25559 
381 3.28515 1.87301 4.23842 0.5 0 0 0 -1.69197 -1.05934 -1.04765 
353 3.42787 1.25797 4.13506 0.5 0 0 0 -2.41259 -0.741733 -0.231687 
354 3.93464 1.93868 4.94641 0.5 0 0 0 -0.46932 -0.731159 1.15887 
355 4.89446 2.33384 4.0075 0.5 0 0 0 0.313454 -1.3629 1.33115 
356 4.4518 -0.173147 4.76968 0.5 0 0 0 -1.85986 -2.81265 1.58591 
383 4.1318 0.484743 4.9929 0.5 0 0 0 -2.19944 0.864403 2.56486 
358 5.09289 1.5728 4.75783 0.5 0 0 0 1.28546 -0.32176 1.659 
359 3.01964 1.92093 4.29427 0.5 0 0 0 -1.64716 -1.29445 -1.07777 
360 4.55824 0.294837 4.19705 0.5 0 0 0 -1.20753 0.680716 -0.312511 
361 5.0107 2.27456 4.16294 0.5 0 0 0 0.815486 -1.71617 1.74503 
362 4.17114 0.254776 4.2464 0.5 0 0 0 -3.31805 0.0157377 -0.205753 
363 3.91131 0.319092 4.53698 0.5 0 0 0 -4.12057 -0.22891 0.557702 
364 2.66474 1.94635 4.90104 0.5 0 0 0 -2.03358 -1.87525 0.775548 
365 3.1697 1.79582 4.59542 0.5 0 0 0 -1.63189 -1.52832 -0.429117 
366 4.61143 0.911561 4.1486 0.5 0 0 0 -0.161798 1.71041 0.501392 
367 3.81679 -0.0602434 3.84489 0.5 0 0 0 -4.38254 -2.21105 0.189163 
368 4.0643 1.84855 4.28442 0.5 0 0 0 -1.15828 -0.718855 -0.0177366 
369 3.49421 1.48242 4.35656 0.5 0 0 0 -1.88368 -0.953647 -0.46882 
370 2.83 0.443285 4.66007 0.5 0 0 0 -3.54675 -1.08068 0.0899664 
371 4.72582 0.250736 4.64224 0.5 0 0 0 0.35403 0.645329 1.6131 
382 3.8842 0.944612 3.84084 0.5 0 0 0 -2.45415 0.362227 -0.0352821 
373 4.63289 0.300489 3.94053 0.5 0 0 0 -0.776861 0.734414 -1.37533 
374 4.53402 0.486197 4.04811 0.5 0 0 0 -1.13014 1.24206 -0.778831 
375 5.03446 0.0101011 4.98312 0.5 0 0 0 3.59476 -1.18723 3.20952 
376 4.10392 1.60789 4.6828 0.5 0 0 0 -0.58251 -0.440838 0.453462 
377 4.01537 2.10371 5.10766 0.5 0 0 0 -0.109849 -0.494932 2.13394 
378 2.9176 1.64264 5.01092 0.5 0 0 0 -1.92865 -2.16828 1.57482 
379 3.53379 0.926496 5.07408 0.5 0 0 0 -2.38336 -0.425523 1.83419 
380 3.06477 2.29048 4.29765 0.5 0 0 0 -1.41923 -1.25236 -1.06825 
385 2.72743 3.16667 0.678624 0.5 0 0 0 -0.259408 0.0375936 0.477877 
386 4.46001 4.72631 0.0499737 0.5 0 0 0 0.670286 0.329394 -0.709615 
387 3.86554 3.94207 0.138873 0.5 0 0 0 0.119292 -0.411057 -0.428006 
388 4.32021 4.0172 1.07919 0.5 0 0 0 -0.817763 -0.172884 -1.10386 
389 3.81849 3.08829 0.794951 0.5 0 0 0 -0.593923 0.08869 0.755451 
390 3.64731 4.11213 0.128382 0.5 0 0 0 0.090086 -0.597342 0.0534264 
391 5.05322 4.32998 1.07581 0.5 0 0 0 2.1433 1.08722 -1.29538 
392 4.88877 2.67893 0.295459 0.5 0 0 0 1.32147 0.365193 -0.297571 
393 4.52615 4.58372 0.677724 0.5 0 0 0 -0.0148348 1.27507 -0.991706 
394 2.76375 2.92559 1.08836 0.5 0 0 0 0.0172045 -0.151015 1.30116 
395 4.91111 2.95984 0.9986 0.5 0 0 0 1.35506 -0.497243 1.14158 
396 4.08242 3.07659 0.0175165 0.5 0 0 0 -0.34393 0.450864 -1.52542 
397 5.07976 4.04744 0.825054 0.5 0 0 0 2.38252 -0.0624262 -1.63072 
398 2.92734 4.94156 0.00822342 0.5 0 0 0 -0.47707 2.03749 -1.5009 
399 3.38818 4.92148 0.588323 0.5 0 0 0 0.578045 1.09103 -0.331003 
400 3.33767 4.51274 0.419336 0.5 0 0 0 0.195518 -0.60389 0.275914 
401 3.37374 2.65717 0.0719953 0.5 0 0 0 -0.978847 -0.396979 -1.65036 
402 2.72655 3.11912 0.688005 0.5 0 0 0 -0.262879 0.0100007 0.537537 
403 4.76397 3.22272 0.182966 0.5 0 0 0 0.431423 0.481352 -1.34418 
404 4.20748 2.63552 0.142013 0.5 0 0 0 -0.164159 0.531466 -0.894093 
405 4.05945 4.87615 -0.0238888 0.5 0 0 0 0.282909 0.873269 -0.164255 
406 4.20553 3.58907 1.03062 0.5 0 0 0 -0.887466 -0.743154 -0.290756 
407 2.81353 4.21131 -0.011327 0.5 0 0 0 -0.346714 -0.769316 -1.2504 
408 4.99349 3.11745 0.424443 0.5 0 0 0 1.24845 -0.0506837 -0.253543 
409 3.77206 3.30856 0.562627 0.5 0 0 0 -0.535961 0.0681231 0.0362087 
410 3.87007 2.62726 0.885769 0.5 0 0 0 -0.532597 0.714168 1.23173 
411 4.18383 2.65307 1.06401 0.5 0 0 0 -0.135409 0.559468 1.46075 
412 3.0916 3.18162 0.446708 0.5 0 0 0 -0.480463 0.0500702 0.0615147 
413 2.9187 3.71694 0.925143 0.5 0 0 0 -0.22571 -0.363157 0.330767 
414 2.70955 4.48431 0.643285 0.5 0 0 0 -0.107226 -0.930297 0.142364 
415 2.6388 4.93666 1.1135 0.5 0 0 0 -1.07921 0.886341 -0.319949 
417 3.0858 3.60769 0.193228 0.5 0 0 0 -0.439157 -0.300424 -0.622335 
418 4.81606 4.17573 1.6567 0.5 0 0 0 0.591419 -0.344363 0.0452488 
419 2.97104 3.77732 2.20127 0.5 0 0 0 0.527196 -1.67751 0.597799 
420 4.87673 3.94974 2.41375 0.5 0 0 0 0.274891 -1.57641 0.677287 
421 4.8751 4.57038 1.80973 0.5 0 0 0 1.01159 1.67479 -0.455612 
422 4.26911 4.54908 1.75393 0.5 0 0 0 0.210609 0.978853 0.159582 
423 3.64883 4.60707 1.39654 0.5 0 0 0 0.361026 0.133708 -1.23186 
424 4.35686 3.80958 1.43822 0.5 0 0 0 -0.729252 -1.1654 0.524536 
425 2.78397 3.15329 1.33964 0.5 0 0 0 0.223692 -0.293647 1.28226 
426 3.24265 4.55351 2.11576 0.5 0 0 0 0.105224 -0.908442 1.6602 
427 3.29534 4.61706 1.65763 0.5 0 0 0 -0.180094 -0.610717 -0.144511 
428 4.92767 4.3107 2.00987 0.5 0 0 0 0.632459 -0.199104 0.0995112 
429 3.19585 4.83427 1.72876 0.5 0 0 0 -0.356619 0.283533 0.170771 
430 2.95764 4.84836 1.32107 0.5 0 0 0 -0.875974 0.354237 -0.984346 
431 3.50765 2.67592 2.37491 0.5 0 0 0 -0.874521 -0.138888 0.589053 
432 3.95776 2.50817 1.47999 0.5 0 0 0 -0.675007 0.427709 1.94304 
433 2.74246 4.35531 2.39777 0.5 0 0 0 -0.216755 -1.01737 0.87361 
434 3.13473 4.5078 1.94043 0.5 0 0 0 -0.33204 -1.07925 0.870728 
435 3.61635 4.6595 1.62657 0.5 0 0 0 0.532128 0.0850784 -0.176551 
436 3.34108 3.27577 2.05506 0.5 0 0 0 -0.141772 -0.940379 0.961188 
437 3.80656 3.98332 1.78453 0.5 0 0 0 -0.714647 -1.51628 0.940806 
438 5.00233 3.52831 1.86043 0.5 0 0 0 1.73066 -1.93285 0.236816 
439 4.48504 4.48045 2.45637 0.5 0 0 0 -0.699927 0.100623 1.44694 
440 2.64624 3.87469 2.23009 0.5 0 0 0 0.374742 -1.16796 0.247916 
441 2.92967 4.74914 2.12021 0.5 0 0 0 -0.681678 -0.00189246 1.10792 
442 3.06368 4.58908 1.38181 0.5 0 0 0 -0.70253 -0.753027 -1.05751 
443 3.87393 4.1195 1.9644 0.5 0 0 0 -0.426225 -1.3656 1.44375 
444 2.67807 4.3564 1.89243 0.5 0 0 0 -0.768882 -0.933545 -0.157708 
445 4.42925 3.75366 1.23855 0.5 0 0 0 -0.571516 -1.03454 -0.013113 
446 4.16137 3.88015 2.29142 0.5 0 0 0 -0.971917 -1.56515 1.40269 
447 3.98414 3.83381 1.7099 0.5 0 0 0 -1.00352 -1.50697 1.02253 
448 4.54614 2.8292 2.22811 0.5 0 0 0 -0.167319 0.273013 -0.265177 
449 3.08114 3.86143 1.29596 0.5 0 0 0 -0.376899 -0.892201 0.0159889 
450 3.48301 3.36566 1.39671 0.5 0 0 0 -0.555962 -0.723573 1.08946 
416 4.4394 3.86706 1.2623 0.5 0 0 0 -0.553562 -0.823889 -0.162326 
203 2.54257 2.99444 1.48494 0.5 0 0 0 0.543111 -0.349903 1.11908 
322 2.8968 2.52125 1.86349 0.5 0 0 0 0.201461 -0.0968795 1.34306 
314 4.95152 2.49957 1.43986 0.5 0 0 0 2.18038 0.017028 0.881109 
479 2.67201 3.66334 3.67497 0.5 0 0 0 -0.203291 -1.64082 -0.627301 
453 4.81672 2.73412 3.25351 0.5 0 0 0 0.831705 0.571509 -0.423175 
454 3.96861 3.31053 2.81272 0.5 0 0 0 -1.04524 -0.0946983 0.106193 
455 2.9786 4.28332 3.66019 0.5 0 0 0 -0.726517 -0.932008 -1.02454 
456 2.78682 4.65171 3.10914 0.5 0 0 0 -0.203215 -0.442465 0.326361 
457 3.04669 4.89391 2.94079 0.5 0 0 0 0.553138 0.687055 0.706077 
458 3.38148 3.15475 2.90913 0.5 0 0 0 -0.536569 -0.877636 0.204811 
459 4.79833 4.06689 2.63941 0.5 0 0 0 -0.128096 -1.06 1.14758 
460 4.33881 2.93316 3.14829 0.5 0 0 0 -1.28474 1.05587 -0.479671 
461 4.46962 4.44766 2.57145 0.5 0 0 0 -0.804017 -0.0312629 1.57336 
462 4.70144 4.99917 2.54254 0.5 0 0 0 0.456858 4.60251 1.3815 
463 4.41339 2.63817 2.73774 0.5 0 0 0 -1.22619 -0.00237009 -0.778418 
464 3.08229 3.82563 3.12878 0.5 0 0 0 0.299035 -1.7347 -0.110348 
465 3.5702 3.9329 3.56068 0.5 0 0 0 0.454643 -1.22728 -1.19885 
466 4.19208 2.57746 3.01758 0.5 0 0 0 -2.12605 -0.251409 -0.640576 
467 3.47467 4.4369 3.46202 0.5 0 0 0 0.871109 -0.333501 -0.872564 
468 4.83204 2.71881 2.53955 0.5 0 0 0 1.39738 0.238201 -0.966829 
344 4.18941 2.52632 3.41191 0.5 0 0 0 -2.05257 -0.494522 0.00247132 
470 4.4847 2.5291 3.64937 0.5 0 0 0 -1.05991 -0.473921 0.538415 
471 3.84037 4.76542 3.03905 0.5 0 0 0 0.428622 1.21802 0.489422 
451 2.79986 3.7981 2.4996 0.5 0 0 0 0.673198 -1.50347 0.668477 
473 2.91846 5.08608 3.74857 0.5 0 0 0 -0.149612 2.6779 0.232548 
474 4.50734 2.85756 3.62549 0.5 0 0 0 -0.710948 1.04263 0.308592 
478 3.98903 2.61315 3.41298 0.5 0 0 0 -2.49942 -0.215977 -0.0580754 
476 4.67836 3.70549 3.01079 0.5 0 0 0 0.0893702 -0.00658701 0.817254 
477 2.80107 4.25513 2.56629 0.5 0 0 0 0.0882591 -1.26943 0.940776 
337 4.00856 2.47713 3.28526 0.5 0 0 0 -2.56723 -0.587879 -0.210896 
475 4.80452 4.05407 3.78608 0.5 0 0 0 0.939255 -0.0504991 -0.155886 
480 3.58953 3.8089 4.79312 0.5 0 0 0 1.28082 -1.32212 0.955293 
481 4.13979 3.02609 4.95777 0.5 0 0 0 -0.267988 -1.47021 2.1424 
482 3.77861 3.59844 4.0078 0.5 0 0 0 0.420738 -0.998587 -1.09706 
483 4.4053 4.8875 4.10612 0.5 0 0 0 0.262995 0.500349 -1.75151 
484 3.17257 4.00243 3.96811 0.5 0 0 0 -0.446895 -1.44902 -1.51129 
485 3.66541 3.93623 4.40886 0.5 0 0 0 1.30973 -0.836052 -0.600797 
486 4.72062 4.70312 4.34976 0.5 0 0 0 -0.0982684 -0.899092 -1.36619 
487 3.2799 3.12529 4.27903 0.5 0 0 0 -0.664692 -1.98191 -0.831779 
488 4.67013 3.1766 4.66622 0.5 0 0 0 0.0223825 0.0686702 0.971322 
489 3.35019 4.8371 5.0897 0.5 0 0 0 -0.173069 3.09077 3.98366 
490 3.58041 3.44623 4.24509 0.5 0 0 0 -0.0362898 -1.73966 -0.884383 
491 3.71317 4.11091 4.82947 0.5 0 0 0 2.05164 -0.117172 1.33702 
492 2.66401 3.19065 4.79124 0.5 0 0 0 -1.28714 -2.59111 0.923025 
493 4.51494 3.66925 4.72374 0.5 0 0 0 1.18595 0.523276 0.678256 
494 3.42613 3.64516 5.12501 0.5 0 0 0 0.777853 -2.0906 3.3119 
495 2.68331 4.06725 4.41672 0.5 0 0 0 -1.05389 -0.908454 -1.1587 
496 2.62238 3.80937 4.95755 0.5 0 0 0 -1.37848 -1.77678 1.45776 
497 3.38169 4.37698 3.94441 0.5 0 0 0 0.446714 -0.250723 -1.31619 
357 3.44985 2.4954 4.63855 0.5 0 0 0 -0.880715 -1.29878 0.135066 
499 3.95608 2.50646 4.05607 0.5 0 0 0 -1.5339 -0.749102 0.251148 
500 4.65468 4.93223 4.97398 0.5 0 0 0 -0.725108 -0.11952 1.69282 
501 4.62616 4.81561 4.90393 0.5 0 0 0 -0.283525 -0.293758 1.29275 
502 2.68187 3.97567 4.77886 0.5 0 0 0 -0.999047 -1.16854 0.287559 
503 2.93975 4.25916 4.55902 0.5 0 0 0 -0.375753 -0.128687 -0.68596 
504 3.55114 3.30537 4.29101 0.5 0 0 0 -0.234598 -1.8749 -0.69866 
505 3.69576 4.82259 4.28552 0.5 0 0 0 1.42036 1.77467 -0.194306 
506 4.09435 4.02173 3.97424 0.5 0 0 0 1.82462 0.0293955 -0.947367 
507 4.9127 2.81897 3.94309 0.5 0 0 0 0.483246 0.990097 0.557405 
508 2.87514 3.92812 4.68636 0.5 0 0 0 -0.391868 -1.40778 -0.269413 
509 3.30514 4.7555 4.40391 0.5 0 0 0 0.178903 1.78597 -0.100229 
510 3.0845 4.49512 4.06088 0.5 0 0 0 -0.59607 0.201676 -1.2222 
511 2.64438 3.03167 4.50455 0.5 0 0 0 -1.03005 -2.20835 -0.126198 
512 2.666 2.82481 4.36838 0.5 0 0 0 -0.847088 -1.88603 -0.442513 
513 4.86973 3.02687 4.2985 0.5 0 0 0 0.304394 1.03374 0.59122 
ITEM: TIMESTEP
60053
ITEM: NUMBER OF ATOMS
512
ITEM: BOX BOUNDS ss ss ss
-2.1589663964569298e-02 5.0933846546203574e+00
-1.7364439631764822e-01 5.0865807164741392e+00
-1.8176655292622759e-01 5.1255068607205727e+00
ITEM: ATOMS id x y z width_SPH x_COM y_COM z_COM vx vy vz 
2 0.301067 0.775936 0.24686 0.5 0 0 0 -1.37937 -0.579534 0.0687756 
3 0.259445 1.29101 0.60572 0.5 0 0 0 -2.08442 -0.964689 0.287731 
4 0.787481 1.24764 1.03676 0.5 0 0 0 -0.386239 -0.340107 0.749215 
5 1.73538 1.8934 0.823937 0.5 0 0 0 0.958585 0.352114 0.221123 
6 0.274205 2.07866 0.848527 0.5 0 0 0 -2.11848 0.860435 1.16653 
7 0.546659 1.58454 0.342549 0.5 0 0 0 -0.688697 -0.372097 -0.682123 
8 1.33606 0.225901 0.773359 0.5 0 0 0 0.050032 -0.68543 1.18413 
9 1.53468 0.98643 0.331382 0.5 0 0 0 0.774099 0.260734 -0.747349 
10 1.11158 1.53603 -0.0685435 0.5 0 0 0 0.983796 -0.388505 -2.84957 
11 1.39605 1.22774 0.796168 0.5 0 0 0 0.782352 0.130046 0.282633 
38 1.08306 2.32881 0.776646 0.5 0 0 0 0.51689 0.421801 0.862958 
41 2.23083 2.37931 1.02289 0.5 0 0 0 0.35138 -0.20226 0.556575 
14 1.26049 2.06321 0.329273 0.5 0 0 0 1.32269 0.11782 -0.380271 
15 1.54694 0.0394816 0.976115 0.5 0 0 0 1.23301 -1.5069 2.12375 
37 0.636911 0.390267 0.353982 0.5 0 0 0 -1.47738 -0.58655 0.37969 
17 1.08139 0.119437 0.519714 0.5 0 0 0 -1.29668 -0.687412 0.538485 
18 1.50826 -0.0164844 0.0459019 0.5 0 0 0 0.0210476 -0.949813 -1.15235 
40 1.99513 0.669575 0.60446 0.5 0 0 0 1.39267 -0.19793 0.904858 
20 0.369826 1.75927 1.04788 0.5 0 0 0 -1.73138 0.350028 1.28568 
21 1.87799 1.79469 0.745542 0.5 0 0 0 1.08075 0.226367 -0.00312314 
22 0.552789 2.4223 0.409935 0.5 0 0 0 -0.558255 0.212978 0.657483 
39 0.791151 1.5785 0.810198 0.5 0 0 0 0.140692 0.227591 0.408959 
24 0.00341952 0.598289 0.0816954 0.5 0 0 0 -2.72809 -0.779928 -0.133771 
25 1.95435 0.260603 0.581876 0.5 0 0 0 1.68411 -0.755021 1.36426 
26 1.35581 0.890949 0.584786 0.5 0 0 0 0.399628 0.0193639 -0.00984175 
27 0.864667 1.8141 0.900151 0.5 0 0 0 0.377419 0.670914 0.691832 
28 2.15663 0.959745 0.35946 0.5 0 0 0 0.883591 0.501618 -0.229976 
29 2.42448 1.35995 0.269413 0.5 0 0 0 0.107996 1.0178 -1.19047 
30 1.3992 0.242435 0.884056 0.5 0 0 0 0.488748 -0.821791 1.45705 
31 1.65837 1.51848 0.685685 0.5 0 0 0 1.20243 0.36216 0.0101887 
32 1.30153 2.09592 0.250959 0.5 0 0 0 1.4764 0.00634987 -0.708905 
33 1.46276 1.14326 0.721758 0.5 0 0 0 0.856859 0.0701552 0.19977 
34 0.622257 2.08925 -0.0271163 0.5 0 0 0 -0.447993 -0.575392 -2.02295 
35 1.77116 0.0448114 -0.12881 0.5 0 0 0 1.17618 -0.864718 -2.25468 
36 0.968306 0.88323 0.0786223 0.5 0 0 0 0.0955862 0.0328305 -1.47966 
144 0.0212138 2.45507 0.114576 0.5 0 0 0 -3.16825 -0.780036 -1.09896 
43 1.54523 0.0677342 1.95231 0.5 0 0 0 1.54681 -2.05899 2.27938 
44 1.36472 2.35713 1.90941 0.5 0 0 0 0.773338 -0.347963 0.538678 
45 1.3338 1.11988 1.48552 0.5 0 0 0 0.476514 -0.198909 1.55749 
46 1.38771 2.23672 2.32625 0.5 0 0 0 0.773098 -0.849676 1.17322 
47 1.3959 1.26088 1.91895 0.5 0 0 0 -0.099851 -0.503567 2.36788 
48 1.18006 0.812494 1.47865 0.5 0 0 0 0.169834 -0.426958 1.76228 
49 2.47935 2.34211 1.69817 0.5 0 0 0 0.558055 -0.173274 1.19153 
50 0.891254 0.608882 1.67018 0.5 0 0 0 -1.07946 -0.542208 2.51081 
51 1.96892 0.939591 1.80623 0.5 0 0 0 0.474699 -1.09681 1.64682 
52 0.67161 1.64139 1.3334 0.5 0 0 0 -0.66922 0.0976947 1.61568 
53 2.1247 1.44177 1.71791 0.5 0 0 0 0.456233 0.123623 0.952309 
54 0.39019 0.0429225 2.20343 0.5 0 0 0 -1.55319 -1.2514 0.557892 
55 1.73184 1.84185 1.70752 0.5 0 0 0 0.650554 0.164927 0.906602 
16 2.25736 2.0163 1.1787 0.5 0 0 0 0.457657 -0.071917 0.552913 
57 2.38803 1.07707 1.62868 0.5 0 0 0 0.472652 -0.693347 0.755414 
58 1.78528 0.1492 2.23909 0.5 0 0 0 1.03275 -2.02282 2.71644 
59 1.24235 0.582601 2.37878 0.5 0 0 0 0.260504 -0.272375 3.9215 
60 0.669154 1.69642 1.57451 0.5 0 0 0 -0.979999 -0.221863 2.09613 
61 1.33412 0.300403 1.71431 0.5 0 0 0 0.887229 -1.21207 2.26361 
78 1.05745 1.89882 1.61753 0.5 0 0 0 0.147242 0.000555541 1.16136 
63 2.01583 1.57785 2.03482 0.5 0 0 0 0.3008 -0.0541592 1.40504 
64 0.517038 0.357615 2.37907 0.5 0 0 0 -0.565362 0.530351 2.62098 
65 1.06184 1.77545 2.19873 0.5 0 0 0 -0.468638 -1.40532 2.12139 
66 2.34198 0.861948 2.01783 0.5 0 0 0 0.0265202 -1.3515 1.67452 
67 1.10298 0.688533 2.02627 0.5 0 0 0 -0.327999 -0.221902 3.45713 
68 2.05806 1.47707 1.72367 0.5 0 0 0 0.443909 0.165858 1.00093 
69 1.40306 0.742947 2.26941 0.5 0 0 0 -0.0128018 -0.602008 3.56714 
77 0.387403 1.54418 1.42854 0.5 0 0 0 -2.22897 -0.477379 2.42535 
71 0.737613 0.532108 1.43847 0.5 0 0 0 -1.94548 -0.911232 1.66726 
72 1.00639 2.24108 2.44178 0.5 0 0 0 0.00219941 -1.25809 1.46175 
73 2.05738 1.03319 1.69108 0.5 0 0 0 0.568093 -0.882768 1.23014 
74 2.23184 1.01522 2.36172 0.5 0 0 0 -0.384268 -1.45772 2.51914 
75 0.0297791 2.31121 2.22173 0.5 0 0 0 -2.35312 -1.61493 0.705464 
76 0.971336 1.10815 1.45355 0.5 0 0 0 -0.382617 -0.28128 1.81096 
12 1.34528 1.51116 1.24545 0.5 0 0 0 0.683784 0.377348 0.874136 
13 1.86621 1.32627 1.25809 0.5 0 0 0 0.997077 -0.0560257 0.662303 
312 2.49224 -0.0785342 1.66921 0.5 0 0 0 -0.146821 -2.94611 1.29969 
42 1.22906 0.726343 1.23555 0.5 0 0 0 0.353157 -0.502418 1.15912 
79 1.43519 2.24238 3.26306 0.5 0 0 0 0.0223945 -2.28942 1.21443 
80 0.722431 0.183721 2.71176 0.5 0 0 0 1.47955 0.523557 2.97282 
81 1.07277 0.414988 2.90579 0.5 0 0 0 1.6268 0.318633 4.42188 
82 1.30862 1.94324 2.75295 0.5 0 0 0 -0.307581 -2.04023 1.91008 
83 1.70365 2.04279 2.87993 0.5 0 0 0 0.281045 -1.52935 1.51932 
84 1.24767 0.840107 3.71738 0.5 0 0 0 1.33466 -3.77986 4.56305 
85 2.02471 1.8402 2.82633 0.5 0 0 0 0.380658 -1.35918 1.64401 
106 1.36419 1.31963 2.61106 0.5 0 0 0 -0.890084 -2.18685 3.2594 
87 0.898793 2.29176 3.34264 0.5 0 0 0 -0.293889 -2.93024 0.785315 
88 1.94612 1.38121 2.97941 0.5 0 0 0 -0.745037 -2.92616 2.85494 
89 1.47552 0.236473 3.78192 0.5 0 0 0 0.219635 1.79091 4.58151 
100 0.580248 2.16471 2.54006 0.5 0 0 0 -0.486554 -1.98836 1.75443 
91 1.72849 1.44584 2.74126 0.5 0 0 0 -0.619535 -2.43816 2.67737 
92 0.127774 2.09691 2.83729 0.5 0 0 0 -1.29465 -2.82384 1.55063 
93 0.715277 0.310068 2.79199 0.5 0 0 0 1.35815 0.930467 3.27147 
94 1.45135 1.94302 2.6258 0.5 0 0 0 0.0977492 -1.59544 1.72405 
95 2.18937 2.14759 3.16345 0.5 0 0 0 0.86832 -1.23579 1.36449 
96 0.949793 1.87739 2.59392 0.5 0 0 0 -0.661404 -2.2623 2.27314 
97 1.79656 0.470852 3.60665 0.5 0 0 0 -2.34285 -1.28844 5.27536 
98 0.27304 1.57185 2.88923 0.5 0 0 0 -0.472713 -2.69584 1.99025 
99 2.15148 1.76574 3.33724 0.5 0 0 0 -0.0623494 -2.43034 1.94143 
105 0.748295 0.114088 3.13349 0.5 0 0 0 2.42405 0.805939 3.07575 
186 0.405526 2.44495 2.60322 0.5 0 0 0 -0.46639 -1.47826 1.20447 
102 1.8431 1.71237 3.01665 0.5 0 0 0 -0.358363 -2.45651 2.17478 
103 0.428586 1.0381 3.21398 0.5 0 0 0 1.28695 -1.21721 2.32733 
231 1.26226 2.35116 3.50858 0.5 0 0 0 0.166546 -2.64019 0.961364 
62 2.18333 1.76448 2.56415 0.5 0 0 0 0.450582 -0.647141 1.47221 
131 1.85477 1.65841 3.7735 0.5 0 0 0 -0.9939 -4.30607 2.03127 
56 2.44014 0.522585 2.4815 0.5 0 0 0 -0.939983 -1.83368 2.60206 
107 1.79925 0.179182 4.53986 0.5 0 0 0 -2.45837 2.41513 -3.09063 
108 1.07473 1.50092 4.4532 0.5 0 0 0 2.23006 -3.9293 -0.410836 
109 1.80422 0.539856 4.27432 0.5 0 0 0 -4.08416 -0.270124 -1.06247 
110 1.90999 0.686724 4.17965 0.5 0 0 0 -4.68729 -2.33706 0.535281 
139 1.00999 0.534254 4.84212 0.5 0 0 0 4.18398 -0.557488 -2.8062 
112 1.75817 0.698012 4.66544 0.5 0 0 0 -1.94943 -1.78469 -4.66985 
113 1.92757 1.25306 4.43647 0.5 0 0 0 -2.16263 -4.87599 -0.59547 
114 0.87298 0.925243 4.48013 0.5 0 0 0 4.97069 -2.01783 -2.19324 
115 1.84022 0.570508 4.46822 0.5 0 0 0 -3.73032 -0.563624 -3.38081 
116 0.780039 0.159622 4.3033 0.5 0 0 0 4.86755 0.454776 -1.14703 
117 0.976199 0.936289 4.21248 0.5 0 0 0 4.88989 -3.28016 -0.842718 
138 0.0273677 1.19268 4.38544 0.5 0 0 0 0.0333281 -1.92561 0.36969 
119 0.767831 1.80938 4.39848 0.5 0 0 0 1.55628 -2.82261 0.538754 
120 1.48918 0.684129 4.13282 0.5 0 0 0 0.291227 -2.81572 1.22412 
121 1.88099 0.771583 3.948 0.5 0 0 0 -3.89035 -3.61039 3.3861 
122 0.203649 -0.136024 4.07609 0.5 0 0 0 1.17962 -1.13961 0.140298 
123 1.22007 0.0987947 4.57305 0.5 0 0 0 3.27598 1.89729 -2.95656 
124 0.694204 0.489421 4.10319 0.5 0 0 0 4.98971 -0.112321 -0.715333 
125 1.57984 0.388099 4.1862 0.5 0 0 0 -1.13406 2.13383 0.184348 
126 1.32389 0.547612 4.31049 0.5 0 0 0 3.62949 -0.260631 -2.29506 
127 1.22246 2.04544 4.70511 0.5 0 0 0 0.529195 -2.49876 0.73864 
128 1.13272 0.893336 4.24918 0.5 0 0 0 4.63183 -3.84406 -1.04828 
129 0.157205 1.59084 4.15841 0.5 0 0 0 1.00227 -2.69923 -0.130517 
130 0.546424 0.828485 4.34959 0.5 0 0 0 3.60347 -1.0314 -1.40439 
137 0.139755 2.14505 3.86316 0.5 0 0 0 -0.174352 -3.34834 -0.349444 
132 2.24816 1.8794 3.83284 0.5 0 0 0 -0.369848 -2.65511 1.08226 
133 1.36567 0.564188 4.27386 0.5 0 0 0 2.91143 -0.547859 -1.67115 
134 1.70918 2.16356 4.92569 0.5 0 0 0 -0.34595 -2.30076 0.355993 
135 2.26419 0.167803 4.66814 0.5 0 0 0 -2.70278 -0.457109 -0.978137 
136 1.59585 1.61784 4.25902 0.5 0 0 0 -0.174919 -5.05055 0.598252 
86 1.99544 1.44379 3.89321 0.5 0 0 0 -1.58184 -4.76349 2.01605 
252 1.97124 2.33461 4.62375 0.5 0 0 0 -0.38045 -2.50468 -0.18774 
372 2.44558 0.703632 4.33783 0.5 0 0 0 -4.58199 -1.31108 -0.490369 
111 1.47987 2.39444 3.94321 0.5 0 0 0 0.57345 -2.60442 1.12609 
90 1.33534 1.25024 3.83516 0.5 0 0 0 0.0441831 -5.92812 2.69824 
104 1.86759 1.04364 3.82194 0.5 0 0 0 -2.65253 -5.30363 3.62866 
118 2.50961 1.67312 4.55116 0.5 0 0 0 -2.00917 -2.35969 -0.414635 
101 1.63832 0.949628 3.80755 0.5 0 0 0 -1.76211 -5.38832 4.48034 
140 2.46899 2.49535 0.521337 0.5 0 0 0 -0.128931 -0.497139 0.0925394 
141 0.969154 3.25075 0.881209 0.5 0 0 0 -0.687543 -0.0542272 0.763206 
142 1.05819 3.61895 0.280845 0.5 0 0 0 0.0762475 0.567493 -0.305134 
143 0.613294 3.01274 0.597908 0.5 0 0 0 -0.77938 -0.073683 1.18858 
167 1.34249 2.79902 0.683507 0.5 0 0 0 0.862671 -0.285243 0.459347 
168 1.60812 2.59703 0.915714 0.5 0 0 0 0.694674 -0.0649725 0.373869 
146 1.06775 3.21913 0.367263 0.5 0 0 0 0.565044 -0.407086 0.137559 
147 0.573208 4.49282 0.517003 0.5 0 0 0 1.15798 -0.171658 0.303748 
148 1.97431 3.78988 0.433881 0.5 0 0 0 0.683062 -0.368955 -0.37923 
149 0.683854 3.59681 0.0907936 0.5 0 0 0 -0.320042 1.05831 -0.716972 
150 1.89594 4.42723 0.80637 0.5 0 0 0 -0.262468 0.0303868 0.357097 
151 0.0450014 3.44437 0.10618 0.5 0 0 0 -1.64552 0.617976 -0.0465146 
152 1.35725 3.63101 1.14384 0.5 0 0 0 0.113061 -0.00934513 0.199471 
153 2.20121 4.40131 0.258875 0.5 0 0 0 -0.252435 -0.133622 -0.977989 
154 2.33911 4.58276 0.684232 0.5 0 0 0 -0.385062 -0.355664 0.255399 
155 1.29543 3.739 0.71187 0.5 0 0 0 -0.0563037 0.396057 0.295763 
156 0.448867 4.37763 1.05829 0.5 0 0 0 -0.637519 -0.993349 1.12884 
157 2.28878 2.65211 1.12402 0.5 0 0 0 0.333623 -0.230742 0.723527 
158 1.97601 4.15404 0.975268 0.5 0 0 0 0.404549 -0.540382 0.510191 
159 1.30202 3.80287 0.707773 0.5 0 0 0 -0.132027 0.516322 0.258974 
160 2.25978 2.64393 -0.0732774 0.5 0 0 0 -0.478522 -0.501481 -2.67309 
23 0.962128 2.54199 0.248239 0.5 0 0 0 0.775332 -0.195287 -0.0476415 
162 1.69242 3.28376 0.688211 0.5 0 0 0 1.1082 -0.41203 0.186959 
163 0.0413274 4.44313 0.0101809 0.5 0 0 0 0.227759 -0.4431 -0.609401 
164 2.14712 2.84689 0.191518 0.5 0 0 0 -0.099214 -0.121565 -1.10249 
165 0.0909609 3.27533 0.313752 0.5 0 0 0 -1.79356 0.168421 0.889021 
166 2.19765 3.29178 0.984011 0.5 0 0 0 0.426676 -0.0728808 0.437592 
169 0.463453 3.13038 2.39827 0.5 0 0 0 -0.761701 0.716288 0.071669 
170 1.91534 3.15615 2.11444 0.5 0 0 0 0.850062 -0.609255 0.276088 
171 0.0731433 4.12224 2.28628 0.5 0 0 0 -2.32475 -0.638986 -1.31695 
172 1.10385 2.49108 1.83479 0.5 0 0 0 0.113766 -0.08977 0.287112 
173 1.82173 3.36308 1.88122 0.5 0 0 0 0.624523 -0.353058 -0.192834 
174 1.26914 2.64237 1.45142 0.5 0 0 0 0.15251 0.0686334 0.0522035 
175 1.51649 4.31087 1.98113 0.5 0 0 0 0.608814 -0.492257 -0.249146 
176 1.55214 2.54248 1.97066 0.5 0 0 0 1.07781 -0.388523 0.45579 
177 -0.000851628 2.8616 2.38797 0.5 0 0 0 -2.34377 0.446089 0.184757 
178 1.44946 3.12326 1.43829 0.5 0 0 0 0.262701 -0.115134 -0.0447596 
179 2.14585 3.0696 2.45798 0.5 0 0 0 1.21856 -1.04112 0.798677 
180 1.15673 3.75587 1.50516 0.5 0 0 0 -0.819989 -0.0253604 -0.175379 
181 1.90675 4.8254 1.69836 0.5 0 0 0 -0.110066 0.569165 -0.338522 
182 1.13562 4.0265 1.86656 0.5 0 0 0 -0.897793 -0.269054 -0.176413 
183 1.54777 4.578 2.2453 0.5 0 0 0 0.407822 -0.184479 0.382023 
184 0.375318 2.61523 1.7266 0.5 0 0 0 -1.25205 0.28873 -0.281921 
185 1.31385 4.74035 2.2815 0.5 0 0 0 -0.397776 0.234685 0.573781 
204 1.32468 2.72488 2.02243 0.5 0 0 0 0.411405 -0.151374 0.337855 
187 1.38995 2.59811 2.25107 0.5 0 0 0 0.729211 -0.475086 0.785646 
188 1.50496 3.99844 2.40064 0.5 0 0 0 0.211213 -0.474675 0.651001 
189 1.72032 3.51607 2.26762 0.5 0 0 0 0.268727 -0.402706 0.325115 
202 0.972534 3.69504 1.79271 0.5 0 0 0 -1.44572 -0.0254303 -0.100612 
191 2.16536 2.9869 2.46312 0.5 0 0 0 1.31935 -1.07888 0.829749 
192 1.889 3.66892 2.05625 0.5 0 0 0 0.648602 -0.477199 -0.12047 
193 0.891354 3.87886 2.43149 0.5 0 0 0 -1.18055 -0.0752866 0.529401 
194 0.584988 3.06103 2.1515 0.5 0 0 0 -0.561695 0.719748 -0.131445 
195 1.99792 2.84629 1.96781 0.5 0 0 0 1.27028 -0.681306 0.435231 
196 1.34713 4.40977 1.55939 0.5 0 0 0 -0.112923 0.0288073 -0.882987 
190 1.78496 4.9338 1.1726 0.5 0 0 0 -1.13942 1.85126 -0.304666 
198 0.864727 4.5435 2.00967 0.5 0 0 0 -2.11481 0.135867 -0.143092 
199 1.34387 3.07489 2.36975 0.5 0 0 0 -0.0317861 -0.265242 0.531309 
200 2.34844 5.02928 2.31953 0.5 0 0 0 -0.796947 1.59991 0.32445 
201 0.44763 2.72568 2.13465 0.5 0 0 0 -0.558487 0.0894149 0.11339 
70 0.869077 2.53772 2.15016 0.5 0 0 0 -0.00743046 -0.37952 0.682895 
145 2.0849 2.5666 1.35062 0.5 0 0 0 0.613551 -0.220208 0.593892 
161 0.304224 3.15921 1.21596 0.5 0 0 0 -2.20425 0.586673 0.685973 
205 1.20045 3.53231 3.03398 0.5 0 0 0 0.067849 -0.333974 0.264401 
206 1.96354 4.32896 3.03559 0.5 0 0 0 -0.110285 -0.374456 0.795742 
207 0.125254 4.09144 3.71369 0.5 0 0 0 -0.808912 -0.464147 0.109159 
208 0.84359 2.50925 3.69924 0.5 0 0 0 0.234167 -2.55708 0.728943 
209 1.51896 3.92171 3.16325 0.5 0 0 0 0.196413 -0.117549 0.840651 
210 1.84192 3.57402 3.51447 0.5 0 0 0 0.186015 -0.797546 0.527517 
211 1.88265 3.75203 2.61168 0.5 0 0 0 0.452334 -0.560306 0.722471 
212 1.26728 4.95011 2.96344 0.5 0 0 0 -0.263374 0.344988 0.888473 
213 2.05996 3.14168 2.58516 0.5 0 0 0 0.926673 -0.952244 0.886789 
214 1.2445 3.27321 3.65914 0.5 0 0 0 0.794305 -0.802963 0.932515 
215 0.723584 3.13221 3.31572 0.5 0 0 0 -0.405291 -0.703698 -0.116974 
216 0.445435 3.18581 3.33118 0.5 0 0 0 -1.08582 -0.462242 -0.477965 
217 2.4775 2.71686 2.75586 0.5 0 0 0 1.39749 -1.20612 0.862043 
218 2.3856 5.03042 3.71336 0.5 0 0 0 -0.964802 1.53915 0.410977 
219 1.09024 2.61491 3.18492 0.5 0 0 0 0.202245 -1.69438 0.472071 
220 2.32371 4.8339 2.95769 0.5 0 0 0 -0.618079 0.361637 0.828827 
221 1.05556 3.48504 3.60297 0.5 0 0 0 0.438455 -0.233069 0.805261 
222 2.43947 3.20194 3.06529 0.5 0 0 0 0.899494 -1.47826 0.585515 
223 1.90844 2.58351 3.3342 0.5 0 0 0 1.00396 -1.3916 0.908075 
224 0.518846 4.92289 3.11834 0.5 0 0 0 -0.680176 1.04935 -0.188427 
225 0.511127 3.84252 3.64451 0.5 0 0 0 -0.1529 0.0962207 0.347046 
226 0.947703 4.03002 2.86601 0.5 0 0 0 -0.664896 0.111395 0.686529 
227 1.10353 3.04117 3.11188 0.5 0 0 0 0.291883 -0.946482 0.135889 
228 0.260919 4.35829 2.60106 0.5 0 0 0 -1.1318 -0.263866 -0.406487 
229 0.262293 4.30495 3.51799 0.5 0 0 0 -0.219823 -0.166066 -0.264816 
230 1.60813 2.9128 3.13402 0.5 0 0 0 0.859964 -1.11713 0.637784 
234 1.25336 3.65657 3.14787 0.5 0 0 0 0.170567 -0.177611 0.462594 
232 2.45704 3.29095 3.07976 0.5 0 0 0 0.789192 -1.45304 0.514956 
233 1.25656 4.7676 3.40159 0.5 0 0 0 0.262845 -0.270106 0.631786 
472 2.51545 4.84304 2.81896 0.5 0 0 0 -0.522635 0.376672 0.86047 
251 1.85861 2.53247 3.78307 0.5 0 0 0 0.796338 -1.97069 0.861933 
452 2.41994 3.93784 3.55703 0.5 0 0 0 -0.618573 -0.767756 -0.227215 
254 1.67058 4.93834 3.76207 0.5 0 0 0 -0.108524 -0.00647509 -0.126812 
197 1.56002 4.63702 2.4755 0.5 0 0 0 0.194485 -0.0431601 0.939251 
235 1.25867 4.88886 4.11647 0.5 0 0 0 -0.0651196 -0.42246 -0.500056 
236 2.01964 3.92687 3.99277 0.5 0 0 0 -1.36755 -0.449653 -0.15322 
237 0.594821 2.54957 3.92611 0.5 0 0 0 0.437815 -2.27669 0.911925 
238 0.923658 4.7717 4.37611 0.5 0 0 0 0.150117 -0.396484 -0.108966 
239 0.871877 3.75292 3.98212 0.5 0 0 0 0.547514 0.0329863 1.33286 
240 2.0614 4.57359 4.57908 0.5 0 0 0 -2.31874 1.31125 0.100675 
241 2.18405 4.38619 4.75142 0.5 0 0 0 -2.57614 0.697042 0.681011 
242 0.0972781 3.19401 4.41598 0.5 0 0 0 0.712084 -0.0226428 0.530369 
243 -0.0210889 2.72653 4.80955 0.5 0 0 0 0.478514 -2.54415 1.85163 
244 0.523835 4.91628 4.84729 0.5 0 0 0 -0.892581 0.136726 1.01538 
245 1.52928 3.07001 4.95429 0.5 0 0 0 -1.28629 -1.12744 1.45297 
246 1.24538 3.71929 4.41729 0.5 0 0 0 -0.181744 -0.942066 1.03638 
247 2.42627 3.35712 3.82755 0.5 0 0 0 -0.079257 -1.80329 -0.263743 
248 1.72736 2.6764 4.86734 0.5 0 0 0 -0.717061 -1.99976 0.514706 
249 1.67259 3.00148 4.12672 0.5 0 0 0 0.268967 -1.74658 0.717884 
250 1.29946 2.62048 3.95289 0.5 0 0 0 0.753741 -2.08438 1.28446 
259 0.587311 2.8217 3.88903 0.5 0 0 0 0.414854 -1.32144 0.940621 
258 0.0372931 2.95955 4.02069 0.5 0 0 0 -0.312636 -0.790854 -0.239213 
253 0.163215 2.67727 3.94064 0.5 0 0 0 -0.222704 -1.89764 0.00968495 
498 2.47241 3.56394 4.29258 0.5 0 0 0 -1.20948 -2.02104 -0.680383 
255 0.213919 3.66474 4.84726 0.5 0 0 0 0.696281 0.260054 1.04161 
256 2.32357 4.09436 4.60624 0.5 0 0 0 -2.25489 -0.685993 -0.152638 
257 1.27313 4.24125 4.86155 0.5 0 0 0 -0.926738 -1.02028 1.44443 
260 4.00548 -0.156977 0.919826 0.5 0 0 0 -0.224114 -2.77568 0.556827 
261 3.19555 2.28939 1.12979 0.5 0 0 0 -0.766304 0.0920805 1.34749 
262 4.78766 2.0216 0.404297 0.5 0 0 0 1.76574 0.433321 -1.08047 
263 4.86348 0.62685 0.989589 0.5 0 0 0 1.13946 -1.778 0.856631 
264 3.25884 0.915973 0.201992 0.5 0 0 0 -0.773213 0.955042 -0.970833 
265 4.90554 1.41686 1.11291 0.5 0 0 0 1.84992 0.293411 1.42066 
266 4.83436 0.647198 -0.0129246 0.5 0 0 0 0.867916 -0.263301 -3.22918 
267 3.45728 1.79731 0.886207 0.5 0 0 0 -1.61347 -0.356161 0.380747 
268 2.89322 0.522866 0.844902 0.5 0 0 0 -0.15367 -0.397539 1.69464 
269 3.96982 1.81192 0.224056 0.5 0 0 0 -1.04674 -0.483305 -2.25335 
270 3.93633 1.90245 1.01935 0.5 0 0 0 -0.967773 0.532195 1.32247 
293 3.0209 2.402 0.572195 0.5 0 0 0 -0.796788 -0.433166 0.208575 
272 4.42309 1.79276 0.74169 0.5 0 0 0 0.0471605 0.718774 0.202834 
273 4.85213 1.36363 0.800134 0.5 0 0 0 1.4554 -0.322709 -0.10508 
274 2.68345 0.714079 0.824466 0.5 0 0 0 0.231251 -0.0903629 1.49876 
275 2.53788 2.34775 0.0564523 0.5 0 0 0 -0.496823 -1.07395 -2.05816 
276 5.08107 0.0669216 0.787803 0.5 0 0 0 1.14272 -1.66572 0.654532 
294 3.1399 0.0914986 0.349254 0.5 0 0 0 0.15065 -2.31546 -0.195645 
278 3.60827 1.88445 0.935526 0.5 0 0 0 -1.47465 -0.020486 0.739828 
279 3.71217 0.457469 0.171551 0.5 0 0 0 0.354186 -1.32191 -1.49395 
295 2.73142 1.13214 0.898663 0.5 0 0 0 -0.159661 0.170712 0.868993 
281 3.0564 0.151207 0.970866 0.5 0 0 0 -0.451427 -1.93763 1.77543 
282 3.8744 1.69556 1.09783 0.5 0 0 0 -1.31085 0.0497884 1.41509 
283 3.80613 2.33927 -0.181272 0.5 0 0 0 -1.1012 -0.928722 -3.77639 
284 4.16863 2.09976 0.500958 0.5 0 0 0 -0.298073 0.731262 -0.333612 
285 3.41146 2.33265 0.439947 0.5 0 0 0 -1.11927 -0.145078 -0.370702 
286 3.72184 0.963263 0.427498 0.5 0 0 0 -1.14011 -0.231047 -0.451809 
287 4.34117 1.03841 0.421524 0.5 0 0 0 -0.486969 -1.23546 -1.4951 
288 4.07944 1.6191 1.03376 0.5 0 0 0 -1.1034 0.123654 1.2464 
289 4.36668 1.05293 0.596495 0.5 0 0 0 -0.637196 -1.32412 -0.787548 
290 3.33103 0.992292 0.623104 0.5 0 0 0 -1.22181 0.311972 0.681972 
291 2.90505 1.00379 0.0831428 0.5 0 0 0 -0.432349 1.52795 -1.7816 
297 3.16281 0.422648 1.81526 0.5 0 0 0 -1.29629 -1.55319 0.777122 
298 3.83873 2.08749 2.17161 0.5 0 0 0 -1.14487 -0.142795 1.0444 
299 3.06609 0.732193 2.23274 0.5 0 0 0 -0.806987 -0.563644 1.53064 
323 3.16958 1.7184 1.55878 0.5 0 0 0 -0.674018 -0.158867 1.15615 
301 3.32709 1.70196 2.15388 0.5 0 0 0 -0.572206 0.077442 1.27871 
302 3.70478 0.970469 1.80799 0.5 0 0 0 -0.872648 0.195387 1.52382 
303 3.80396 0.847812 1.9442 0.5 0 0 0 -0.641853 0.0391965 1.64936 
292 4.33293 1.2853 1.247 0.5 0 0 0 -0.639735 -0.24934 1.77526 
305 4.06196 1.45734 1.37116 0.5 0 0 0 -1.02103 0.152816 2.08161 
306 4.61121 1.24738 1.92466 0.5 0 0 0 0.787678 -0.0452648 1.5554 
307 4.02807 0.00291011 2.16168 0.5 0 0 0 -1.98922 -2.04563 -0.125268 
308 4.72506 0.10443 2.27495 0.5 0 0 0 0.0573843 -0.247076 0.0162204 
309 3.95474 0.747128 1.92068 0.5 0 0 0 -0.468747 -0.276007 1.65567 
310 4.61075 2.32872 1.97826 0.5 0 0 0 0.484491 -0.142865 0.410055 
311 3.53786 2.25907 2.09171 0.5 0 0 0 -0.893482 0.158265 1.12888 
321 4.85074 -0.0225671 2.20583 0.5 0 0 0 0.482397 -0.650863 -0.309892 
313 2.56726 1.50595 2.20377 0.5 0 0 0 0.109511 0.00599524 1.31397 
320 2.69246 1.31431 1.8726 0.5 0 0 0 0.0635857 -0.0689141 0.908759 
315 3.26739 0.871674 1.95479 0.5 0 0 0 -0.804999 -0.121802 1.16742 
316 4.50044 1.00423 2.30411 0.5 0 0 0 0.307783 0.0216559 0.921449 
317 4.42454 1.96835 2.33396 0.5 0 0 0 -0.426076 -0.757597 0.429065 
318 3.62757 0.647104 1.4244 0.5 0 0 0 -1.29712 -0.894221 0.717622 
319 3.17122 2.16817 1.97115 0.5 0 0 0 -0.361793 0.250646 1.24403 
271 4.89444 1.59838 1.20693 0.5 0 0 0 1.99262 1.05746 1.86766 
19 2.58919 1.86326 1.1735 0.5 0 0 0 0.0130774 -0.264312 0.539889 
280 3.82517 0.808425 1.18765 0.5 0 0 0 -1.3664 -0.81656 0.795787 
300 4.20682 2.38482 1.22812 0.5 0 0 0 -0.0437884 0.850171 1.85782 
296 4.29953 0.620875 1.17349 0.5 0 0 0 -0.391217 -1.69168 0.799865 
277 3.47974 2.13584 1.17679 0.5 0 0 0 -1.08781 0.311791 1.56499 
324 4.2005 1.07209 3.60419 0.5 0 0 0 -1.49449 0.447594 -0.557457 
325 3.13527 0.34666 3.34054 0.5 0 0 0 -3.12544 -1.26461 1.33762 
326 3.6674 1.472 3.67458 0.5 0 0 0 -1.94333 -0.405537 -0.0547256 
327 4.15864 1.37272 2.56514 0.5 0 0 0 -0.879735 -0.248797 0.532213 
328 3.56054 0.74607 2.82266 0.5 0 0 0 -1.2303 0.197382 0.970873 
329 4.6547 1.85821 2.76121 0.5 0 0 0 0.287457 -1.60692 -0.42263 
330 3.37922 1.61927 3.26273 0.5 0 0 0 -1.49018 -0.393452 0.612964 
331 4.42015 1.68675 3.2659 0.5 0 0 0 -1.11423 -1.26898 -0.407885 
332 4.72992 0.335373 2.57276 0.5 0 0 0 0.295636 0.868847 -0.287342 
333 2.66871 0.745664 3.45055 0.5 0 0 0 -3.12684 -1.52282 2.19035 
334 4.39709 0.492243 3.23253 0.5 0 0 0 -0.533089 0.856191 -1.84113 
335 5.05885 2.33764 2.8635 0.5 0 0 0 3.04181 -1.00719 -0.903878 
336 4.0552 0.349995 3.25553 0.5 0 0 0 -1.75579 0.276346 -0.965965 
350 2.94786 1.6205 2.67099 0.5 0 0 0 -0.331907 -0.231859 1.44437 
338 2.75766 1.04702 3.7024 0.5 0 0 0 -3.0528 -1.44822 1.35405 
339 2.70522 0.895149 2.70661 0.5 0 0 0 -1.0301 -1.15823 2.43866 
340 2.93399 1.02899 3.59673 0.5 0 0 0 -2.76064 -1.00175 1.23853 
341 4.47473 1.9948 3.43292 0.5 0 0 0 -1.11104 -1.6264 0.0347229 
342 4.92133 1.88469 3.61398 0.5 0 0 0 1.08788 -1.75819 0.255117 
343 3.24145 1.5906 2.6238 0.5 0 0 0 -0.676345 -0.187408 1.25356 
349 4.1968 -0.0384044 3.21982 0.5 0 0 0 -1.68687 -1.34803 -1.61067 
345 3.47824 0.0426683 3.05535 0.5 0 0 0 -2.73643 -2.21439 0.525268 
346 3.69695 0.812518 3.53319 0.5 0 0 0 -2.44888 0.196089 0.133075 
347 2.80181 1.66492 2.63693 0.5 0 0 0 -0.102875 -0.19069 1.44765 
348 2.63913 1.65882 2.67643 0.5 0 0 0 0.0403151 -0.424343 1.55996 
352 4.94759 1.25163 3.70679 0.5 0 0 0 1.53044 -0.0804578 -0.468102 
469 4.12805 2.45323 2.60915 0.5 0 0 0 -1.94942 -0.327556 -0.220538 
304 2.73538 0.148588 2.52863 0.5 0 0 0 -1.73142 -2.67711 1.93471 
384 4.55125 0.313801 3.78159 0.5 0 0 0 -1.086 0.714423 -1.93763 
351 4.81681 0.433174 4.13216 0.5 0 0 0 0.535565 1.28442 -0.255579 
381 3.28515 1.87301 4.23842 0.5 0 0 0 -1.69197 -1.05933 -1.04764 
353 3.42787 1.25797 4.13506 0.5 0 0 0 -2.41258 -0.741735 -0.231682 
354 3.93464 1.93868 4.94641 0.5 0 0 0 -0.469325 -0.731159 1.15887 
355 4.89446 2.33384 4.0075 0.5 0 0 0 0.313448 -1.3629 1.33114 
356 4.4518 -0.173149 4.76968 0.5 0 0 0 -1.85987 -2.81265 1.58589 
383 4.1318 0.484743 4.9929 0.5 0 0 0 -2.19942 0.864401 2.56485 
358 5.09289 1.5728 4.75783 0.5 0 0 0 1.28545 -0.321762 1.65899 
359 3.01964 1.92093 4.29427 0.5 0 0 0 -1.64715 -1.29445 -1.07776 
360 4.55823 0.294837 4.19705 0.5 0 0 0 -1.20754 0.680713 -0.312501 
361 5.0107 2.27456 4.16294 0.5 0 0 0 0.815477 -1.71616 1.74502 
362 4.17114 0.254776 4.2464 0.5 0 0 0 -3.31804 0.0157312 -0.205747 
363 3.91131 0.319092 4.53698 0.5 0 0 0 -4.12055 -0.228917 0.557696 
364 2.66474 1.94635 4.90104 0.5 0 0 0 -2.03358 -1.87525 0.775548 
365 3.1697 1.79582 4.59542 0.5 0 0 0 -1.63189 -1.52832 -0.429114 
366 4.61143 0.911562 4.1486 0.5 0 0 0 -0.161795 1.7104 0.5014 
367 3.81679 -0.0602445 3.84489 0.5 0 0 0 -4.38253 -2.21106 0.189172 
368 4.0643 1.84855 4.28442 0.5 0 0 0 -1.15828 -0.718851 -0.0177368 
369 3.49421 1.48242 4.35656 0.5 0 0 0 -1.88368 -0.953647 -0.468815 
370 2.83 0.443285 4.66007 0.5 0 0 0 -3.54674 -1.08068 0.0899711 
371 4.72582 0.250736 4.64224 0.5 0 0 0 0.354027 0.645335 1.6131 
382 3.88419 0.944612 3.84084 0.5 0 0 0 -2.45414 0.36222 -0.0352802 
373 4.63289 0.300489 3.94053 0.5 0 0 0 -0.776864 0.734412 -1.37533 
374 4.53402 0.486198 4.04811 0.5 0 0 0 -1.13014 1.24206 -0.778822 
375 5.03447 0.0101005 4.98312 0.5 0 0 0 3.59476 -1.18721 3.20949 
376 4.10392 1.60789 4.6828 0.5 0 0 0 -0.582511 -0.440839 0.453459 
377 4.01537 2.10371 5.10766 0.5 0 0 0 -0.109857 -0.494932 2.13393 
378 2.9176 1.64264 5.01092 0.5 0 0 0 -1.92865 -2.16827 1.57482 
379 3.53379 0.926496 5.07408 0.5 0 0 0 -2.38336 -0.425522 1.83418 
380 3.06477 2.29048 4.29765 0.5 0 0 0 -1.41923 -1.25236 -1.06825 
385 2.72743 3.16667 0.678624 0.5 0 0 0 -0.259407 0.0375927 0.477874 
386 4.46001 4.72631 0.0499733 0.5 0 0 0 0.67028 0.329386 -0.709609 
387 3.86554 3.94207 0.138872 0.5 0 0 0 0.119294 -0.411055 -0.428004 
388 4.32021 4.0172 1.07919 0.5 0 0 0 -0.817758 -0.17288 -1.10386 
389 3.81849 3.08829 0.794952 0.5 0 0 0 -0.593919 0.0886874 0.755445 
390 3.64731 4.11213 0.128382 0.5 0 0 0 0.0900858 -0.597338 0.0534265 
391 5.05322 4.32999 1.07581 0.5 0 0 0 2.14329 1.08722 -1.29537 
392 4.88878 2.67893 0.295459 0.5 0 0 0 1.32146 0.365189 -0.297562 
393 4.52615 4.58372 0.677724 0.5 0 0 0 -0.0148379 1.27506 -0.991692 
394 2.76375 2.92559 1.08836 0.5 0 0 0 0.0172046 -0.151015 1.30115 
395 4.91111 2.95984 0.998601 0.5 0 0 0 1.35506 -0.497241 1.14158 
396 4.08242 3.07659 0.0175158 0.5 0 0 0 -0.343929 0.45086 -1.52541 
397 5.07976 4.04744 0.825053 0.5 0 0 0 2.38251 -0.0624321 -1.63071 
398 2.92734 4.94156 0.00822267 0.5 0 0 0 -0.477074 2.0375 -1.5009 
399 3.38818 4.92148 0.588323 0.5 0 0 0 0.578043 1.09103 -0.331 
400 3.33767 4.51274 0.419336 0.5 0 0 0 0.195517 -0.603889 0.275914 
401 3.37374 2.65717 0.0719945 0.5 0 0 0 -0.978843 -0.39698 -1.65035 
402 2.72655 3.11912 0.688006 0.5 0 0 0 -0.262878 0.00999975 0.537534 
403 4.76397 3.22272 0.182965 0.5 0 0 0 0.431417 0.481352 -1.34417 
404 4.20748 2.63552 0.142013 0.5 0 0 0 -0.16416 0.531461 -0.894082 
405 4.05945 4.87615 -0.0238888 0.5 0 0 0 0.282902 0.873266 -0.164254 
406 4.20553 3.58907 1.03062 0.5 0 0 0 -0.88746 -0.74315 -0.290757 
407 2.81353 4.21131 -0.0113277 0.5 0 0 0 -0.346714 -0.769315 -1.2504 
408 4.99349 3.11745 0.424443 0.5 0 0 0 1.24844 -0.0506831 -0.253536 
409 3.77206 3.30856 0.562627 0.5 0 0 0 -0.535957 0.068121 0.0362068 
410 3.87007 2.62726 0.88577 0.5 0 0 0 -0.532593 0.714162 1.23172 
411 4.18383 2.65307 1.06401 0.5 0 0 0 -0.135406 0.559462 1.46075 
412 3.0916 3.18162 0.446708 0.5 0 0 0 -0.48046 0.050068 0.0615132 
413 2.9187 3.71694 0.925144 0.5 0 0 0 -0.22571 -0.363155 0.330766 
414 2.70955 4.48431 0.643286 0.5 0 0 0 -0.107223 -0.930295 0.142364 
415 2.6388 4.93667 1.1135 0.5 0 0 0 -1.0792 0.886342 -0.319945 
417 3.0858 3.60769 0.193228 0.5 0 0 0 -0.439157 -0.300425 -0.622334 
418 4.81606 4.17573 1.6567 0.5 0 0 0 0.591417 -0.344365 0.0452496 
419 2.97104 3.77732 2.20127 0.5 0 0 0 0.527192 -1.67751 0.597797 
420 4.87673 3.94974 2.41375 0.5 0 0 0 0.274887 -1.5764 0.677281 
421 4.8751 4.57038 1.80973 0.5 0 0 0 1.01158 1.67479 -0.45561 
422 4.26911 4.54908 1.75393 0.5 0 0 0 0.210611 0.978853 0.159583 
423 3.64883 4.60707 1.39654 0.5 0 0 0 0.361028 0.133709 -1.23186 
424 4.35686 3.80958 1.43822 0.5 0 0 0 -0.729246 -1.16539 0.524536 
425 2.78397 3.15329 1.33964 0.5 0 0 0 0.22369 -0.293646 1.28226 
426 3.24265 4.55351 2.11576 0.5 0 0 0 0.105226 -0.90844 1.6602 
427 3.29534 4.61706 1.65763 0.5 0 0 0 -0.180093 -0.610717 -0.14451 
428 4.92767 4.3107 2.00987 0.5 0 0 0 0.632453 -0.199107 0.0995123 
429 3.19585 4.83427 1.72876 0.5 0 0 0 -0.356619 0.283533 0.170771 
430 2.95764 4.84836 1.32107 0.5 0 0 0 -0.875972 0.354236 -0.98434 
431 3.50765 2.67592 2.37491 0.5 0 0 0 -0.874519 -0.138889 0.589053 
432 3.95776 2.50817 1.47999 0.5 0 0 0 -0.675003 0.427705 1.94303 
433 2.74246 4.35531 2.39777 0.5 0 0 0 -0.216756 -1.01737 0.873606 
434 3.13473 4.5078 1.94043 0.5 0 0 0 -0.332039 -1.07925 0.870725 
435 3.61635 4.6595 1.62657 0.5 0 0 0 0.532129 0.0850793 -0.17655 
436 3.34108 3.27577 2.05506 0.5 0 0 0 -0.141772 -0.940376 0.961185 
437 3.80656 3.98332 1.78453 0.5 0 0 0 -0.714642 -1.51627 0.940805 
438 5.00233 3.52831 1.86043 0.5 0 0 0 1.73066 -1.93284 0.23681 
439 4.48504 4.48045 2.45637 0.5 0 0 0 -0.699926 0.100618 1.44693 
440 2.64624 3.87469 2.23009 0.5 0 0 0 0.374738 -1.16796 0.247916 
441 2.92967 4.74914 2.12021 0.5 0 0 0 -0.681677 -0.00189144 1.10791 
442 3.06368 4.58908 1.38181 0.5 0 0 0 -0.702528 -0.753027 -1.05751 
443 3.87393 4.1195 1.9644 0.5 0 0 0 -0.42622 -1.3656 1.44375 
444 2.67807 4.3564 1.89243 0.5 0 0 0 -0.768882 -0.933542 -0.157708 
445 4.42925 3.75366 1.23855 0.5 0 0 0 -0.57151 -1.03453 -0.0131128 
446 4.16137 3.88015 2.29142 0.5 0 0 0 -0.97191 -1.56514 1.40269 
447 3.98414 3.83381 1.7099 0.5 0 0 0 -1.00351 -1.50697 1.02253 
448 4.54614 2.8292 2.22811 0.5 0 0 0 -0.16732 0.273008 -0.265172 
449 3.08114 3.86143 1.29596 0.5 0 0 0 -0.376899 -0.892198 0.0159896 
450 3.48301 3.36566 1.39671 0.5 0 0 0 -0.555961 -0.723571 1.08946 
416 4.4394 3.86706 1.2623 0.5 0 0 0 -0.553556 -0.823885 -0.162325 
203 2.54257 2.99444 1.48494 0.5 0 0 0 0.543108 -0.349901 1.11908 
322 2.8968 2.52125 1.86349 0.5 0 0 0 0.201459 -0.0968806 1.34305 
314 4.95152 2.49957 1.43986 0.5 0 0 0 2.18038 0.017028 0.881105 
479 2.67201 3.66334 3.67497 0.5 0 0 0 -0.20329 -1.64081 -0.627298 
453 4.81672 2.73412 3.2535 0.5 0 0 0 0.831708 0.571505 -0.423174 
454 3.96861 3.31053 2.81272 0.5 0 0 0 -1.04523 -0.094699 0.106193 
455 2.9786 4.28332 3.66019 0.5 0 0 0 -0.726514 -0.932006 -1.02453 
456 2.78682 4.65171 3.10914 0.5 0 0 0 -0.203216 -0.442466 0.32636 
457 3.04669 4.89391 2.94079 0.5 0 0 0 0.553137 0.687054 0.706075 
458 3.38148 3.15475 2.90913 0.5 0 0 0 -0.536569 -0.877634 0.204812 
459 4.79833 4.06689 2.63941 0.5 0 0 0 -0.128099 -1.06 1.14757 
460 4.33881 2.93316 3.14829 0.5 0 0 0 -1.28473 1.05586 -0.479667 
461 4.46962 4.44766 2.57145 0.5 0 0 0 -0.804016 -0.0312669 1.57335 
462 4.70144 4.99917 2.54254 0.5 0 0 0 0.456861 4.60251 1.38149 
463 4.41339 2.63817 2.73774 0.5 0 0 0 -1.22619 -0.00237406 -0.77841 
464 3.08229 3.82563 3.12878 0.5 0 0 0 0.299031 -1.73469 -0.110347 
465 3.5702 3.9329 3.56068 0.5 0 0 0 0.454638 -1.22728 -1.19884 
466 4.19208 2.57746 3.01758 0.5 0 0 0 -2.12605 -0.251413 -0.64057 
467 3.47467 4.4369 3.46202 0.5 0 0 0 0.871105 -0.333501 -0.872558 
468 4.83204 2.71881 2.53955 0.5 0 0 0 1.39738 0.238198 -0.966822 
344 4.18941 2.52632 3.41191 0.5 0 0 0 -2.05256 -0.494525 0.00247336 
470 4.4847 2.5291 3.64937 0.5 0 0 0 -1.0599 -0.473922 0.538413 
471 3.84037 4.76542 3.03905 0.5 0 0 0 0.428621 1.21802 0.489418 
451 2.79986 3.7981 2.4996 0.5 0 0 0 0.673192 -1.50346 0.668475 
473 2.91846 5.08608 3.74857 0.5 0 0 0 -0.149608 2.67789 0.232552 
474 4.50733 2.85756 3.6255 0.5 0 0 0 -0.710943 1.04263 0.308591 
478 3.98903 2.61315 3.41298 0.5 0 0 0 -2.49941 -0.215981 -0.0580726 
476 4.67836 3.70549 3.01079 0.5 0 0 0 0.0893693 -0.00658831 0.817249 
477 2.80107 4.25512 2.56629 0.5 0 0 0 0.0882571 -1.26942 0.940772 
337 4.00856 2.47713 3.28526 0.5 0 0 0 -2.56722 -0.58788 -0.210892 
475 4.80452 4.05407 3.78608 0.5 0 0 0 0.939254 -0.0504988 -0.155887 
480 3.58953 3.8089 4.79312 0.5 0 0 0 1.28081 -1.32212 0.955288 
481 4.13979 3.02609 4.95777 0.5 0 0 0 -0.267992 -1.47021 2.14239 
482 3.77861 3.59844 4.0078 0.5 0 0 0 0.420731 -0.998582 -1.09706 
483 4.4053 4.8875 4.10612 0.5 0 0 0 0.262992 0.500348 -1.7515 
484 3.17257 4.00243 3.96811 0.5 0 0 0 -0.446892 -1.44902 -1.51128 
485 3.66541 3.93623 4.40886 0.5 0 0 0 1.30973 -0.836046 -0.600794 
486 4.72062 4.70312 4.34976 0.5 0 0 0 -0.0982631 -0.899087 -1.36619 
487 3.2799 3.12529 4.27903 0.5 0 0 0 -0.664691 -1.9819 -0.831776 
488 4.67013 3.1766 4.66622 0.5 0 0 0 0.0223756 0.0686641 0.971313 
489 3.35019 4.83711 5.0897 0.5 0 0 0 -0.173093 3.09074 3.98364 
490 3.58041 3.44623 4.24509 0.5 0 0 0 -0.0362938 -1.73966 -0.884379 
491 3.71317 4.11091 4.82948 0.5 0 0 0 2.05162 -0.117167 1.33702 
492 2.66401 3.19065 4.79124 0.5 0 0 0 -1.28713 -2.5911 0.923024 
493 4.51494 3.66925 4.72374 0.5 0 0 0 1.18594 0.523273 0.678249 
494 3.42613 3.64516 5.12501 0.5 0 0 0 0.777842 -2.0906 3.3119 
495 2.68331 4.06725 4.41672 0.5 0 0 0 -1.05388 -0.908449 -1.15869 
496 2.62238 3.80937 4.95755 0.5 0 0 0 -1.37847 -1.77678 1.45777 
497 3.38169 4.37698 3.94441 0.5 0 0 0 0.446714 -0.250723 -1.31618 
357 3.44985 2.4954 4.63855 0.5 0 0 0 -0.880715 -1.29878 0.135066 
499 3.95608 2.50646 4.05607 0.5 0 0 0 -1.53389 -0.749102 0.251148 
500 4.65468 4.93223 4.97398 0.5 0 0 0 -0.725103 -0.11952 1.69281 
501 4.62616 4.81561 4.90394 0.5 0 0 0 -0.283524 -0.293758 1.29275 
502 2.68187 3.97567 4.77886 0.5 0 0 0 -0.999037 -1.16853 0.287559 
503 2.93975 4.25916 4.55902 0.5 0 0 0 -0.375744 -0.128682 -0.685956 
504 3.55114 3.30536 4.29101 0.5 0 0 0 -0.234601 -1.87489 -0.698657 
505 3.69576 4.82259 4.28552 0.5 0 0 0 1.42034 1.77465 -0.194306 
506 4.09435 4.02173 3.97424 0.5 0 0 0 1.82461 0.0293961 -0.94736 
507 4.9127 2.81897 3.94309 0.5 0 0 0 0.483243 0.990091 0.557396 
508 2.87514 3.92811 4.68636 0.5 0 0 0 -0.391859 -1.40777 -0.269412 
509 3.30514 4.7555 4.40391 0.5 0 0 0 0.178899 1.78596 -0.100227 
510 3.0845 4.49512 4.06088 0.5 0 0 0 -0.596066 0.201676 -1.22219 
511 2.64438 3.03167 4.50455 0.5 0 0 0 -1.03004 -2.20834 -0.126199 
512 2.666 2.82481 4.36838 0.5 0 0 0 -0.847084 -1.88602 -0.442514 
513 4.86973 3.02687 4.2985 0.5 0 0 0 0.304388 1.03373 0.59121 
ITEM: TIMESTEP
60054
ITEM: NUMBER OF ATOMS
512
ITEM: BOX BOUNDS ss ss ss
-2.1589663964569298e-02 5.0933846546203574e+00
-1.7364439631764822e-01 5.0865807164741392e+00
-1.8176655292622759e-01 5.1255068607205727e+00
ITEM: ATOMS id x y z width_SPH x_COM y_COM z_COM vx vy vz 
2 0.301066 0.775936 0.24686 0.5 0 0 0 -1.37936 -0.57953 0.0687808 
3 0.259444 1.29101 0.60572 0.5 0 0 0 -2.08442 -0.964685 0.287734 
4 0.787481 1.24764 1.03676 0.5 0 0 0 -0.386238 -0.340107 0.749213 
5 1.73538 1.8934 0.823937 0.5 0 0 0 0.958578 0.352111 0.221124 
6 0.274204 2.07866 0.848528 0.5 0 0 0 -2.11847 0.860433 1.16653 
7 0.546658 1.58454 0.342549 0.5 0 0 0 -0.688693 -0.372094 -0.682118 
8 1.33606 0.225901 0.773359 0.5 0 0 0 0.0500315 -0.685429 1.18413 
9 1.53468 0.98643 0.331381 0.5 0 0 0 0.774093 0.26073 -0.747349 
10 1.11158 1.53603 -0.0685449 0.5 0 0 0 0.983794 -0.388503 -2.84957 
11 1.39605 1.22774 0.796168 0.5 0 0 0 0.782346 0.130044 0.282635 
38 1.08307 2.32881 0.776646 0.5 0 0 0 0.516884 0.421798 0.862957 
41 2.23083 2.37931 1.02289 0.5 0 0 0 0.351378 -0.20226 0.556573 
14 1.26049 2.06321 0.329272 0.5 0 0 0 1.32268 0.117819 -0.380269 
15 1.54694 0.0394808 0.976116 0.5 0 0 0 1.23301 -1.5069 2.12374 
37 0.63691 0.390267 0.353982 0.5 0 0 0 -1.47737 -0.586547 0.379694 
17 1.08139 0.119437 0.519715 0.5 0 0 0 -1.29668 -0.687408 0.538484 
18 1.50826 -0.0164849 0.0459013 0.5 0 0 0 0.021046 -0.949803 -1.15234 
40 1.99513 0.669575 0.604461 0.5 0 0 0 1.39267 -0.197934 0.904855 
20 0.369826 1.75927 1.04788 0.5 0 0 0 -1.73138 0.350027 1.28567 
21 1.878 1.79469 0.745542 0.5 0 0 0 1.08074 0.226365 -0.00312123 
22 0.552788 2.4223 0.409936 0.5 0 0 0 -0.558254 0.212978 0.657483 
39 0.791151 1.5785 0.810198 0.5 0 0 0 0.140692 0.227591 0.408958 
24 0.00341816 0.598288 0.0816953 0.5 0 0 0 -2.72807 -0.779924 -0.133766 
25 1.95435 0.260603 0.581877 0.5 0 0 0 1.6841 -0.755023 1.36425 
26 1.35581 0.890949 0.584786 0.5 0 0 0 0.399623 0.0193605 -0.00984205 
27 0.864667 1.8141 0.900151 0.5 0 0 0 0.377417 0.670912 0.69183 
28 2.15663 0.959745 0.35946 0.5 0 0 0 0.883586 0.501612 -0.229976 
29 2.42448 1.35995 0.269413 0.5 0 0 0 0.107996 1.0178 -1.19047 
30 1.3992 0.242434 0.884057 0.5 0 0 0 0.488748 -0.821789 1.45705 
31 1.65837 1.51848 0.685685 0.5 0 0 0 1.20243 0.362157 0.0101909 
32 1.30153 2.09592 0.250958 0.5 0 0 0 1.47639 0.00634947 -0.708904 
33 1.46276 1.14326 0.721758 0.5 0 0 0 0.856853 0.0701527 0.199771 
34 0.622257 2.08924 -0.0271173 0.5 0 0 0 -0.447991 -0.57539 -2.02295 
35 1.77116 0.044811 -0.128812 0.5 0 0 0 1.17618 -0.864707 -2.25467 
36 0.968306 0.88323 0.0786215 0.5 0 0 0 0.095588 0.0328293 -1.47966 
144 0.0212122 2.45507 0.114575 0.5 0 0 0 -3.16824 -0.780038 -1.09895 
43 1.54523 0.0677332 1.95231 0.5 0 0 0 1.54681 -2.05898 2.27937 
44 1.36472 2.35713 1.90941 0.5 0 0 0 0.773334 -0.347965 0.53868 
45 1.3338 1.11988 1.48552 0.5 0 0 0 0.476513 -0.19891 1.55749 
46 1.38771 2.23672 2.32625 0.5 0 0 0 0.773095 -0.849675 1.17322 
47 1.3959 1.26088 1.91896 0.5 0 0 0 -0.0998495 -0.503567 2.36787 
48 1.18006 0.812494 1.47865 0.5 0 0 0 0.169837 -0.426957 1.76228 
49 2.47935 2.34211 1.69817 0.5 0 0 0 0.558051 -0.173274 1.19153 
50 0.891253 0.608882 1.67018 0.5 0 0 0 -1.07945 -0.542205 2.51081 
51 1.96892 0.93959 1.80623 0.5 0 0 0 0.474696 -1.09681 1.64682 
52 0.67161 1.64139 1.3334 0.5 0 0 0 -0.669216 0.0976935 1.61567 
53 2.1247 1.44177 1.71791 0.5 0 0 0 0.456229 0.12362 0.952311 
54 0.39019 0.0429218 2.20343 0.5 0 0 0 -1.55319 -1.2514 0.557901 
55 1.73184 1.84185 1.70752 0.5 0 0 0 0.65055 0.164924 0.906604 
16 2.25736 2.0163 1.1787 0.5 0 0 0 0.457655 -0.0719178 0.552914 
57 2.38803 1.07707 1.62868 0.5 0 0 0 0.472648 -0.693348 0.755415 
58 1.78528 0.149199 2.2391 0.5 0 0 0 1.03274 -2.02281 2.71643 
59 1.24235 0.582601 2.37878 0.5 0 0 0 0.260512 -0.272371 3.92148 
60 0.669154 1.69642 1.57451 0.5 0 0 0 -0.979995 -0.221864 2.09613 
61 1.33412 0.300402 1.71431 0.5 0 0 0 0.887231 -1.21206 2.2636 
78 1.05745 1.89882 1.61753 0.5 0 0 0 0.147242 0.000553822 1.16136 
63 2.01583 1.57785 2.03482 0.5 0 0 0 0.300797 -0.0541616 1.40504 
64 0.517038 0.357615 2.37907 0.5 0 0 0 -0.565356 0.530354 2.62099 
65 1.06184 1.77545 2.19873 0.5 0 0 0 -0.468637 -1.40532 2.12138 
66 2.34198 0.861948 2.01783 0.5 0 0 0 0.0265179 -1.3515 1.67452 
67 1.10298 0.688533 2.02627 0.5 0 0 0 -0.327991 -0.221897 3.45713 
68 2.05806 1.47707 1.72367 0.5 0 0 0 0.443905 0.165855 1.00093 
69 1.40306 0.742947 2.26941 0.5 0 0 0 -0.0127959 -0.602003 3.56713 
77 0.387402 1.54418 1.42854 0.5 0 0 0 -2.22897 -0.47738 2.42534 
71 0.737612 0.532107 1.43847 0.5 0 0 0 -1.94548 -0.91123 1.66726 
72 1.00639 2.24108 2.44178 0.5 0 0 0 0.00219829 -1.25809 1.46174 
73 2.05738 1.03319 1.69108 0.5 0 0 0 0.568089 -0.882769 1.23014 
74 2.23184 1.01522 2.36172 0.5 0 0 0 -0.384268 -1.45771 2.51913 
75 0.0297779 2.31121 2.22173 0.5 0 0 0 -2.35312 -1.61493 0.705463 
76 0.971336 1.10815 1.45355 0.5 0 0 0 -0.382614 -0.281279 1.81096 
12 1.34528 1.51116 1.24545 0.5 0 0 0 0.68378 0.377345 0.874136 
13 1.86621 1.32627 1.25809 0.5 0 0 0 0.997072 -0.056028 0.662305 
312 2.49224 -0.0785356 1.66921 0.5 0 0 0 -0.146819 -2.9461 1.29968 
42 1.22906 0.726343 1.23555 0.5 0 0 0 0.353157 -0.502418 1.15912 
79 1.43519 2.24238 3.26306 0.5 0 0 0 0.0223944 -2.28941 1.21442 
80 0.722431 0.183722 2.71176 0.5 0 0 0 1.47955 0.523555 2.97282 
81 1.07277 0.414988 2.90579 0.5 0 0 0 1.6268 0.31863 4.42187 
82 1.30862 1.94324 2.75295 0.5 0 0 0 -0.307581 -2.04022 1.91007 
83 1.70365 2.04279 2.87993 0.5 0 0 0 0.281044 -1.52934 1.51931 
84 1.24767 0.840105 3.71738 0.5 0 0 0 1.33465 -3.77983 4.56302 
85 2.02471 1.8402 2.82633 0.5 0 0 0 0.380656 -1.35918 1.64401 
106 1.36419 1.31963 2.61106 0.5 0 0 0 -0.890078 -2.18684 3.25939 
87 0.898793 2.29176 3.34264 0.5 0 0 0 -0.293888 -2.93022 0.785312 
88 1.94612 1.38121 2.97941 0.5 0 0 0 -0.745035 -2.92615 2.85493 
89 1.47552 0.236474 3.78193 0.5 0 0 0 0.21963 1.79091 4.58149 
100 0.580248 2.16471 2.54006 0.5 0 0 0 -0.486552 -1.98835 1.75443 
91 1.72849 1.44584 2.74127 0.5 0 0 0 -0.619533 -2.43816 2.67736 
92 0.127774 2.09691 2.8373 0.5 0 0 0 -1.29464 -2.82383 1.55062 
93 0.715277 0.310068 2.79199 0.5 0 0 0 1.35815 0.930464 3.27146 
94 1.45135 1.94302 2.6258 0.5 0 0 0 0.0977486 -1.59544 1.72404 
95 2.18937 2.14759 3.16346 0.5 0 0 0 0.868315 -1.23579 1.36449 
96 0.949793 1.87739 2.59393 0.5 0 0 0 -0.661402 -2.2623 2.27314 
97 1.79656 0.470851 3.60665 0.5 0 0 0 -2.34284 -1.28842 5.27533 
98 0.27304 1.57185 2.88923 0.5 0 0 0 -0.472705 -2.69582 1.99024 
99 2.15148 1.76574 3.33724 0.5 0 0 0 -0.0623512 -2.43033 1.94142 
105 0.748297 0.114088 3.13349 0.5 0 0 0 2.42404 0.805933 3.07574 
186 0.405526 2.44495 2.60322 0.5 0 0 0 -0.466386 -1.47826 1.20447 
102 1.8431 1.71237 3.01665 0.5 0 0 0 -0.358363 -2.45651 2.17477 
103 0.428586 1.0381 3.21399 0.5 0 0 0 1.28695 -1.2172 2.32733 
231 1.26226 2.35115 3.50858 0.5 0 0 0 0.166545 -2.64018 0.961359 
62 2.18333 1.76448 2.56415 0.5 0 0 0 0.450578 -0.647142 1.47221 
131 1.85477 1.65841 3.7735 0.5 0 0 0 -0.993898 -4.30606 2.03126 
56 2.44014 0.522584 2.4815 0.5 0 0 0 -0.939981 -1.83367 2.60205 
107 1.79925 0.179184 4.53986 0.5 0 0 0 -2.45834 2.41512 -3.09061 
108 1.07473 1.50092 4.4532 0.5 0 0 0 2.23005 -3.92929 -0.410836 
109 1.80422 0.539856 4.27432 0.5 0 0 0 -4.08409 -0.270128 -1.06245 
110 1.90998 0.686723 4.17965 0.5 0 0 0 -4.68723 -2.33705 0.535282 
139 1.00999 0.534254 4.84212 0.5 0 0 0 4.18394 -0.557495 -2.80621 
112 1.75817 0.698012 4.66544 0.5 0 0 0 -1.9494 -1.78469 -4.66983 
113 1.92757 1.25306 4.43647 0.5 0 0 0 -2.16261 -4.87599 -0.59547 
114 0.872983 0.925242 4.48012 0.5 0 0 0 4.97064 -2.01784 -2.19323 
115 1.84022 0.570508 4.46821 0.5 0 0 0 -3.73027 -0.56363 -3.38078 
116 0.780041 0.159622 4.3033 0.5 0 0 0 4.86751 0.454769 -1.14702 
117 0.976201 0.936287 4.21248 0.5 0 0 0 4.88984 -3.28016 -0.84271 
138 0.0273677 1.19268 4.38544 0.5 0 0 0 0.0333278 -1.92563 0.369703 
119 0.767832 1.80938 4.39848 0.5 0 0 0 1.55627 -2.82261 0.538753 
120 1.48918 0.684127 4.13282 0.5 0 0 0 0.291229 -2.81568 1.2241 
121 1.88098 0.771581 3.948 0.5 0 0 0 -3.89031 -3.61037 3.38608 
122 0.20365 -0.136025 4.07609 0.5 0 0 0 1.17962 -1.13959 0.140316 
123 1.22007 0.0987956 4.57304 0.5 0 0 0 3.27595 1.89728 -2.95654 
124 0.694206 0.489421 4.10319 0.5 0 0 0 4.98966 -0.112328 -0.715322 
125 1.57984 0.3881 4.1862 0.5 0 0 0 -1.13404 2.13379 0.184354 
126 1.32389 0.547612 4.31048 0.5 0 0 0 3.62943 -0.260638 -2.29503 
127 1.22246 2.04544 4.70511 0.5 0 0 0 0.529188 -2.49876 0.73864 
128 1.13272 0.893334 4.24918 0.5 0 0 0 4.63178 -3.84405 -1.04827 
129 0.157206 1.59084 4.15841 0.5 0 0 0 1.00228 -2.69923 -0.130514 
130 0.546425 0.828484 4.34959 0.5 0 0 0 3.60343 -1.0314 -1.40438 
137 0.139755 2.14505 3.86316 0.5 0 0 0 -0.174345 -3.34833 -0.349441 
132 2.24816 1.8794 3.83284 0.5 0 0 0 -0.369849 -2.6551 1.08225 
133 1.36567 0.564188 4.27386 0.5 0 0 0 2.91138 -0.547863 -1.67112 
134 1.70918 2.16356 4.92569 0.5 0 0 0 -0.345948 -2.30076 0.355995 
135 2.26419 0.167803 4.66814 0.5 0 0 0 -2.70275 -0.457117 -0.978124 
136 1.59585 1.61784 4.25902 0.5 0 0 0 -0.174917 -5.05055 0.598249 
86 1.99544 1.44379 3.89321 0.5 0 0 0 -1.58183 -4.76349 2.01604 
252 1.97124 2.33461 4.62375 0.5 0 0 0 -0.380446 -2.50467 -0.187741 
372 2.44558 0.703631 4.33783 0.5 0 0 0 -4.58197 -1.31109 -0.490362 
111 1.47987 2.39444 3.94321 0.5 0 0 0 0.573448 -2.60441 1.12608 
90 1.33534 1.25024 3.83516 0.5 0 0 0 0.0441872 -5.9281 2.69822 
104 1.86758 1.04364 3.82194 0.5 0 0 0 -2.65251 -5.30361 3.62865 
118 2.50961 1.67312 4.55116 0.5 0 0 0 -2.00916 -2.35969 -0.414634 
101 1.63832 0.949625 3.80755 0.5 0 0 0 -1.76209 -5.38829 4.48032 
140 2.46899 2.49535 0.521337 0.5 0 0 0 -0.12893 -0.497137 0.0925395 
141 0.969154 3.25075 0.88121 0.5 0 0 0 -0.687545 -0.054228 0.763205 
142 1.05819 3.61895 0.280845 0.5 0 0 0 0.0762471 0.567489 -0.305136 
143 0.613293 3.01274 0.597908 0.5 0 0 0 -0.779382 -0.0736836 1.18857 
167 1.34249 2.79902 0.683507 0.5 0 0 0 0.862666 -0.285242 0.459346 
168 1.60812 2.59703 0.915714 0.5 0 0 0 0.69467 -0.0649728 0.373868 
146 1.06775 3.21913 0.367263 0.5 0 0 0 0.56504 -0.407087 0.137557 
147 0.573208 4.49282 0.517003 0.5 0 0 0 1.15797 -0.17165 0.303745 
148 1.97431 3.78988 0.433881 0.5 0 0 0 0.68306 -0.368954 -0.379231 
149 0.683854 3.59681 0.0907933 0.5 0 0 0 -0.32004 1.0583 -0.716973 
150 1.89594 4.42723 0.80637 0.5 0 0 0 -0.262467 0.0303857 0.357098 
151 0.0450006 3.44437 0.10618 0.5 0 0 0 -1.64551 0.617967 -0.0465106 
152 1.35725 3.63101 1.14384 0.5 0 0 0 0.113061 -0.00934592 0.199473 
153 2.20121 4.40131 0.258874 0.5 0 0 0 -0.252433 -0.133622 -0.977991 
154 2.33911 4.58276 0.684232 0.5 0 0 0 -0.385058 -0.355663 0.2554 
155 1.29543 3.739 0.71187 0.5 0 0 0 -0.0563034 0.396054 0.295764 
156 0.448866 4.37763 1.05829 0.5 0 0 0 -0.637523 -0.993342 1.12884 
157 2.28878 2.65211 1.12402 0.5 0 0 0 0.333621 -0.230742 0.723524 
158 1.97601 4.15404 0.975268 0.5 0 0 0 0.404548 -0.540381 0.510193 
159 1.30202 3.80287 0.707773 0.5 0 0 0 -0.132026 0.516319 0.258975 
160 2.25978 2.64393 -0.0732787 0.5 0 0 0 -0.478519 -0.501477 -2.67308 
23 0.962128 2.54199 0.248239 0.5 0 0 0 0.775327 -0.195286 -0.0476421 
162 1.69242 3.28376 0.688211 0.5 0 0 0 1.1082 -0.412029 0.186958 
163 0.0413275 4.44313 0.0101806 0.5 0 0 0 0.227757 -0.44309 -0.6094 
164 2.14712 2.84689 0.191518 0.5 0 0 0 -0.0992132 -0.121564 -1.10249 
165 0.09096 3.27533 0.313753 0.5 0 0 0 -1.79354 0.168415 0.889023 
166 2.19765 3.29178 0.984012 0.5 0 0 0 0.426673 -0.0728796 0.437591 
169 0.463452 3.13038 2.39827 0.5 0 0 0 -0.761696 0.716281 0.0716714 
170 1.91534 3.15615 2.11444 0.5 0 0 0 0.850058 -0.609253 0.27609 
171 0.0731421 4.12224 2.28628 0.5 0 0 0 -2.32474 -0.638985 -1.31695 
172 1.10385 2.49108 1.83479 0.5 0 0 0 0.113762 -0.0897721 0.287114 
173 1.82173 3.36308 1.88122 0.5 0 0 0 0.624519 -0.353056 -0.192831 
174 1.26914 2.64237 1.45142 0.5 0 0 0 0.152506 0.0686313 0.0522062 
175 1.51649 4.31087 1.98113 0.5 0 0 0 0.608815 -0.492256 -0.249145 
176 1.55214 2.54248 1.97066 0.5 0 0 0 1.07781 -0.388524 0.455793 
177 -0.0008528 2.86161 2.38797 0.5 0 0 0 -2.34376 0.446086 0.184759 
178 1.44946 3.12326 1.43829 0.5 0 0 0 0.262699 -0.115134 -0.0447564 
179 2.14585 3.0696 2.45798 0.5 0 0 0 1.21855 -1.04112 0.798676 
180 1.15673 3.75587 1.50516 0.5 0 0 0 -0.819986 -0.0253615 -0.175375 
181 1.90675 4.8254 1.69836 0.5 0 0 0 -0.110065 0.569163 -0.338519 
182 1.13562 4.0265 1.86656 0.5 0 0 0 -0.89779 -0.269054 -0.17641 
183 1.54777 4.578 2.2453 0.5 0 0 0 0.407822 -0.18448 0.382021 
184 0.375317 2.61523 1.7266 0.5 0 0 0 -1.25204 0.288726 -0.281917 
185 1.31385 4.74035 2.2815 0.5 0 0 0 -0.397774 0.234684 0.573778 
204 1.32468 2.72488 2.02243 0.5 0 0 0 0.411401 -0.151375 0.337858 
187 1.38995 2.59811 2.25107 0.5 0 0 0 0.729207 -0.475087 0.785648 
188 1.50496 3.99844 2.40064 0.5 0 0 0 0.211213 -0.474675 0.650998 
189 1.72032 3.51607 2.26762 0.5 0 0 0 0.268725 -0.402705 0.325115 
202 0.972533 3.69504 1.79271 0.5 0 0 0 -1.44571 -0.025432 -0.100608 
191 2.16536 2.9869 2.46312 0.5 0 0 0 1.31935 -1.07887 0.829749 
192 1.889 3.66892 2.05625 0.5 0 0 0 0.648598 -0.477196 -0.120469 
193 0.891354 3.87886 2.43149 0.5 0 0 0 -1.18055 -0.0752882 0.5294 
194 0.584988 3.06103 2.1515 0.5 0 0 0 -0.561691 0.719741 -0.131442 
195 1.99792 2.84629 1.96781 0.5 0 0 0 1.27028 -0.681305 0.435234 
196 1.34713 4.40977 1.55939 0.5 0 0 0 -0.112921 0.0288072 -0.88298 
190 1.78496 4.9338 1.1726 0.5 0 0 0 -1.13942 1.85127 -0.304666 
198 0.864726 4.5435 2.00967 0.5 0 0 0 -2.11481 0.135867 -0.143092 
199 1.34387 3.07489 2.36975 0.5 0 0 0 -0.0317872 -0.265243 0.53131 
200 2.34844 5.02928 2.31953 0.5 0 0 0 -0.796943 1.5999 0.324446 
201 0.44763 2.72568 2.13465 0.5 0 0 0 -0.558482 0.0894111 0.113392 
70 0.869077 2.53772 2.15016 0.5 0 0 0 -0.00743174 -0.379521 0.682896 
145 2.0849 2.5666 1.35062 0.5 0 0 0 0.613547 -0.220208 0.593892 
161 0.304223 3.15921 1.21596 0.5 0 0 0 -2.20424 0.58667 0.685972 
205 1.20045 3.53231 3.03398 0.5 0 0 0 0.067849 -0.333977 0.264401 
206 1.96354 4.32896 3.03559 0.5 0 0 0 -0.110284 -0.374457 0.795739 
207 0.125254 4.09144 3.71369 0.5 0 0 0 -0.80891 -0.464149 0.109159 
208 0.84359 2.50925 3.69924 0.5 0 0 0 0.234167 -2.55707 0.728939 
209 1.51896 3.92171 3.16325 0.5 0 0 0 0.196412 -0.117551 0.840647 
210 1.84192 3.57402 3.51447 0.5 0 0 0 0.186015 -0.797547 0.527515 
211 1.88265 3.75203 2.61168 0.5 0 0 0 0.452332 -0.560306 0.722468 
212 1.26728 4.95011 2.96344 0.5 0 0 0 -0.263374 0.344985 0.888467 
213 2.05996 3.14168 2.58516 0.5 0 0 0 0.926668 -0.952243 0.886788 
214 1.2445 3.27321 3.65914 0.5 0 0 0 0.794302 -0.802966 0.932513 
215 0.723583 3.13221 3.31572 0.5 0 0 0 -0.405289 -0.703699 -0.116973 
216 0.445434 3.18581 3.33118 0.5 0 0 0 -1.08582 -0.462244 -0.477964 
217 2.4775 2.71686 2.75586 0.5 0 0 0 1.39748 -1.20612 0.862043 
218 2.3856 5.03042 3.71336 0.5 0 0 0 -0.964792 1.53915 0.410975 
219 1.09024 2.61491 3.18492 0.5 0 0 0 0.202244 -1.69438 0.47207 
220 2.32371 4.8339 2.95769 0.5 0 0 0 -0.618076 0.361632 0.828823 
221 1.05556 3.48504 3.60297 0.5 0 0 0 0.438454 -0.233073 0.80526 
222 2.43947 3.20194 3.06529 0.5 0 0 0 0.899488 -1.47825 0.585515 
223 1.90844 2.58351 3.33421 0.5 0 0 0 1.00396 -1.39159 0.908074 
224 0.518846 4.92289 3.11834 0.5 0 0 0 -0.680177 1.04935 -0.188429 
225 0.511127 3.84252 3.64451 0.5 0 0 0 -0.152899 0.0962165 0.347046 
226 0.947703 4.03002 2.86601 0.5 0 0 0 -0.664894 0.111393 0.686526 
227 1.10353 3.04117 3.11188 0.5 0 0 0 0.291882 -0.946483 0.135891 
228 0.260918 4.35829 2.60106 0.5 0 0 0 -1.13179 -0.263866 -0.406483 
229 0.262293 4.30495 3.51799 0.5 0 0 0 -0.219821 -0.166067 -0.264816 
230 1.60813 2.9128 3.13402 0.5 0 0 0 0.85996 -1.11713 0.637784 
234 1.25336 3.65657 3.14787 0.5 0 0 0 0.170566 -0.177615 0.462593 
232 2.45704 3.29095 3.07976 0.5 0 0 0 0.789186 -1.45304 0.514956 
233 1.25656 4.7676 3.40159 0.5 0 0 0 0.262842 -0.270108 0.631782 
472 2.51545 4.84304 2.81896 0.5 0 0 0 -0.522633 0.376669 0.860466 
251 1.85861 2.53247 3.78307 0.5 0 0 0 0.796335 -1.97068 0.861928 
452 2.41994 3.93784 3.55703 0.5 0 0 0 -0.618571 -0.767754 -0.227214 
254 1.67058 4.93834 3.76207 0.5 0 0 0 -0.108521 -0.00647921 -0.126813 
197 1.56002 4.63702 2.4755 0.5 0 0 0 0.194485 -0.0431618 0.939246 
235 1.25867 4.88886 4.11647 0.5 0 0 0 -0.0651208 -0.422461 -0.500052 
236 2.01964 3.92687 3.99277 0.5 0 0 0 -1.36754 -0.449654 -0.153221 
237 0.594821 2.54956 3.92611 0.5 0 0 0 0.437815 -2.27668 0.911923 
238 0.923658 4.7717 4.37611 0.5 0 0 0 0.150111 -0.396484 -0.108964 
239 0.871877 3.75292 3.98212 0.5 0 0 0 0.547511 0.0329811 1.33285 
240 2.06139 4.5736 4.57908 0.5 0 0 0 -2.31872 1.31124 0.100672 
241 2.18405 4.38619 4.75142 0.5 0 0 0 -2.57612 0.697038 0.681008 
242 0.0972784 3.19401 4.41598 0.5 0 0 0 0.712086 -0.0226441 0.530369 
243 -0.0210887 2.72653 4.80955 0.5 0 0 0 0.478515 -2.54415 1.85162 
244 0.523835 4.91628 4.84729 0.5 0 0 0 -0.892578 0.136727 1.01537 
245 1.52928 3.07001 4.95429 0.5 0 0 0 -1.28629 -1.12745 1.45297 
246 1.24538 3.71929 4.41729 0.5 0 0 0 -0.181744 -0.942068 1.03638 
247 2.42627 3.35712 3.82755 0.5 0 0 0 -0.079257 -1.80328 -0.263742 
248 1.72736 2.6764 4.86734 0.5 0 0 0 -0.717059 -1.99976 0.514704 
249 1.67259 3.00147 4.12672 0.5 0 0 0 0.268966 -1.74658 0.71788 
250 1.29946 2.62048 3.95289 0.5 0 0 0 0.753738 -2.08437 1.28446 
259 0.587311 2.8217 3.88903 0.5 0 0 0 0.414855 -1.32144 0.94062 
258 0.037293 2.95955 4.02069 0.5 0 0 0 -0.312634 -0.790854 -0.239212 
253 0.163214 2.67727 3.94064 0.5 0 0 0 -0.222702 -1.89764 0.00968588 
498 2.47241 3.56394 4.29258 0.5 0 0 0 -1.20947 -2.02104 -0.68038 
255 0.213919 3.66474 4.84726 0.5 0 0 0 0.696278 0.260047 1.0416 
256 2.32357 4.09436 4.60624 0.5 0 0 0 -2.25488 -0.685992 -0.152639 
257 1.27313 4.24125 4.86155 0.5 0 0 0 -0.926736 -1.02028 1.44443 
260 4.00548 -0.156978 0.919827 0.5 0 0 0 -0.224117 -2.77566 0.556827 
261 3.19555 2.28939 1.12979 0.5 0 0 0 -0.766301 0.0920803 1.34748 
262 4.78766 2.0216 0.404296 0.5 0 0 0 1.76573 0.433312 -1.08046 
263 4.86348 0.626849 0.98959 0.5 0 0 0 1.13946 -1.77799 0.856625 
264 3.25884 0.915973 0.201991 0.5 0 0 0 -0.77321 0.955037 -0.970828 
265 4.90554 1.41686 1.11291 0.5 0 0 0 1.84991 0.29341 1.42065 
266 4.83436 0.647198 -0.0129262 0.5 0 0 0 0.867905 -0.263289 -3.22915 
267 3.45728 1.79731 0.886207 0.5 0 0 0 -1.61346 -0.35616 0.380743 
268 2.89322 0.522866 0.844903 0.5 0 0 0 -0.153669 -0.397539 1.69463 
269 3.96982 1.81192 0.224055 0.5 0 0 0 -1.04673 -0.483305 -2.25334 
270 3.93633 1.90245 1.01936 0.5 0 0 0 -0.967766 0.532192 1.32247 
293 3.0209 2.402 0.572195 0.5 0 0 0 -0.796783 -0.433165 0.208573 
272 4.42309 1.79276 0.74169 0.5 0 0 0 0.0471612 0.71877 0.202833 
273 4.85213 1.36363 0.800134 0.5 0 0 0 1.45539 -0.322711 -0.105083 
274 2.68345 0.714079 0.824466 0.5 0 0 0 0.231249 -0.0903649 1.49875 
275 2.53788 2.34775 0.0564513 0.5 0 0 0 -0.496818 -1.07395 -2.05815 
276 5.08107 0.0669207 0.787803 0.5 0 0 0 1.1427 -1.6657 0.654527 
294 3.1399 0.0914974 0.349254 0.5 0 0 0 0.150646 -2.31545 -0.195647 
278 3.60827 1.88445 0.935526 0.5 0 0 0 -1.47464 -0.0204865 0.739822 
279 3.71217 0.457468 0.17155 0.5 0 0 0 0.354188 -1.32191 -1.49394 
295 2.73142 1.13214 0.898663 0.5 0 0 0 -0.159659 0.170709 0.868992 
281 3.0564 0.151206 0.970867 0.5 0 0 0 -0.451426 -1.93762 1.77543 
282 3.8744 1.69556 1.09783 0.5 0 0 0 -1.31084 0.0497868 1.41508 
283 3.80613 2.33927 -0.181274 0.5 0 0 0 -1.1012 -0.928725 -3.77638 
284 4.16863 2.09976 0.500958 0.5 0 0 0 -0.298071 0.731257 -0.333609 
285 3.41145 2.33265 0.439947 0.5 0 0 0 -1.11927 -0.145078 -0.370701 
286 3.72184 0.963263 0.427498 0.5 0 0 0 -1.14011 -0.231045 -0.451802 
287 4.34117 1.03841 0.421523 0.5 0 0 0 -0.486962 -1.23546 -1.49509 
288 4.07944 1.6191 1.03376 0.5 0 0 0 -1.10339 0.123652 1.24639 
289 4.36668 1.05293 0.596494 0.5 0 0 0 -0.63719 -1.32412 -0.787544 
290 3.33103 0.992292 0.623104 0.5 0 0 0 -1.2218 0.311969 0.681974 
291 2.90505 1.00379 0.0831419 0.5 0 0 0 -0.432348 1.52795 -1.7816 
297 3.16281 0.422647 1.81526 0.5 0 0 0 -1.29628 -1.55319 0.777124 
298 3.83873 2.08749 2.17161 0.5 0 0 0 -1.14486 -0.142796 1.0444 
299 3.06609 0.732192 2.23274 0.5 0 0 0 -0.806987 -0.563645 1.53064 
323 3.16958 1.7184 1.55878 0.5 0 0 0 -0.674016 -0.158867 1.15615 
301 3.32709 1.70196 2.15388 0.5 0 0 0 -0.572205 0.0774397 1.27871 
302 3.70478 0.970469 1.80799 0.5 0 0 0 -0.872645 0.195386 1.52382 
303 3.80396 0.847812 1.9442 0.5 0 0 0 -0.641851 0.0391958 1.64935 
292 4.33293 1.2853 1.247 0.5 0 0 0 -0.63973 -0.24934 1.77525 
305 4.06196 1.45734 1.37117 0.5 0 0 0 -1.02103 0.152815 2.0816 
306 4.61121 1.24738 1.92466 0.5 0 0 0 0.787674 -0.045265 1.55539 
307 4.02807 0.00290909 2.16168 0.5 0 0 0 -1.98922 -2.04563 -0.125269 
308 4.72506 0.10443 2.27495 0.5 0 0 0 0.0573821 -0.247074 0.0162197 
309 3.95474 0.747128 1.92068 0.5 0 0 0 -0.468745 -0.276006 1.65567 
310 4.61075 2.32872 1.97826 0.5 0 0 0 0.484488 -0.142865 0.410055 
311 3.53786 2.25907 2.09171 0.5 0 0 0 -0.893478 0.158263 1.12888 
321 4.85074 -0.0225674 2.20583 0.5 0 0 0 0.482395 -0.65086 -0.309892 
313 2.56726 1.50595 2.20377 0.5 0 0 0 0.109507 0.00599242 1.31397 
320 2.69246 1.31431 1.87261 0.5 0 0 0 0.0635837 -0.0689164 0.908761 
315 3.26739 0.871674 1.95479 0.5 0 0 0 -0.804998 -0.121803 1.16742 
316 4.50044 1.00423 2.30411 0.5 0 0 0 0.307779 0.021656 0.921445 
317 4.42454 1.96835 2.33396 0.5 0 0 0 -0.426077 -0.757592 0.429066 
318 3.62757 0.647103 1.4244 0.5 0 0 0 -1.29711 -0.894221 0.717619 
319 3.17122 2.16817 1.97116 0.5 0 0 0 -0.361794 0.250643 1.24403 
271 4.89444 1.59838 1.20693 0.5 0 0 0 1.99261 1.05746 1.86766 
19 2.58919 1.86326 1.1735 0.5 0 0 0 0.0130779 -0.264312 0.539888 
280 3.82517 0.808424 1.18765 0.5 0 0 0 -1.36639 -0.816558 0.795782 
300 4.20682 2.38482 1.22812 0.5 0 0 0 -0.0437855 0.850164 1.85781 
296 4.29953 0.620875 1.17349 0.5 0 0 0 -0.391213 -1.69167 0.799858 
277 3.47974 2.13585 1.17679 0.5 0 0 0 -1.0878 0.31179 1.56499 
324 4.2005 1.07209 3.60419 0.5 0 0 0 -1.49449 0.447593 -0.557455 
325 3.13527 0.346659 3.34054 0.5 0 0 0 -3.12543 -1.26461 1.33762 
326 3.6674 1.472 3.67458 0.5 0 0 0 -1.94333 -0.405535 -0.0547242 
327 4.15864 1.37272 2.56514 0.5 0 0 0 -0.879735 -0.248795 0.532213 
328 3.56054 0.74607 2.82266 0.5 0 0 0 -1.2303 0.19738 0.970872 
329 4.6547 1.85821 2.76121 0.5 0 0 0 0.287454 -1.60691 -0.422626 
330 3.37922 1.61927 3.26273 0.5 0 0 0 -1.49018 -0.393451 0.612964 
331 4.42015 1.68675 3.2659 0.5 0 0 0 -1.11423 -1.26897 -0.407883 
332 4.72992 0.335374 2.57276 0.5 0 0 0 0.295634 0.868846 -0.287338 
333 2.66871 0.745663 3.45055 0.5 0 0 0 -3.12684 -1.52282 2.19034 
334 4.39709 0.492243 3.23253 0.5 0 0 0 -0.533091 0.856191 -1.84112 
335 5.05886 2.33764 2.86349 0.5 0 0 0 3.04181 -1.00718 -0.903872 
336 4.0552 0.349995 3.25553 0.5 0 0 0 -1.75579 0.276346 -0.965957 
350 2.94786 1.6205 2.67099 0.5 0 0 0 -0.33191 -0.231861 1.44436 
338 2.75766 1.04702 3.7024 0.5 0 0 0 -3.05279 -1.44822 1.35405 
339 2.70522 0.895149 2.70661 0.5 0 0 0 -1.0301 -1.15822 2.43865 
340 2.93399 1.02899 3.59673 0.5 0 0 0 -2.76064 -1.00175 1.23853 
341 4.47473 1.9948 3.43292 0.5 0 0 0 -1.11104 -1.62639 0.0347223 
342 4.92133 1.88469 3.61398 0.5 0 0 0 1.08788 -1.75817 0.255112 
343 3.24145 1.5906 2.6238 0.5 0 0 0 -0.676344 -0.18741 1.25356 
349 4.1968 -0.0384051 3.21982 0.5 0 0 0 -1.68687 -1.34803 -1.61065 
345 3.47824 0.0426672 3.05535 0.5 0 0 0 -2.73642 -2.21438 0.525271 
346 3.69694 0.812518 3.53319 0.5 0 0 0 -2.44888 0.196084 0.133077 
347 2.80181 1.66492 2.63693 0.5 0 0 0 -0.102878 -0.190692 1.44765 
348 2.63913 1.65882 2.67643 0.5 0 0 0 0.0403115 -0.424344 1.55995 
352 4.94759 1.25163 3.70679 0.5 0 0 0 1.53044 -0.0804546 -0.468103 
469 4.12805 2.45323 2.60915 0.5 0 0 0 -1.94941 -0.327557 -0.220532 
304 2.73538 0.148586 2.52863 0.5 0 0 0 -1.73141 -2.6771 1.93471 
384 4.55125 0.313801 3.78158 0.5 0 0 0 -1.08601 0.714421 -1.93762 
351 4.81681 0.433175 4.13216 0.5 0 0 0 0.535567 1.28442 -0.255568 
381 3.28515 1.87301 4.23842 0.5 0 0 0 -1.69197 -1.05933 -1.04764 
353 3.42787 1.25797 4.13506 0.5 0 0 0 -2.41257 -0.741737 -0.231677 
354 3.93464 1.93868 4.94641 0.5 0 0 0 -0.46933 -0.731159 1.15886 
355 4.89446 2.33384 4.0075 0.5 0 0 0 0.313441 -1.3629 1.33113 
356 4.4518 -0.17315 4.76968 0.5 0 0 0 -1.85988 -2.81266 1.58587 
383 4.1318 0.484744 4.9929 0.5 0 0 0 -2.19941 0.864399 2.56483 
358 5.09289 1.5728 4.75783 0.5 0 0 0 1.28543 -0.321763 1.65898 
359 3.01964 1.92093 4.29427 0.5 0 0 0 -1.64715 -1.29445 -1.07776 
360 4.55823 0.294838 4.19705 0.5 0 0 0 -1.20754 0.68071 -0.312491 
361 5.0107 2.27456 4.16294 0.5 0 0 0 0.815467 -1.71616 1.74501 
362 4.17114 0.254776 4.2464 0.5 0 0 0 -3.31804 0.0157248 -0.205741 
363 3.91131 0.319092 4.53698 0.5 0 0 0 -4.12054 -0.228924 0.557691 
364 2.66474 1.94635 4.90104 0.5 0 0 0 -2.03357 -1.87525 0.775547 
365 3.1697 1.79581 4.59542 0.5 0 0 0 -1.63188 -1.52832 -0.42911 
366 4.61143 0.911563 4.1486 0.5 0 0 0 -0.161793 1.71039 0.501407 
367 3.81678 -0.0602456 3.84489 0.5 0 0 0 -4.38252 -2.21106 0.18918 
368 4.0643 1.84855 4.28442 0.5 0 0 0 -1.15827 -0.718847 -0.017737 
369 3.49421 1.48242 4.35656 0.5 0 0 0 -1.88367 -0.953648 -0.468809 
370 2.83 0.443284 4.66007 0.5 0 0 0 -3.54673 -1.08069 0.0899758 
371 4.72583 0.250737 4.64224 0.5 0 0 0 0.354023 0.645341 1.6131 
382 3.88419 0.944612 3.84084 0.5 0 0 0 -2.45413 0.362214 -0.0352784 
373 4.63289 0.30049 3.94053 0.5 0 0 0 -0.776867 0.73441 -1.37532 
374 4.53402 0.486199 4.04811 0.5 0 0 0 -1.13014 1.24205 -0.778813 
375 5.03447 0.0100999 4.98312 0.5 0 0 0 3.59475 -1.18719 3.20946 
376 4.10392 1.60789 4.6828 0.5 0 0 0 -0.582512 -0.440841 0.453457 
377 4.01537 2.10371 5.10766 0.5 0 0 0 -0.109865 -0.494932 2.13392 
378 2.9176 1.64264 5.01092 0.5 0 0 0 -1.92864 -2.16827 1.57483 
379 3.53378 0.926495 5.07408 0.5 0 0 0 -2.38335 -0.425522 1.83417 
380 3.06477 2.29047 4.29765 0.5 0 0 0 -1.41923 -1.25235 -1.06824 
385 2.72743 3.16667 0.678624 0.5 0 0 0 -0.259406 0.0375918 0.477871 
386 4.46001 4.72631 0.049973 0.5 0 0 0 0.670275 0.329379 -0.709603 
387 3.86554 3.94207 0.138872 0.5 0 0 0 0.119295 -0.411053 -0.428003 
388 4.32021 4.0172 1.07919 0.5 0 0 0 -0.817752 -0.172877 -1.10386 
389 3.81849 3.08829 0.794952 0.5 0 0 0 -0.593915 0.0886848 0.755438 
390 3.64731 4.11213 0.128382 0.5 0 0 0 0.0900856 -0.597335 0.0534266 
391 5.05322 4.32999 1.07581 0.5 0 0 0 2.14328 1.08721 -1.29536 
392 4.88878 2.67893 0.295459 0.5 0 0 0 1.32145 0.365185 -0.297554 
393 4.52615 4.58372 0.677723 0.5 0 0 0 -0.0148409 1.27505 -0.991679 
394 2.76375 2.92559 1.08836 0.5 0 0 0 0.0172048 -0.151015 1.30115 
395 4.91111 2.95984 0.998602 0.5 0 0 0 1.35505 -0.497239 1.14157 
396 4.08242 3.07659 0.017515 0.5 0 0 0 -0.343928 0.450856 -1.52541 
397 5.07976 4.04744 0.825052 0.5 0 0 0 2.38251 -0.062438 -1.6307 
398 2.92734 4.94156 0.00822192 0.5 0 0 0 -0.477078 2.0375 -1.50091 
399 3.38818 4.92148 0.588323 0.5 0 0 0 0.578042 1.09103 -0.330997 
400 3.33767 4.51274 0.419336 0.5 0 0 0 0.195517 -0.603888 0.275914 
401 3.37374 2.65717 0.0719937 0.5 0 0 0 -0.978838 -0.396981 -1.65035 
402 2.72655 3.11912 0.688006 0.5 0 0 0 -0.262877 0.00999882 0.53753 
403 4.76397 3.22272 0.182964 0.5 0 0 0 0.43141 0.481352 -1.34416 
404 4.20748 2.63552 0.142012 0.5 0 0 0 -0.164161 0.531457 -0.894072 
405 4.05945 4.87616 -0.0238889 0.5 0 0 0 0.282895 0.873263 -0.164253 
406 4.20553 3.58907 1.03062 0.5 0 0 0 -0.887453 -0.743147 -0.290757 
407 2.81353 4.21131 -0.0113283 0.5 0 0 0 -0.346715 -0.769314 -1.2504 
408 4.99349 3.11745 0.424443 0.5 0 0 0 1.24843 -0.0506826 -0.253529 
409 3.77206 3.30856 0.562627 0.5 0 0 0 -0.535953 0.0681189 0.036205 
410 3.87007 2.62726 0.885771 0.5 0 0 0 -0.532589 0.714157 1.23172 
411 4.18383 2.65307 1.06401 0.5 0 0 0 -0.135403 0.559456 1.46074 
412 3.0916 3.18162 0.446709 0.5 0 0 0 -0.480458 0.0500657 0.0615118 
413 2.9187 3.71694 0.925144 0.5 0 0 0 -0.22571 -0.363153 0.330765 
414 2.70955 4.48431 0.643286 0.5 0 0 0 -0.10722 -0.930294 0.142364 
415 2.6388 4.93667 1.11349 0.5 0 0 0 -1.0792 0.886342 -0.319941 
417 3.0858 3.60769 0.193227 0.5 0 0 0 -0.439156 -0.300425 -0.622334 
418 4.81606 4.17573 1.6567 0.5 0 0 0 0.591415 -0.344368 0.0452503 
419 2.97104 3.77732 2.20127 0.5 0 0 0 0.527188 -1.6775 0.597795 
420 4.87673 3.94974 2.41375 0.5 0 0 0 0.274884 -1.5764 0.677275 
421 4.8751 4.57038 1.80973 0.5 0 0 0 1.01158 1.67479 -0.455608 
422 4.26911 4.54908 1.75393 0.5 0 0 0 0.210613 0.978853 0.159585 
423 3.64883 4.60707 1.39654 0.5 0 0 0 0.361029 0.13371 -1.23185 
424 4.35686 3.80958 1.43822 0.5 0 0 0 -0.72924 -1.16539 0.524536 
425 2.78397 3.15329 1.33965 0.5 0 0 0 0.223688 -0.293645 1.28225 
426 3.24265 4.55351 2.11576 0.5 0 0 0 0.105227 -0.908438 1.66019 
427 3.29534 4.61706 1.65763 0.5 0 0 0 -0.180092 -0.610716 -0.144509 
428 4.92767 4.3107 2.00987 0.5 0 0 0 0.632447 -0.19911 0.0995133 
429 3.19585 4.83427 1.72876 0.5 0 0 0 -0.356618 0.283534 0.170772 
430 2.95764 4.84836 1.32107 0.5 0 0 0 -0.87597 0.354236 -0.984334 
431 3.50765 2.67592 2.37491 0.5 0 0 0 -0.874516 -0.138891 0.589053 
432 3.95776 2.50817 1.47999 0.5 0 0 0 -0.674999 0.427701 1.94302 
433 2.74246 4.35531 2.39777 0.5 0 0 0 -0.216757 -1.01736 0.873602 
434 3.13473 4.5078 1.94043 0.5 0 0 0 -0.332038 -1.07925 0.870723 
435 3.61635 4.6595 1.62657 0.5 0 0 0 0.53213 0.0850802 -0.176548 
436 3.34108 3.27577 2.05506 0.5 0 0 0 -0.141773 -0.940374 0.961181 
437 3.80656 3.98332 1.78453 0.5 0 0 0 -0.714638 -1.51627 0.940803 
438 5.00233 3.52831 1.86043 0.5 0 0 0 1.73066 -1.93283 0.236804 
439 4.48504 4.48045 2.45637 0.5 0 0 0 -0.699926 0.100613 1.44692 
440 2.64624 3.87469 2.23009 0.5 0 0 0 0.374734 -1.16795 0.247915 
441 2.92967 4.74914 2.12021 0.5 0 0 0 -0.681676 -0.00189042 1.10791 
442 3.06368 4.58908 1.38181 0.5 0 0 0 -0.702526 -0.753026 -1.0575 
443 3.87393 4.1195 1.9644 0.5 0 0 0 -0.426216 -1.36559 1.44374 
444 2.67807 4.3564 1.89243 0.5 0 0 0 -0.768882 -0.933538 -0.157708 
445 4.42925 3.75366 1.23855 0.5 0 0 0 -0.571503 -1.03453 -0.0131127 
446 4.16137 3.88015 2.29142 0.5 0 0 0 -0.971902 -1.56513 1.40268 
447 3.98414 3.83381 1.7099 0.5 0 0 0 -1.00351 -1.50696 1.02253 
448 4.54614 2.8292 2.22811 0.5 0 0 0 -0.167321 0.273004 -0.265167 
449 3.08114 3.86142 1.29596 0.5 0 0 0 -0.376898 -0.892194 0.0159903 
450 3.48301 3.36566 1.39671 0.5 0 0 0 -0.555959 -0.723569 1.08945 
416 4.4394 3.86706 1.2623 0.5 0 0 0 -0.553551 -0.823882 -0.162325 
203 2.54257 2.99444 1.48494 0.5 0 0 0 0.543104 -0.3499 1.11907 
322 2.8968 2.52125 1.8635 0.5 0 0 0 0.201456 -0.0968818 1.34305 
314 4.95152 2.49957 1.43986 0.5 0 0 0 2.18037 0.017028 0.881101 
479 2.67201 3.66334 3.67497 0.5 0 0 0 -0.20329 -1.64081 -0.627294 
453 4.81672 2.73412 3.2535 0.5 0 0 0 0.83171 0.5715 -0.423173 
454 3.96861 3.31053 2.81272 0.5 0 0 0 -1.04523 -0.0946997 0.106193 
455 2.9786 4.28332 3.66019 0.5 0 0 0 -0.726512 -0.932003 -1.02452 
456 2.78682 4.65171 3.10914 0.5 0 0 0 -0.203216 -0.442468 0.32636 
457 3.04669 4.89391 2.94079 0.5 0 0 0 0.553136 0.687052 0.706073 
458 3.38148 3.15475 2.90913 0.5 0 0 0 -0.536569 -0.877632 0.204812 
459 4.79833 4.06689 2.63941 0.5 0 0 0 -0.128102 -1.06 1.14757 
460 4.33881 2.93316 3.14829 0.5 0 0 0 -1.28472 1.05585 -0.479663 
461 4.46962 4.44766 2.57145 0.5 0 0 0 -0.804014 -0.0312709 1.57334 
462 4.70144 4.99917 2.54254 0.5 0 0 0 0.456864 4.60251 1.38148 
463 4.41339 2.63817 2.73774 0.5 0 0 0 -1.22618 -0.00237803 -0.778403 
464 3.08229 3.82563 3.12878 0.5 0 0 0 0.299027 -1.73468 -0.110345 
465 3.5702 3.9329 3.56068 0.5 0 0 0 0.454633 -1.22727 -1.19883 
466 4.19208 2.57746 3.01758 0.5 0 0 0 -2.12604 -0.251416 -0.640563 
467 3.47467 4.4369 3.46202 0.5 0 0 0 0.8711 -0.333501 -0.872551 
468 4.83204 2.71881 2.53955 0.5 0 0 0 1.39738 0.238194 -0.966814 
344 4.18941 2.52632 3.41191 0.5 0 0 0 -2.05255 -0.494527 0.00247541 
470 4.4847 2.5291 3.64937 0.5 0 0 0 -1.0599 -0.473924 0.538411 
471 3.84037 4.76542 3.03905 0.5 0 0 0 0.428619 1.21802 0.489415 
451 2.79986 3.7981 2.4996 0.5 0 0 0 0.673187 -1.50345 0.668473 
473 2.91846 5.08609 3.74857 0.5 0 0 0 -0.149604 2.67789 0.232555 
474 4.50733 2.85756 3.6255 0.5 0 0 0 -0.710939 1.04262 0.308589 
478 3.98902 2.61315 3.41298 0.5 0 0 0 -2.4994 -0.215985 -0.0580698 
476 4.67836 3.70549 3.01079 0.5 0 0 0 0.0893684 -0.00658961 0.817243 
477 2.80107 4.25512 2.56629 0.5 0 0 0 0.0882551 -1.26942 0.940768 
337 4.00855 2.47713 3.28526 0.5 0 0 0 -2.56721 -0.587882 -0.210887 
475 4.80452 4.05407 3.78608 0.5 0 0 0 0.939252 -0.0504985 -0.155888 
480 3.58953 3.8089 4.79312 0.5 0 0 0 1.2808 -1.32211 0.955283 
481 4.13979 3.02608 4.95778 0.5 0 0 0 -0.267997 -1.47021 2.14238 
482 3.77861 3.59844 4.0078 0.5 0 0 0 0.420725 -0.998577 -1.09705 
483 4.4053 4.8875 4.10612 0.5 0 0 0 0.26299 0.500347 -1.7515 
484 3.17257 4.00243 3.96811 0.5 0 0 0 -0.446888 -1.44901 -1.51127 
485 3.66541 3.93623 4.40886 0.5 0 0 0 1.30972 -0.83604 -0.600792 
486 4.72062 4.70312 4.34976 0.5 0 0 0 -0.0982579 -0.899082 -1.36618 
487 3.2799 3.12529 4.27903 0.5 0 0 0 -0.664691 -1.98189 -0.831774 
488 4.67013 3.1766 4.66622 0.5 0 0 0 0.0223686 0.0686579 0.971305 
489 3.35019 4.83711 5.0897 0.5 0 0 0 -0.173117 3.09071 3.98362 
490 3.58041 3.44622 4.24509 0.5 0 0 0 -0.0362978 -1.73965 -0.884375 
491 3.71317 4.11091 4.82948 0.5 0 0 0 2.05161 -0.117163 1.33701 
492 2.66401 3.19064 4.79124 0.5 0 0 0 -1.28713 -2.59109 0.923022 
493 4.51494 3.66925 4.72374 0.5 0 0 0 1.18593 0.523269 0.678242 
494 3.42613 3.64516 5.12501 0.5 0 0 0 0.777831 -2.09059 3.3119 
495 2.68331 4.06725 4.41672 0.5 0 0 0 -1.05387 -0.908444 -1.15869 
496 2.62238 3.80937 4.95755 0.5 0 0 0 -1.37846 -1.77677 1.45777 
497 3.38169 4.37698 3.94441 0.5 0 0 0 0.446713 -0.250723 -1.31617 
357 3.44985 2.4954 4.63855 0.5 0 0 0 -0.880715 -1.29878 0.135067 
499 3.95608 2.50646 4.05607 0.5 0 0 0 -1.53388 -0.749101 0.251148 
500 4.65468 4.93223 4.97398 0.5 0 0 0 -0.725097 -0.11952 1.6928 
501 4.62616 4.81561 4.90394 0.5 0 0 0 -0.283523 -0.293759 1.29274 
502 2.68187 3.97567 4.77886 0.5 0 0 0 -0.999026 -1.16853 0.287559 
503 2.93975 4.25916 4.55902 0.5 0 0 0 -0.375735 -0.128677 -0.685953 
504 3.55114 3.30536 4.29101 0.5 0 0 0 -0.234604 -1.87488 -0.698654 
505 3.69576 4.82259 4.28552 0.5 0 0 0 1.42033 1.77464 -0.194306 
506 4.09435 4.02173 3.97424 0.5 0 0 0 1.82459 0.0293967 -0.947353 
507 4.9127 2.81897 3.94309 0.5 0 0 0 0.483239 0.990086 0.557386 
508 2.87514 3.92811 4.68636 0.5 0 0 0 -0.39185 -1.40776 -0.269411 
509 3.30514 4.7555 4.40391 0.5 0 0 0 0.178895 1.78595 -0.100225 
510 3.0845 4.49512 4.06088 0.5 0 0 0 -0.596062 0.201675 -1.22218 
511 2.64438 3.03167 4.50455 0.5 0 0 0 -1.03003 -2.20833 -0.1262 
512 2.666 2.82481 4.36838 0.5 0 0 0 -0.84708 -1.88602 -0.442514 
513 4.86973 3.02687 4.2985 0.5 0 0 0 0.304382 1.03372 0.591201 
ITEM: TIMESTEP
60055
ITEM: NUMBER OF ATOMS
512
ITEM: BOX BOUNDS ss ss ss
-2.1589663964569298e-02 5.0933846546203574e+00
-1.7364439631764822e-01 5.0865807164741392e+00
-1.8176655292622759e-01 5.1255068607205727e+00
ITEM: ATOMS id x y z width_SPH x_COM y_COM z_COM vx vy vz 
2 0.301066 0.775936 0.24686 0.5 0 0 0 -1.37935 -0.579525 0.068786 
3 0.259443 1.29101 0.60572 0.5 0 0 0 -2.08441 -0.964681 0.287737 
4 0.787481 1.24764 1.03676 0.5 0 0 0 -0.386236 -0.340106 0.74921 
5 1.73538 1.8934 0.823938 0.5 0 0 0 0.958572 0.352109 0.221126 
6 0.274203 2.07866 0.848528 0.5 0 0 0 -2.11847 0.860431 1.16653 
7 0.546658 1.58454 0.342549 0.5 0 0 0 -0.688689 -0.372091 -0.682113 
8 1.33606 0.2259 0.77336 0.5 0 0 0 0.050031 -0.685427 1.18412 
9 1.53468 0.986431 0.331381 0.5 0 0 0 0.774088 0.260726 -0.747349 
10 1.11158 1.53603 -0.0685464 0.5 0 0 0 0.983793 -0.388501 -2.84957 
11 1.39605 1.22774 0.796168 0.5 0 0 0 0.78234 0.130042 0.282636 
38 1.08307 2.32881 0.776647 0.5 0 0 0 0.516878 0.421795 0.862955 
41 2.23083 2.37931 1.02289 0.5 0 0 0 0.351376 -0.202259 0.556572 
14 1.26049 2.06321 0.329272 0.5 0 0 0 1.32268 0.117818 -0.380268 
15 1.54694 0.0394801 0.976117 0.5 0 0 0 1.23301 -1.5069 2.12374 
37 0.63691 0.390267 0.353982 0.5 0 0 0 -1.47736 -0.586545 0.379697 
17 1.08139 0.119437 0.519715 0.5 0 0 0 -1.29667 -0.687404 0.538482 
18 1.50826 -0.0164854 0.0459008 0.5 0 0 0 0.0210445 -0.949793 -1.15233 
40 1.99513 0.669575 0.604461 0.5 0 0 0 1.39266 -0.197939 0.904853 
20 0.369825 1.75927 1.04789 0.5 0 0 0 -1.73137 0.350026 1.28567 
21 1.878 1.79469 0.745542 0.5 0 0 0 1.08074 0.226363 -0.00311931 
22 0.552788 2.4223 0.409936 0.5 0 0 0 -0.558252 0.212978 0.657483 
39 0.791151 1.5785 0.810199 0.5 0 0 0 0.140692 0.22759 0.408957 
24 0.0034168 0.598288 0.0816953 0.5 0 0 0 -2.72806 -0.779919 -0.13376 
25 1.95436 0.260602 0.581877 0.5 0 0 0 1.6841 -0.755024 1.36425 
26 1.35581 0.890949 0.584786 0.5 0 0 0 0.399618 0.019357 -0.00984235 
27 0.864667 1.8141 0.900151 0.5 0 0 0 0.377415 0.670909 0.691828 
28 2.15663 0.959745 0.359459 0.5 0 0 0 0.88358 0.501607 -0.229976 
29 2.42448 1.35995 0.269412 0.5 0 0 0 0.107996 1.01779 -1.19047 
30 1.3992 0.242434 0.884058 0.5 0 0 0 0.488747 -0.821788 1.45704 
31 1.65837 1.51848 0.685685 0.5 0 0 0 1.20242 0.362155 0.010193 
32 1.30153 2.09592 0.250958 0.5 0 0 0 1.47639 0.00634907 -0.708902 
33 1.46276 1.14326 0.721758 0.5 0 0 0 0.856846 0.0701502 0.199772 
34 0.622256 2.08924 -0.0271183 0.5 0 0 0 -0.44799 -0.575387 -2.02295 
35 1.77116 0.0448106 -0.128813 0.5 0 0 0 1.17617 -0.864695 -2.25465 
36 0.968307 0.88323 0.0786208 0.5 0 0 0 0.0955899 0.0328282 -1.47965 
144 0.0212106 2.45507 0.114575 0.5 0 0 0 -3.16823 -0.780041 -1.09895 
43 1.54523 0.0677321 1.95231 0.5 0 0 0 1.5468 -2.05898 2.27936 
44 1.36472 2.35713 1.90941 0.5 0 0 0 0.773329 -0.347966 0.538683 
45 1.3338 1.11988 1.48552 0.5 0 0 0 0.476513 -0.198911 1.55749 
46 1.38771 2.23672 2.32625 0.5 0 0 0 0.773092 -0.849675 1.17322 
47 1.3959 1.26088 1.91896 0.5 0 0 0 -0.099848 -0.503567 2.36787 
48 1.18006 0.812494 1.47865 0.5 0 0 0 0.169839 -0.426957 1.76228 
49 2.47935 2.34211 1.69817 0.5 0 0 0 0.558048 -0.173275 1.19153 
50 0.891253 0.608882 1.67018 0.5 0 0 0 -1.07944 -0.542201 2.51081 
51 1.96892 0.939589 1.80624 0.5 0 0 0 0.474693 -1.09681 1.64682 
52 0.67161 1.64139 1.3334 0.5 0 0 0 -0.669213 0.0976923 1.61567 
53 2.1247 1.44177 1.71791 0.5 0 0 0 0.456225 0.123618 0.952313 
54 0.390189 0.0429212 2.20343 0.5 0 0 0 -1.55319 -1.25141 0.55791 
55 1.73184 1.84185 1.70752 0.5 0 0 0 0.650546 0.164921 0.906606 
16 2.25736 2.0163 1.1787 0.5 0 0 0 0.457652 -0.0719187 0.552914 
57 2.38803 1.07707 1.62868 0.5 0 0 0 0.472645 -0.693349 0.755417 
58 1.78528 0.149198 2.2391 0.5 0 0 0 1.03274 -2.0228 2.71642 
59 1.24235 0.582601 2.37878 0.5 0 0 0 0.26052 -0.272366 3.92147 
60 0.669153 1.69642 1.57452 0.5 0 0 0 -0.979991 -0.221865 2.09612 
61 1.33412 0.300401 1.71432 0.5 0 0 0 0.887234 -1.21206 2.2636 
78 1.05745 1.89882 1.61753 0.5 0 0 0 0.147242 0.000552104 1.16135 
63 2.01583 1.57785 2.03482 0.5 0 0 0 0.300794 -0.0541639 1.40504 
64 0.517038 0.357615 2.37907 0.5 0 0 0 -0.565351 0.530357 2.621 
65 1.06184 1.77545 2.19873 0.5 0 0 0 -0.468635 -1.40531 2.12138 
66 2.34198 0.861947 2.01783 0.5 0 0 0 0.0265155 -1.35149 1.67452 
67 1.10298 0.688533 2.02627 0.5 0 0 0 -0.327983 -0.221893 3.45712 
68 2.05806 1.47707 1.72367 0.5 0 0 0 0.443902 0.165853 1.00093 
69 1.40306 0.742946 2.26941 0.5 0 0 0 -0.0127901 -0.601999 3.56712 
77 0.3874 1.54418 1.42854 0.5 0 0 0 -2.22897 -0.477381 2.42534 
71 0.737611 0.532107 1.43847 0.5 0 0 0 -1.94548 -0.911228 1.66726 
72 1.00639 2.24108 2.44178 0.5 0 0 0 0.00219717 -1.25808 1.46174 
73 2.05738 1.03319 1.69108 0.5 0 0 0 0.568086 -0.882769 1.23015 
74 2.23184 1.01522 2.36173 0.5 0 0 0 -0.384268 -1.45771 2.51912 
75 0.0297767 2.31121 2.22173 0.5 0 0 0 -2.35311 -1.61493 0.705461 
76 0.971336 1.10815 1.45355 0.5 0 0 0 -0.382612 -0.281279 1.81095 
12 1.34528 1.51116 1.24545 0.5 0 0 0 0.683776 0.377343 0.874136 
13 1.86621 1.32627 1.25809 0.5 0 0 0 0.997066 -0.0560304 0.662307 
312 2.49224 -0.0785371 1.66921 0.5 0 0 0 -0.146817 -2.94609 1.29968 
42 1.22906 0.726342 1.23555 0.5 0 0 0 0.353157 -0.502418 1.15911 
79 1.43519 2.24238 3.26306 0.5 0 0 0 0.0223942 -2.2894 1.21442 
80 0.722432 0.183722 2.71176 0.5 0 0 0 1.47955 0.523554 2.97282 
81 1.07277 0.414988 2.90579 0.5 0 0 0 1.6268 0.318628 4.42185 
82 1.30862 1.94324 2.75295 0.5 0 0 0 -0.307581 -2.04021 1.91007 
83 1.70365 2.04278 2.87993 0.5 0 0 0 0.281043 -1.52934 1.51931 
84 1.24767 0.840103 3.71739 0.5 0 0 0 1.33465 -3.77981 4.56299 
85 2.02471 1.8402 2.82633 0.5 0 0 0 0.380653 -1.35918 1.644 
106 1.36419 1.31963 2.61107 0.5 0 0 0 -0.890072 -2.18683 3.25938 
87 0.898793 2.29176 3.34264 0.5 0 0 0 -0.293888 -2.93021 0.785308 
88 1.94612 1.3812 2.97941 0.5 0 0 0 -0.745034 -2.92614 2.85492 
89 1.47552 0.236475 3.78193 0.5 0 0 0 0.219625 1.79091 4.58146 
100 0.580248 2.16471 2.54006 0.5 0 0 0 -0.48655 -1.98834 1.75442 
91 1.72849 1.44584 2.74127 0.5 0 0 0 -0.619531 -2.43815 2.67736 
92 0.127773 2.09691 2.8373 0.5 0 0 0 -1.29463 -2.82382 1.55062 
93 0.715278 0.310069 2.79199 0.5 0 0 0 1.35815 0.930461 3.27146 
94 1.45135 1.94302 2.6258 0.5 0 0 0 0.0977481 -1.59543 1.72404 
95 2.18937 2.14759 3.16346 0.5 0 0 0 0.86831 -1.23578 1.36449 
96 0.949792 1.87739 2.59393 0.5 0 0 0 -0.661401 -2.26229 2.27313 
97 1.79656 0.470851 3.60665 0.5 0 0 0 -2.34282 -1.2884 5.27531 
98 0.27304 1.57185 2.88923 0.5 0 0 0 -0.472698 -2.69581 1.99023 
99 2.15148 1.76574 3.33724 0.5 0 0 0 -0.062353 -2.43033 1.94142 
105 0.748298 0.114088 3.1335 0.5 0 0 0 2.42403 0.805926 3.07574 
186 0.405525 2.44495 2.60322 0.5 0 0 0 -0.466382 -1.47825 1.20446 
102 1.8431 1.71237 3.01665 0.5 0 0 0 -0.358363 -2.4565 2.17476 
103 0.428587 1.0381 3.21399 0.5 0 0 0 1.28695 -1.2172 2.32733 
231 1.26226 2.35115 3.50858 0.5 0 0 0 0.166544 -2.64017 0.961354 
62 2.18333 1.76448 2.56415 0.5 0 0 0 0.450574 -0.647143 1.47221 
131 1.85477 1.6584 3.7735 0.5 0 0 0 -0.993896 -4.30606 2.03126 
56 2.44014 0.522583 2.48151 0.5 0 0 0 -0.939979 -1.83366 2.60204 
107 1.79925 0.179185 4.53986 0.5 0 0 0 -2.45831 2.41511 -3.09058 
108 1.07473 1.50091 4.4532 0.5 0 0 0 2.23003 -3.92929 -0.410835 
109 1.80422 0.539856 4.27432 0.5 0 0 0 -4.08403 -0.270133 -1.06243 
110 1.90998 0.686722 4.17965 0.5 0 0 0 -4.68718 -2.33703 0.535283 
139 1.00999 0.534254 4.84212 0.5 0 0 0 4.1839 -0.557503 -2.80622 
112 1.75817 0.698011 4.66544 0.5 0 0 0 -1.94937 -1.7847 -4.66982 
113 1.92757 1.25306 4.43647 0.5 0 0 0 -2.16259 -4.87598 -0.595469 
114 0.872985 0.925241 4.48012 0.5 0 0 0 4.9706 -2.01784 -2.19322 
115 1.84022 0.570508 4.46821 0.5 0 0 0 -3.73022 -0.563635 -3.38075 
116 0.780043 0.159622 4.3033 0.5 0 0 0 4.86746 0.454762 -1.14701 
117 0.976203 0.936286 4.21248 0.5 0 0 0 4.8898 -3.28015 -0.842702 
138 0.0273677 1.19268 4.38544 0.5 0 0 0 0.0333275 -1.92565 0.369716 
119 0.767833 1.80938 4.39848 0.5 0 0 0 1.55626 -2.82261 0.538753 
120 1.48918 0.684126 4.13282 0.5 0 0 0 0.291231 -2.81565 1.22408 
121 1.88098 0.77158 3.948 0.5 0 0 0 -3.89028 -3.61034 3.38606 
122 0.20365 -0.136025 4.07609 0.5 0 0 0 1.17963 -1.13958 0.140334 
123 1.22007 0.0987966 4.57304 0.5 0 0 0 3.27592 1.89727 -2.95653 
124 0.694209 0.489421 4.10319 0.5 0 0 0 4.98962 -0.112334 -0.715312 
125 1.57984 0.388101 4.1862 0.5 0 0 0 -1.13401 2.13376 0.184361 
126 1.32389 0.547611 4.31048 0.5 0 0 0 3.62937 -0.260645 -2.295 
127 1.22247 2.04544 4.70511 0.5 0 0 0 0.529181 -2.49876 0.73864 
128 1.13272 0.893332 4.24918 0.5 0 0 0 4.63173 -3.84403 -1.04826 
129 0.157206 1.59084 4.15841 0.5 0 0 0 1.00229 -2.69924 -0.13051 
130 0.546427 0.828484 4.34959 0.5 0 0 0 3.60339 -1.0314 -1.40437 
137 0.139755 2.14505 3.86316 0.5 0 0 0 -0.174338 -3.34832 -0.349438 
132 2.24816 1.8794 3.83284 0.5 0 0 0 -0.369851 -2.6551 1.08225 
133 1.36567 0.564188 4.27386 0.5 0 0 0 2.91133 -0.547866 -1.6711 
134 1.70918 2.16356 4.92569 0.5 0 0 0 -0.345946 -2.30075 0.355996 
135 2.26419 0.167802 4.66814 0.5 0 0 0 -2.70272 -0.457124 -0.97811 
136 1.59585 1.61783 4.25902 0.5 0 0 0 -0.174914 -5.05054 0.598246 
86 1.99544 1.44378 3.89321 0.5 0 0 0 -1.58183 -4.76348 2.01604 
252 1.97124 2.33461 4.62375 0.5 0 0 0 -0.380443 -2.50467 -0.187742 
372 2.44558 0.703631 4.33783 0.5 0 0 0 -4.58194 -1.31109 -0.490355 
111 1.47987 2.39444 3.94322 0.5 0 0 0 0.573446 -2.6044 1.12608 
90 1.33534 1.25023 3.83516 0.5 0 0 0 0.0441913 -5.92807 2.69821 
104 1.86758 1.04363 3.82194 0.5 0 0 0 -2.6525 -5.30359 3.62863 
118 2.50961 1.67312 4.55116 0.5 0 0 0 -2.00915 -2.35968 -0.414632 
101 1.63832 0.949622 3.80755 0.5 0 0 0 -1.76207 -5.38826 4.48029 
140 2.46899 2.49535 0.521337 0.5 0 0 0 -0.128928 -0.497135 0.0925397 
141 0.969154 3.25075 0.88121 0.5 0 0 0 -0.687547 -0.0542288 0.763205 
142 1.05819 3.61895 0.280845 0.5 0 0 0 0.0762467 0.567485 -0.305138 
143 0.613293 3.01274 0.597909 0.5 0 0 0 -0.779383 -0.0736842 1.18857 
167 1.34249 2.79902 0.683508 0.5 0 0 0 0.862661 -0.285241 0.459345 
168 1.60812 2.59703 0.915714 0.5 0 0 0 0.694665 -0.0649731 0.373868 
146 1.06775 3.21913 0.367263 0.5 0 0 0 0.565037 -0.407087 0.137554 
147 0.573209 4.49282 0.517003 0.5 0 0 0 1.15797 -0.171642 0.303743 
148 1.97431 3.78988 0.433881 0.5 0 0 0 0.683058 -0.368954 -0.379232 
149 0.683854 3.59681 0.0907929 0.5 0 0 0 -0.320037 1.0583 -0.716975 
150 1.89594 4.42723 0.80637 0.5 0 0 0 -0.262465 0.0303847 0.3571 
151 0.0449998 3.44437 0.106179 0.5 0 0 0 -1.64549 0.617959 -0.0465066 
152 1.35725 3.63101 1.14384 0.5 0 0 0 0.113062 -0.00934671 0.199475 
153 2.20121 4.40131 0.258874 0.5 0 0 0 -0.252431 -0.133622 -0.977994 
154 2.33911 4.58276 0.684232 0.5 0 0 0 -0.385055 -0.355663 0.2554 
155 1.29543 3.739 0.71187 0.5 0 0 0 -0.0563031 0.396051 0.295764 
156 0.448866 4.37763 1.05829 0.5 0 0 0 -0.637528 -0.993335 1.12883 
157 2.28878 2.65211 1.12402 0.5 0 0 0 0.333619 -0.230741 0.723522 
158 1.97601 4.15404 0.975268 0.5 0 0 0 0.404548 -0.540381 0.510194 
159 1.30202 3.80287 0.707773 0.5 0 0 0 -0.132026 0.516316 0.258975 
160 2.25978 2.64393 -0.07328 0.5 0 0 0 -0.478517 -0.501473 -2.67307 
23 0.962129 2.54199 0.248239 0.5 0 0 0 0.775322 -0.195286 -0.0476427 
162 1.69243 3.28376 0.688211 0.5 0 0 0 1.10819 -0.412027 0.186957 
163 0.0413277 4.44313 0.0101803 0.5 0 0 0 0.227756 -0.443081 -0.609399 
164 2.14712 2.84689 0.191517 0.5 0 0 0 -0.0992125 -0.121562 -1.10248 
165 0.0909591 3.27533 0.313753 0.5 0 0 0 -1.79353 0.168409 0.889025 
166 2.19765 3.29178 0.984012 0.5 0 0 0 0.42667 -0.0728783 0.43759 
169 0.463452 3.13038 2.39827 0.5 0 0 0 -0.761691 0.716273 0.0716737 
170 1.91534 3.15615 2.11444 0.5 0 0 0 0.850053 -0.609252 0.276092 
171 0.073141 4.12224 2.28628 0.5 0 0 0 -2.32473 -0.638984 -1.31694 
172 1.10385 2.49108 1.83479 0.5 0 0 0 0.113759 -0.0897742 0.287116 
173 1.82174 3.36308 1.88122 0.5 0 0 0 0.624516 -0.353054 -0.192829 
174 1.26914 2.64237 1.45142 0.5 0 0 0 0.152502 0.0686291 0.052209 
175 1.51649 4.31087 1.98113 0.5 0 0 0 0.608815 -0.492256 -0.249144 
176 1.55214 2.54248 1.97066 0.5 0 0 0 1.0778 -0.388526 0.455796 
177 -0.000853972 2.86161 2.38797 0.5 0 0 0 -2.34376 0.446082 0.18476 
178 1.44946 3.12326 1.43829 0.5 0 0 0 0.262697 -0.115134 -0.0447531 
179 2.14585 3.0696 2.45798 0.5 0 0 0 1.21855 -1.04112 0.798676 
180 1.15673 3.75587 1.50516 0.5 0 0 0 -0.819983 -0.0253625 -0.17537 
181 1.90675 4.8254 1.69836 0.5 0 0 0 -0.110065 0.569162 -0.338517 
182 1.13562 4.0265 1.86656 0.5 0 0 0 -0.897786 -0.269054 -0.176407 
183 1.54777 4.578 2.2453 0.5 0 0 0 0.407823 -0.184481 0.382018 
184 0.375317 2.61523 1.7266 0.5 0 0 0 -1.25204 0.288722 -0.281913 
185 1.31385 4.74035 2.2815 0.5 0 0 0 -0.397772 0.234682 0.573775 
204 1.32468 2.72488 2.02243 0.5 0 0 0 0.411397 -0.151377 0.337861 
187 1.38995 2.59811 2.25107 0.5 0 0 0 0.729203 -0.475088 0.78565 
188 1.50496 3.99844 2.40064 0.5 0 0 0 0.211212 -0.474674 0.650996 
189 1.72032 3.51607 2.26762 0.5 0 0 0 0.268722 -0.402704 0.325115 
202 0.972533 3.69504 1.79271 0.5 0 0 0 -1.44571 -0.0254337 -0.100605 
191 2.16536 2.9869 2.46312 0.5 0 0 0 1.31934 -1.07887 0.82975 
192 1.889 3.66891 2.05625 0.5 0 0 0 0.648594 -0.477194 -0.120468 
193 0.891353 3.87886 2.43149 0.5 0 0 0 -1.18054 -0.0752899 0.529398 
194 0.584988 3.06103 2.1515 0.5 0 0 0 -0.561688 0.719733 -0.131438 
195 1.99792 2.84629 1.96781 0.5 0 0 0 1.27027 -0.681304 0.435236 
196 1.34713 4.40977 1.55939 0.5 0 0 0 -0.112918 0.0288071 -0.882974 
190 1.78496 4.93381 1.1726 0.5 0 0 0 -1.13942 1.85127 -0.304665 
198 0.864725 4.5435 2.00967 0.5 0 0 0 -2.1148 0.135868 -0.143091 
199 1.34387 3.07489 2.36975 0.5 0 0 0 -0.0317883 -0.265245 0.53131 
200 2.34844 5.02928 2.31953 0.5 0 0 0 -0.796939 1.5999 0.324442 
201 0.44763 2.72568 2.13465 0.5 0 0 0 -0.558478 0.0894074 0.113394 
70 0.869077 2.53772 2.15016 0.5 0 0 0 -0.00743303 -0.379522 0.682897 
145 2.0849 2.5666 1.35062 0.5 0 0 0 0.613543 -0.220208 0.593892 
161 0.304222 3.15921 1.21596 0.5 0 0 0 -2.20423 0.586666 0.68597 
205 1.20045 3.53231 3.03398 0.5 0 0 0 0.067849 -0.33398 0.264401 
206 1.96354 4.32896 3.03559 0.5 0 0 0 -0.110283 -0.374458 0.795735 
207 0.125253 4.09144 3.71369 0.5 0 0 0 -0.808908 -0.46415 0.109159 
208 0.84359 2.50925 3.69924 0.5 0 0 0 0.234166 -2.55706 0.728935 
209 1.51896 3.92171 3.16325 0.5 0 0 0 0.196412 -0.117553 0.840644 
210 1.84192 3.57401 3.51447 0.5 0 0 0 0.186014 -0.797548 0.527514 
211 1.88265 3.75203 2.61168 0.5 0 0 0 0.452329 -0.560305 0.722466 
212 1.26728 4.95011 2.96344 0.5 0 0 0 -0.263374 0.344981 0.88846 
213 2.05996 3.14168 2.58516 0.5 0 0 0 0.926663 -0.952241 0.886787 
214 1.2445 3.27321 3.65914 0.5 0 0 0 0.794299 -0.802968 0.932512 
215 0.723583 3.13221 3.31572 0.5 0 0 0 -0.405288 -0.703701 -0.116972 
216 0.445434 3.18581 3.33118 0.5 0 0 0 -1.08581 -0.462246 -0.477963 
217 2.4775 2.71686 2.75586 0.5 0 0 0 1.39747 -1.20612 0.862043 
218 2.3856 5.03042 3.71336 0.5 0 0 0 -0.964782 1.53914 0.410973 
219 1.09024 2.61491 3.18492 0.5 0 0 0 0.202244 -1.69437 0.47207 
220 2.32371 4.8339 2.95769 0.5 0 0 0 -0.618072 0.361627 0.828819 
221 1.05556 3.48504 3.60297 0.5 0 0 0 0.438453 -0.233077 0.805259 
222 2.43947 3.20194 3.06529 0.5 0 0 0 0.899481 -1.47825 0.585514 
223 1.90844 2.58351 3.33421 0.5 0 0 0 1.00395 -1.39159 0.908073 
224 0.518845 4.92289 3.11834 0.5 0 0 0 -0.680179 1.04935 -0.18843 
225 0.511127 3.84252 3.64451 0.5 0 0 0 -0.152898 0.0962123 0.347046 
226 0.947703 4.03003 2.86601 0.5 0 0 0 -0.664892 0.11139 0.686523 
227 1.10353 3.04117 3.11188 0.5 0 0 0 0.291882 -0.946484 0.135892 
228 0.260918 4.35829 2.60106 0.5 0 0 0 -1.13179 -0.263865 -0.406479 
229 0.262293 4.30495 3.51799 0.5 0 0 0 -0.21982 -0.166067 -0.264815 
230 1.60813 2.9128 3.13403 0.5 0 0 0 0.859957 -1.11713 0.637784 
234 1.25336 3.65657 3.14787 0.5 0 0 0 0.170566 -0.177618 0.462592 
232 2.45704 3.29094 3.07976 0.5 0 0 0 0.78918 -1.45303 0.514955 
233 1.25656 4.7676 3.40159 0.5 0 0 0 0.26284 -0.27011 0.631778 
472 2.51545 4.84304 2.81896 0.5 0 0 0 -0.522631 0.376665 0.860462 
251 1.85861 2.53247 3.78307 0.5 0 0 0 0.796331 -1.97068 0.861924 
452 2.41994 3.93784 3.55703 0.5 0 0 0 -0.618569 -0.767752 -0.227212 
254 1.67058 4.93834 3.76207 0.5 0 0 0 -0.108518 -0.00648334 -0.126813 
197 1.56002 4.63702 2.4755 0.5 0 0 0 0.194485 -0.0431634 0.939241 
235 1.25867 4.88886 4.11647 0.5 0 0 0 -0.065122 -0.422462 -0.500049 
236 2.01964 3.92687 3.99277 0.5 0 0 0 -1.36753 -0.449655 -0.153221 
237 0.594821 2.54956 3.92611 0.5 0 0 0 0.437815 -2.27667 0.911921 
238 0.923658 4.7717 4.37611 0.5 0 0 0 0.150106 -0.396483 -0.108962 
239 0.871878 3.75292 3.98212 0.5 0 0 0 0.547508 0.032976 1.33285 
240 2.06139 4.5736 4.57908 0.5 0 0 0 -2.31869 1.31123 0.100669 
241 2.18405 4.38619 4.75142 0.5 0 0 0 -2.5761 0.697033 0.681005 
242 0.0972788 3.19401 4.41598 0.5 0 0 0 0.712088 -0.0226454 0.530369 
243 -0.0210885 2.72653 4.80955 0.5 0 0 0 0.478516 -2.54415 1.85162 
244 0.523834 4.91628 4.84729 0.5 0 0 0 -0.892575 0.136727 1.01537 
245 1.52928 3.07001 4.95429 0.5 0 0 0 -1.28629 -1.12745 1.45297 
246 1.24538 3.71929 4.41729 0.5 0 0 0 -0.181744 -0.942071 1.03637 
247 2.42627 3.35712 3.82755 0.5 0 0 0 -0.0792569 -1.80328 -0.263741 
248 1.72736 2.6764 4.86734 0.5 0 0 0 -0.717057 -1.99976 0.514703 
249 1.67259 3.00147 4.12672 0.5 0 0 0 0.268964 -1.74658 0.717877 
250 1.29946 2.62048 3.95289 0.5 0 0 0 0.753735 -2.08436 1.28445 
259 0.587312 2.8217 3.88903 0.5 0 0 0 0.414856 -1.32144 0.940619 
258 0.0372928 2.95955 4.02069 0.5 0 0 0 -0.312631 -0.790853 -0.239212 
253 0.163214 2.67727 3.94064 0.5 0 0 0 -0.222699 -1.89764 0.00968682 
498 2.47241 3.56394 4.29258 0.5 0 0 0 -1.20946 -2.02103 -0.680378 
255 0.21392 3.66474 4.84726 0.5 0 0 0 0.696274 0.26004 1.04159 
256 2.32357 4.09436 4.60624 0.5 0 0 0 -2.25487 -0.685991 -0.15264 
257 1.27313 4.24125 4.86155 0.5 0 0 0 -0.926734 -1.02028 1.44443 
260 4.00548 -0.15698 0.919827 0.5 0 0 0 -0.22412 -2.77563 0.556826 
261 3.19555 2.28939 1.12979 0.5 0 0 0 -0.766297 0.0920801 1.34747 
262 4.78766 2.0216 0.404296 0.5 0 0 0 1.76572 0.433304 -1.08046 
263 4.86348 0.626848 0.98959 0.5 0 0 0 1.13945 -1.77798 0.85662 
264 3.25884 0.915974 0.201991 0.5 0 0 0 -0.773207 0.955032 -0.970822 
265 4.90554 1.41686 1.11291 0.5 0 0 0 1.84991 0.293408 1.42065 
266 4.83436 0.647198 -0.0129278 0.5 0 0 0 0.867894 -0.263278 -3.22911 
267 3.45728 1.79731 0.886207 0.5 0 0 0 -1.61345 -0.356159 0.380738 
268 2.89322 0.522865 0.844904 0.5 0 0 0 -0.153669 -0.397538 1.69463 
269 3.96982 1.81192 0.224054 0.5 0 0 0 -1.04673 -0.483306 -2.25334 
270 3.93633 1.90245 1.01936 0.5 0 0 0 -0.967758 0.532189 1.32246 
293 3.0209 2.402 0.572195 0.5 0 0 0 -0.796778 -0.433164 0.208571 
272 4.42309 1.79276 0.74169 0.5 0 0 0 0.0471619 0.718765 0.202832 
273 4.85213 1.36363 0.800134 0.5 0 0 0 1.45538 -0.322713 -0.105085 
274 2.68345 0.714079 0.824467 0.5 0 0 0 0.231247 -0.0903669 1.49875 
275 2.53788 2.34775 0.0564503 0.5 0 0 0 -0.496814 -1.07394 -2.05814 
276 5.08107 0.0669199 0.787803 0.5 0 0 0 1.14269 -1.66569 0.654523 
294 3.1399 0.0914963 0.349254 0.5 0 0 0 0.150643 -2.31545 -0.19565 
278 3.60827 1.88445 0.935527 0.5 0 0 0 -1.47463 -0.0204871 0.739817 
279 3.71217 0.457467 0.171549 0.5 0 0 0 0.354189 -1.3219 -1.49394 
295 2.73142 1.13214 0.898664 0.5 0 0 0 -0.159658 0.170707 0.868991 
281 3.0564 0.151205 0.970868 0.5 0 0 0 -0.451424 -1.93761 1.77542 
282 3.8744 1.69556 1.09783 0.5 0 0 0 -1.31084 0.0497852 1.41507 
283 3.80613 2.33927 -0.181276 0.5 0 0 0 -1.10119 -0.928728 -3.77637 
284 4.16863 2.09976 0.500958 0.5 0 0 0 -0.298069 0.731253 -0.333606 
285 3.41145 2.33265 0.439947 0.5 0 0 0 -1.11926 -0.145078 -0.3707 
286 3.72184 0.963263 0.427498 0.5 0 0 0 -1.1401 -0.231043 -0.451796 
287 4.34117 1.03841 0.421522 0.5 0 0 0 -0.486956 -1.23545 -1.49508 
288 4.07944 1.6191 1.03376 0.5 0 0 0 -1.10339 0.123649 1.24638 
289 4.36668 1.05293 0.596494 0.5 0 0 0 -0.637184 -1.32412 -0.787541 
290 3.33103 0.992293 0.623104 0.5 0 0 0 -1.22179 0.311966 0.681975 
291 2.90505 1.00379 0.083141 0.5 0 0 0 -0.432348 1.52794 -1.7816 
297 3.16281 0.422647 1.81526 0.5 0 0 0 -1.29628 -1.55319 0.777125 
298 3.83873 2.08749 2.17161 0.5 0 0 0 -1.14486 -0.142797 1.0444 
299 3.06609 0.732192 2.23274 0.5 0 0 0 -0.806988 -0.563645 1.53064 
323 3.16958 1.7184 1.55878 0.5 0 0 0 -0.674013 -0.158867 1.15615 
301 3.32709 1.70196 2.15388 0.5 0 0 0 -0.572204 0.0774374 1.27871 
302 3.70478 0.970469 1.80799 0.5 0 0 0 -0.872641 0.195385 1.52381 
303 3.80396 0.847812 1.9442 0.5 0 0 0 -0.641849 0.0391952 1.64935 
292 4.33293 1.2853 1.247 0.5 0 0 0 -0.639725 -0.24934 1.77524 
305 4.06196 1.45734 1.37117 0.5 0 0 0 -1.02102 0.152814 2.0816 
306 4.61121 1.24738 1.92466 0.5 0 0 0 0.78767 -0.0452652 1.55539 
307 4.02807 0.00290807 2.16168 0.5 0 0 0 -1.98922 -2.04563 -0.12527 
308 4.72506 0.10443 2.27495 0.5 0 0 0 0.0573799 -0.247071 0.0162189 
309 3.95474 0.747127 1.92068 0.5 0 0 0 -0.468744 -0.276006 1.65566 
310 4.61075 2.32872 1.97826 0.5 0 0 0 0.484486 -0.142864 0.410056 
311 3.53786 2.25907 2.09171 0.5 0 0 0 -0.893475 0.158261 1.12888 
321 4.85074 -0.0225677 2.20582 0.5 0 0 0 0.482393 -0.650857 -0.309893 
313 2.56726 1.50595 2.20377 0.5 0 0 0 0.109504 0.0059896 1.31397 
320 2.69246 1.31431 1.87261 0.5 0 0 0 0.0635817 -0.0689187 0.908763 
315 3.26739 0.871674 1.95479 0.5 0 0 0 -0.804997 -0.121805 1.16742 
316 4.50044 1.00423 2.30411 0.5 0 0 0 0.307775 0.0216561 0.921441 
317 4.42454 1.96835 2.33396 0.5 0 0 0 -0.426077 -0.757586 0.429066 
318 3.62757 0.647103 1.4244 0.5 0 0 0 -1.2971 -0.89422 0.717615 
319 3.17122 2.16817 1.97116 0.5 0 0 0 -0.361794 0.250641 1.24402 
271 4.89445 1.59838 1.20693 0.5 0 0 0 1.9926 1.05746 1.86765 
19 2.58919 1.86325 1.1735 0.5 0 0 0 0.0130783 -0.264312 0.539887 
280 3.82517 0.808424 1.18765 0.5 0 0 0 -1.36639 -0.816556 0.795777 
300 4.20682 2.38482 1.22812 0.5 0 0 0 -0.0437825 0.850157 1.8578 
296 4.29953 0.620874 1.17349 0.5 0 0 0 -0.391209 -1.69167 0.799851 
277 3.47974 2.13585 1.17679 0.5 0 0 0 -1.0878 0.311789 1.56498 
324 4.2005 1.07209 3.60419 0.5 0 0 0 -1.49449 0.447592 -0.557453 
325 3.13526 0.346659 3.34054 0.5 0 0 0 -3.12542 -1.26461 1.33762 
326 3.6674 1.472 3.67458 0.5 0 0 0 -1.94332 -0.405534 -0.0547228 
327 4.15864 1.37272 2.56514 0.5 0 0 0 -0.879735 -0.248792 0.532213 
328 3.56054 0.74607 2.82266 0.5 0 0 0 -1.2303 0.197377 0.970871 
329 4.6547 1.85821 2.76121 0.5 0 0 0 0.287451 -1.6069 -0.422622 
330 3.37922 1.61927 3.26273 0.5 0 0 0 -1.49018 -0.393451 0.612963 
331 4.42015 1.68675 3.2659 0.5 0 0 0 -1.11423 -1.26896 -0.407882 
332 4.72992 0.335374 2.57276 0.5 0 0 0 0.295632 0.868844 -0.287335 
333 2.66871 0.745662 3.45055 0.5 0 0 0 -3.12683 -1.52282 2.19034 
334 4.39709 0.492244 3.23253 0.5 0 0 0 -0.533093 0.85619 -1.84111 
335 5.05886 2.33764 2.86349 0.5 0 0 0 3.04182 -1.00718 -0.903866 
336 4.0552 0.349995 3.25553 0.5 0 0 0 -1.75579 0.276347 -0.965949 
350 2.94786 1.6205 2.67099 0.5 0 0 0 -0.331912 -0.231863 1.44436 
338 2.75766 1.04702 3.7024 0.5 0 0 0 -3.05279 -1.44822 1.35405 
339 2.70522 0.895148 2.70661 0.5 0 0 0 -1.0301 -1.15822 2.43864 
340 2.93398 1.02899 3.59673 0.5 0 0 0 -2.76064 -1.00175 1.23853 
341 4.47473 1.9948 3.43292 0.5 0 0 0 -1.11104 -1.62638 0.0347217 
342 4.92134 1.88469 3.61398 0.5 0 0 0 1.08787 -1.75815 0.255106 
343 3.24145 1.5906 2.6238 0.5 0 0 0 -0.676344 -0.187412 1.25356 
349 4.1968 -0.0384058 3.21981 0.5 0 0 0 -1.68687 -1.34803 -1.61064 
345 3.47824 0.0426661 3.05535 0.5 0 0 0 -2.73642 -2.21438 0.525273 
346 3.69694 0.812518 3.53319 0.5 0 0 0 -2.44887 0.196079 0.133078 
347 2.80181 1.66492 2.63693 0.5 0 0 0 -0.102881 -0.190694 1.44765 
348 2.63913 1.65882 2.67643 0.5 0 0 0 0.040308 -0.424345 1.55995 
352 4.94759 1.25163 3.70679 0.5 0 0 0 1.53044 -0.0804514 -0.468104 
469 4.12805 2.45323 2.60915 0.5 0 0 0 -1.9494 -0.327559 -0.220526 
304 2.73538 0.148585 2.52863 0.5 0 0 0 -1.7314 -2.67709 1.9347 
384 4.55125 0.313801 3.78158 0.5 0 0 0 -1.08601 0.71442 -1.93761 
351 4.81681 0.433175 4.13216 0.5 0 0 0 0.535568 1.28442 -0.255557 
381 3.28515 1.87301 4.23842 0.5 0 0 0 -1.69196 -1.05933 -1.04763 
353 3.42787 1.25797 4.13506 0.5 0 0 0 -2.41256 -0.741738 -0.231672 
354 3.93464 1.93868 4.94641 0.5 0 0 0 -0.469335 -0.731159 1.15886 
355 4.89446 2.33384 4.0075 0.5 0 0 0 0.313435 -1.36289 1.33113 
356 4.4518 -0.173151 4.76968 0.5 0 0 0 -1.85989 -2.81266 1.58585 
383 4.1318 0.484744 4.9929 0.5 0 0 0 -2.19939 0.864397 2.56481 
358 5.09289 1.5728 4.75784 0.5 0 0 0 1.28542 -0.321765 1.65897 
359 3.01964 1.92093 4.29427 0.5 0 0 0 -1.64714 -1.29444 -1.07775 
360 4.55823 0.294838 4.19705 0.5 0 0 0 -1.20754 0.680707 -0.312481 
361 5.0107 2.27456 4.16295 0.5 0 0 0 0.815458 -1.71615 1.745 
362 4.17114 0.254776 4.2464 0.5 0 0 0 -3.31804 0.0157184 -0.205736 
363 3.9113 0.319092 4.53698 0.5 0 0 0 -4.12052 -0.228932 0.557686 
364 2.66473 1.94635 4.90104 0.5 0 0 0 -2.03357 -1.87525 0.775546 
365 3.1697 1.79581 4.59542 0.5 0 0 0 -1.63188 -1.52831 -0.429107 
366 4.61143 0.911563 4.1486 0.5 0 0 0 -0.16179 1.71039 0.501414 
367 3.81678 -0.0602467 3.84489 0.5 0 0 0 -4.38251 -2.21107 0.189189 
368 4.0643 1.84855 4.28442 0.5 0 0 0 -1.15827 -0.718844 -0.0177372 
369 3.49421 1.48242 4.35656 0.5 0 0 0 -1.88366 -0.953648 -0.468804 
370 2.83 0.443284 4.66007 0.5 0 0 0 -3.54672 -1.08069 0.0899805 
371 4.72583 0.250737 4.64224 0.5 0 0 0 0.35402 0.645348 1.6131 
382 3.88419 0.944612 3.84084 0.5 0 0 0 -2.45413 0.362208 -0.0352765 
373 4.63289 0.30049 3.94053 0.5 0 0 0 -0.776869 0.734408 -1.37531 
374 4.53402 0.486199 4.04811 0.5 0 0 0 -1.13014 1.24204 -0.778804 
375 5.03447 0.0100993 4.98312 0.5 0 0 0 3.59474 -1.18717 3.20943 
376 4.10392 1.60789 4.6828 0.5 0 0 0 -0.582513 -0.440842 0.453454 
377 4.01537 2.10371 5.10767 0.5 0 0 0 -0.109873 -0.494932 2.13391 
378 2.9176 1.64264 5.01092 0.5 0 0 0 -1.92864 -2.16827 1.57483 
379 3.53378 0.926495 5.07408 0.5 0 0 0 -2.38335 -0.425521 1.83416 
380 3.06477 2.29047 4.29765 0.5 0 0 0 -1.41922 -1.25235 -1.06824 
385 2.72743 3.16667 0.678624 0.5 0 0 0 -0.259405 0.0375909 0.477867 
386 4.46001 4.72631 0.0499726 0.5 0 0 0 0.670269 0.329371 -0.709597 
387 3.86554 3.94207 0.138872 0.5 0 0 0 0.119297 -0.41105 -0.428001 
388 4.32021 4.0172 1.07919 0.5 0 0 0 -0.817747 -0.172873 -1.10386 
389 3.81849 3.08829 0.794952 0.5 0 0 0 -0.593911 0.0886821 0.755432 
390 3.64731 4.11213 0.128382 0.5 0 0 0 0.0900854 -0.597332 0.0534267 
391 5.05322 4.32999 1.07581 0.5 0 0 0 2.14327 1.0872 -1.29535 
392 4.88878 2.67893 0.295459 0.5 0 0 0 1.32143 0.36518 -0.297546 
393 4.52615 4.58372 0.677723 0.5 0 0 0 -0.0148439 1.27505 -0.991665 
394 2.76375 2.92559 1.08836 0.5 0 0 0 0.0172049 -0.151015 1.30114 
395 4.91111 2.95984 0.998602 0.5 0 0 0 1.35504 -0.497237 1.14157 
396 4.08242 3.07659 0.0175142 0.5 0 0 0 -0.343927 0.450852 -1.5254 
397 5.07976 4.04744 0.825051 0.5 0 0 0 2.3825 -0.0624439 -1.63068 
398 2.92734 4.94157 0.00822117 0.5 0 0 0 -0.477082 2.0375 -1.50091 
399 3.38818 4.92148 0.588322 0.5 0 0 0 0.57804 1.09103 -0.330994 
400 3.33768 4.51274 0.419336 0.5 0 0 0 0.195516 -0.603887 0.275915 
401 3.37374 2.65717 0.0719929 0.5 0 0 0 -0.978834 -0.396982 -1.65034 
402 2.72655 3.11912 0.688006 0.5 0 0 0 -0.262876 0.00999789 0.537526 
403 4.76397 3.22272 0.182964 0.5 0 0 0 0.431403 0.481352 -1.34415 
404 4.20748 2.63552 0.142012 0.5 0 0 0 -0.164162 0.531452 -0.894062 
405 4.05945 4.87616 -0.023889 0.5 0 0 0 0.282887 0.87326 -0.164252 
406 4.20553 3.58907 1.03062 0.5 0 0 0 -0.887446 -0.743143 -0.290758 
407 2.81353 4.21131 -0.0113289 0.5 0 0 0 -0.346715 -0.769313 -1.2504 
408 4.99349 3.11745 0.424443 0.5 0 0 0 1.24842 -0.050682 -0.253522 
409 3.77206 3.30856 0.562627 0.5 0 0 0 -0.535949 0.0681169 0.0362031 
410 3.87007 2.62726 0.885771 0.5 0 0 0 -0.532585 0.714151 1.23171 
411 4.18383 2.65307 1.06401 0.5 0 0 0 -0.1354 0.55945 1.46073 
412 3.0916 3.18162 0.446709 0.5 0 0 0 -0.480455 0.0500635 0.0615103 
413 2.9187 3.71694 0.925144 0.5 0 0 0 -0.22571 -0.36315 0.330765 
414 2.70955 4.48431 0.643286 0.5 0 0 0 -0.107217 -0.930292 0.142364 
415 2.6388 4.93667 1.11349 0.5 0 0 0 -1.0792 0.886343 -0.319937 
417 3.0858 3.60769 0.193227 0.5 0 0 0 -0.439156 -0.300426 -0.622334 
418 4.81606 4.17573 1.6567 0.5 0 0 0 0.591413 -0.34437 0.0452511 
419 2.97104 3.77732 2.20127 0.5 0 0 0 0.527183 -1.67749 0.597793 
420 4.87673 3.94974 2.41375 0.5 0 0 0 0.274881 -1.57639 0.677269 
421 4.8751 4.57039 1.80973 0.5 0 0 0 1.01158 1.67479 -0.455605 
422 4.26911 4.54908 1.75393 0.5 0 0 0 0.210615 0.978853 0.159586 
423 3.64883 4.60707 1.39654 0.5 0 0 0 0.361031 0.133711 -1.23185 
424 4.35686 3.80958 1.43822 0.5 0 0 0 -0.729234 -1.16539 0.524537 
425 2.78397 3.15329 1.33965 0.5 0 0 0 0.223686 -0.293644 1.28225 
426 3.24265 4.55351 2.11576 0.5 0 0 0 0.105228 -0.908435 1.66019 
427 3.29534 4.61706 1.65763 0.5 0 0 0 -0.180092 -0.610716 -0.144509 
428 4.92767 4.3107 2.00987 0.5 0 0 0 0.632442 -0.199113 0.0995144 
429 3.19584 4.83427 1.72876 0.5 0 0 0 -0.356618 0.283534 0.170773 
430 2.95764 4.84836 1.32106 0.5 0 0 0 -0.875968 0.354236 -0.984329 
431 3.50765 2.67592 2.37491 0.5 0 0 0 -0.874514 -0.138892 0.589053 
432 3.95776 2.50817 1.47999 0.5 0 0 0 -0.674996 0.427697 1.94301 
433 2.74246 4.35531 2.39777 0.5 0 0 0 -0.216758 -1.01736 0.873598 
434 3.13473 4.5078 1.94043 0.5 0 0 0 -0.332038 -1.07924 0.87072 
435 3.61635 4.6595 1.62657 0.5 0 0 0 0.532132 0.0850811 -0.176547 
436 3.34108 3.27577 2.05506 0.5 0 0 0 -0.141773 -0.940371 0.961177 
437 3.80656 3.98332 1.78453 0.5 0 0 0 -0.714633 -1.51626 0.940801 
438 5.00233 3.52831 1.86043 0.5 0 0 0 1.73065 -1.93282 0.236797 
439 4.48504 4.48045 2.45637 0.5 0 0 0 -0.699925 0.100609 1.44692 
440 2.64624 3.87469 2.23009 0.5 0 0 0 0.37473 -1.16795 0.247915 
441 2.92967 4.74914 2.12021 0.5 0 0 0 -0.681676 -0.0018894 1.10791 
442 3.06368 4.58908 1.38181 0.5 0 0 0 -0.702525 -0.753026 -1.0575 
443 3.87393 4.1195 1.9644 0.5 0 0 0 -0.426211 -1.36559 1.44374 
444 2.67807 4.3564 1.89243 0.5 0 0 0 -0.768882 -0.933535 -0.157708 
445 4.42925 3.75366 1.23855 0.5 0 0 0 -0.571497 -1.03452 -0.0131125 
446 4.16137 3.88015 2.29142 0.5 0 0 0 -0.971894 -1.56512 1.40267 
447 3.98414 3.83381 1.7099 0.5 0 0 0 -1.0035 -1.50696 1.02253 
448 4.54614 2.8292 2.22811 0.5 0 0 0 -0.167321 0.272999 -0.265162 
449 3.08114 3.86142 1.29596 0.5 0 0 0 -0.376898 -0.892191 0.015991 
450 3.48301 3.36566 1.39671 0.5 0 0 0 -0.555958 -0.723567 1.08945 
416 4.4394 3.86706 1.2623 0.5 0 0 0 -0.553545 -0.823878 -0.162325 
203 2.54257 2.99444 1.48494 0.5 0 0 0 0.543101 -0.349899 1.11907 
322 2.8968 2.52125 1.8635 0.5 0 0 0 0.201453 -0.0968829 1.34305 
314 4.95153 2.49957 1.43986 0.5 0 0 0 2.18036 0.0170281 0.881097 
479 2.67201 3.66334 3.67497 0.5 0 0 0 -0.203289 -1.6408 -0.62729 
453 4.81672 2.73412 3.2535 0.5 0 0 0 0.831713 0.571495 -0.423172 
454 3.96861 3.31053 2.81272 0.5 0 0 0 -1.04522 -0.0947004 0.106194 
455 2.9786 4.28332 3.66019 0.5 0 0 0 -0.726509 -0.932001 -1.02451 
456 2.78682 4.65171 3.10914 0.5 0 0 0 -0.203217 -0.442469 0.326359 
457 3.04669 4.89391 2.94079 0.5 0 0 0 0.553136 0.687051 0.706071 
458 3.38148 3.15475 2.90913 0.5 0 0 0 -0.536569 -0.87763 0.204813 
459 4.79833 4.06689 2.63941 0.5 0 0 0 -0.128106 -1.05999 1.14756 
460 4.33881 2.93316 3.14829 0.5 0 0 0 -1.28472 1.05585 -0.479659 
461 4.46962 4.44766 2.57145 0.5 0 0 0 -0.804013 -0.0312749 1.57333 
462 4.70144 4.99917 2.54254 0.5 0 0 0 0.456867 4.60251 1.38146 
463 4.41339 2.63817 2.73774 0.5 0 0 0 -1.22618 -0.00238201 -0.778395 
464 3.08229 3.82563 3.12878 0.5 0 0 0 0.299023 -1.73468 -0.110343 
465 3.5702 3.9329 3.56068 0.5 0 0 0 0.454629 -1.22727 -1.19882 
466 4.19208 2.57746 3.01758 0.5 0 0 0 -2.12603 -0.25142 -0.640557 
467 3.47467 4.4369 3.46202 0.5 0 0 0 0.871096 -0.333501 -0.872545 
468 4.83204 2.71881 2.53955 0.5 0 0 0 1.39738 0.23819 -0.966806 
344 4.18941 2.52632 3.41191 0.5 0 0 0 -2.05255 -0.49453 0.00247745 
470 4.4847 2.5291 3.64937 0.5 0 0 0 -1.05989 -0.473926 0.538409 
471 3.84037 4.76542 3.03905 0.5 0 0 0 0.428617 1.21801 0.489411 
451 2.79986 3.7981 2.4996 0.5 0 0 0 0.673182 -1.50345 0.668471 
473 2.91846 5.08609 3.74857 0.5 0 0 0 -0.149599 2.67788 0.232558 
474 4.50733 2.85756 3.6255 0.5 0 0 0 -0.710934 1.04261 0.308588 
478 3.98902 2.61315 3.41298 0.5 0 0 0 -2.4994 -0.21599 -0.058067 
476 4.67836 3.70549 3.01079 0.5 0 0 0 0.0893674 -0.00659092 0.817237 
477 2.80107 4.25512 2.56629 0.5 0 0 0 0.088253 -1.26941 0.940764 
337 4.00855 2.47712 3.28526 0.5 0 0 0 -2.5672 -0.587884 -0.210883 
475 4.80452 4.05407 3.78608 0.5 0 0 0 0.939251 -0.0504982 -0.155889 
480 3.58953 3.80889 4.79312 0.5 0 0 0 1.28079 -1.3221 0.955278 
481 4.13979 3.02608 4.95778 0.5 0 0 0 -0.268001 -1.4702 2.14237 
482 3.77861 3.59844 4.0078 0.5 0 0 0 0.420718 -0.998573 -1.09704 
483 4.4053 4.8875 4.10612 0.5 0 0 0 0.262987 0.500346 -1.75149 
484 3.17257 4.00243 3.96811 0.5 0 0 0 -0.446885 -1.44901 -1.51126 
485 3.66542 3.93623 4.40886 0.5 0 0 0 1.30971 -0.836034 -0.60079 
486 4.72062 4.70312 4.34976 0.5 0 0 0 -0.0982527 -0.899078 -1.36618 
487 3.2799 3.12529 4.27903 0.5 0 0 0 -0.66469 -1.98188 -0.831771 
488 4.67013 3.1766 4.66622 0.5 0 0 0 0.0223616 0.0686517 0.971296 
489 3.35019 4.83711 5.08971 0.5 0 0 0 -0.173141 3.09068 3.9836 
490 3.58041 3.44622 4.24509 0.5 0 0 0 -0.0363018 -1.73964 -0.884371 
491 3.71318 4.11091 4.82948 0.5 0 0 0 2.05159 -0.117158 1.337 
492 2.66401 3.19064 4.79124 0.5 0 0 0 -1.28712 -2.59108 0.923021 
493 4.51494 3.66925 4.72374 0.5 0 0 0 1.18592 0.523266 0.678235 
494 3.42613 3.64516 5.12502 0.5 0 0 0 0.77782 -2.09058 3.3119 
495 2.6833 4.06725 4.41672 0.5 0 0 0 -1.05386 -0.908439 -1.15868 
496 2.62238 3.80937 4.95755 0.5 0 0 0 -1.37845 -1.77677 1.45777 
497 3.38169 4.37698 3.94441 0.5 0 0 0 0.446712 -0.250724 -1.31616 
357 3.44985 2.4954 4.63855 0.5 0 0 0 -0.880716 -1.29878 0.135067 
499 3.95608 2.50646 4.05607 0.5 0 0 0 -1.53388 -0.7491 0.251147 
500 4.65468 4.93223 4.97398 0.5 0 0 0 -0.725092 -0.11952 1.6928 
501 4.62616 4.81561 4.90394 0.5 0 0 0 -0.283521 -0.293759 1.29273 
502 2.68187 3.97567 4.77886 0.5 0 0 0 -0.999016 -1.16852 0.287559 
503 2.93975 4.25916 4.55901 0.5 0 0 0 -0.375725 -0.128672 -0.685949 
504 3.55114 3.30536 4.29101 0.5 0 0 0 -0.234607 -1.87487 -0.698651 
505 3.69576 4.82259 4.28552 0.5 0 0 0 1.42031 1.77462 -0.194306 
506 4.09435 4.02173 3.97424 0.5 0 0 0 1.82458 0.0293973 -0.947345 
507 4.9127 2.81897 3.94309 0.5 0 0 0 0.483235 0.99008 0.557377 
508 2.87514 3.92811 4.68636 0.5 0 0 0 -0.391841 -1.40776 -0.26941 
509 3.30514 4.7555 4.40391 0.5 0 0 0 0.17889 1.78594 -0.100222 
510 3.08449 4.49512 4.06088 0.5 0 0 0 -0.596058 0.201675 -1.22217 
511 2.64438 3.03166 4.50455 0.5 0 0 0 -1.03003 -2.20833 -0.126202 
512 2.666 2.82481 4.36838 0.5 0 0 0 -0.847076 -1.88601 -0.442515 
513 4.86973 3.02687 4.2985 0.5 0 0 0 0.304376 1.03371 0.591191 
ITEM: TIMESTEP
60056
ITEM: NUMBER OF ATOMS
512
ITEM: BOX BOUNDS ss ss ss
-2.1589663964569298e-02 5.0933846546203574e+00
-1.7364439631764822e-01 5.0865807164741392e+00
-1.8176655292622759e-01 5.1255068607205727e+00
ITEM: ATOMS id x y z width_SPH x_COM y_COM z_COM vx vy vz 
2 0.301065 0.775935 0.24686 0.5 0 0 0 -1.37933 -0.579521 0.0687911 
3 0.259442 1.29101 0.60572 0.5 0 0 0 -2.0844 -0.964676 0.28774 
4 0.787481 1.24764 1.03676 0.5 0 0 0 -0.386234 -0.340106 0.749207 
5 1.73538 1.8934 0.823938 0.5 0 0 0 0.958565 0.352107 0.221127 
6 0.274202 2.07866 0.848529 0.5 0 0 0 -2.11846 0.860429 1.16652 
7 0.546658 1.58454 0.342548 0.5 0 0 0 -0.688685 -0.372088 -0.682108 
8 1.33606 0.2259 0.773361 0.5 0 0 0 0.0500306 -0.685425 1.18412 
9 1.53468 0.986431 0.331381 0.5 0 0 0 0.774082 0.260722 -0.747349 
10 1.11158 1.53603 -0.0685478 0.5 0 0 0 0.983791 -0.3885 -2.84957 
11 1.39605 1.22774 0.796168 0.5 0 0 0 0.782333 0.13004 0.282638 
38 1.08307 2.32881 0.776647 0.5 0 0 0 0.516872 0.421792 0.862953 
41 2.23083 2.37931 1.02289 0.5 0 0 0 0.351374 -0.202259 0.55657 
14 1.26049 2.06321 0.329272 0.5 0 0 0 1.32267 0.117817 -0.380266 
15 1.54694 0.0394793 0.976118 0.5 0 0 0 1.23301 -1.5069 2.12374 
37 0.636909 0.390267 0.353983 0.5 0 0 0 -1.47735 -0.586542 0.379701 
17 1.08139 0.119436 0.519715 0.5 0 0 0 -1.29667 -0.687401 0.538481 
18 1.50826 -0.0164858 0.0459002 0.5 0 0 0 0.021043 -0.949783 -1.15231 
40 1.99513 0.669575 0.604462 0.5 0 0 0 1.39265 -0.197943 0.904851 
20 0.369824 1.75927 1.04789 0.5 0 0 0 -1.73137 0.350025 1.28566 
21 1.878 1.79469 0.745542 0.5 0 0 0 1.08073 0.226361 -0.0031174 
22 0.552788 2.4223 0.409936 0.5 0 0 0 -0.558251 0.212977 0.657484 
39 0.791151 1.5785 0.810199 0.5 0 0 0 0.140692 0.22759 0.408956 
24 0.00341543 0.598288 0.0816952 0.5 0 0 0 -2.72804 -0.779914 -0.133755 
25 1.95436 0.260602 0.581878 0.5 0 0 0 1.68409 -0.755026 1.36425 
26 1.35581 0.890949 0.584786 0.5 0 0 0 0.399613 0.0193536 -0.00984265 
27 0.864667 1.8141 0.900152 0.5 0 0 0 0.377414 0.670907 0.691826 
28 2.15663 0.959745 0.359459 0.5 0 0 0 0.883575 0.501602 -0.229977 
29 2.42448 1.35995 0.269412 0.5 0 0 0 0.107996 1.01779 -1.19046 
30 1.3992 0.242433 0.884058 0.5 0 0 0 0.488746 -0.821786 1.45704 
31 1.65837 1.51848 0.685685 0.5 0 0 0 1.20241 0.362153 0.0101951 
32 1.30153 2.09592 0.250958 0.5 0 0 0 1.47638 0.00634867 -0.7089 
33 1.46276 1.14326 0.721758 0.5 0 0 0 0.856839 0.0701477 0.199774 
34 0.622256 2.08924 -0.0271194 0.5 0 0 0 -0.447988 -0.575385 -2.02294 
35 1.77116 0.0448101 -0.128814 0.5 0 0 0 1.17617 -0.864683 -2.25464 
36 0.968307 0.88323 0.0786201 0.5 0 0 0 0.0955917 0.0328271 -1.47965 
144 0.021209 2.45507 0.114574 0.5 0 0 0 -3.16822 -0.780043 -1.09895 
43 1.54523 0.0677311 1.95231 0.5 0 0 0 1.5468 -2.05897 2.27936 
44 1.36472 2.35713 1.90941 0.5 0 0 0 0.773325 -0.347968 0.538685 
45 1.3338 1.11988 1.48552 0.5 0 0 0 0.476512 -0.198912 1.55749 
46 1.38771 2.23672 2.32625 0.5 0 0 0 0.77309 -0.849674 1.17322 
47 1.3959 1.26088 1.91896 0.5 0 0 0 -0.0998465 -0.503567 2.36786 
48 1.18006 0.812493 1.47865 0.5 0 0 0 0.169841 -0.426956 1.76228 
49 2.47935 2.34211 1.69817 0.5 0 0 0 0.558045 -0.173276 1.19153 
50 0.891252 0.608882 1.67018 0.5 0 0 0 -1.07944 -0.542198 2.5108 
51 1.96892 0.939589 1.80624 0.5 0 0 0 0.47469 -1.09681 1.64682 
52 0.671609 1.64139 1.3334 0.5 0 0 0 -0.669209 0.0976911 1.61566 
53 2.1247 1.44177 1.71791 0.5 0 0 0 0.456222 0.123616 0.952315 
54 0.390188 0.0429206 2.20343 0.5 0 0 0 -1.55319 -1.25141 0.557919 
55 1.73184 1.84185 1.70752 0.5 0 0 0 0.650542 0.164918 0.906607 
16 2.25736 2.0163 1.1787 0.5 0 0 0 0.45765 -0.0719196 0.552914 
57 2.38803 1.07707 1.62868 0.5 0 0 0 0.472641 -0.693349 0.755419 
58 1.78528 0.149197 2.2391 0.5 0 0 0 1.03273 -2.02279 2.71641 
59 1.24235 0.582601 2.37878 0.5 0 0 0 0.260528 -0.272362 3.92146 
60 0.669153 1.69642 1.57452 0.5 0 0 0 -0.979987 -0.221867 2.09612 
61 1.33412 0.300401 1.71432 0.5 0 0 0 0.887236 -1.21205 2.2636 
78 1.05745 1.89882 1.61753 0.5 0 0 0 0.147241 0.000550386 1.16135 
63 2.01583 1.57785 2.03482 0.5 0 0 0 0.300791 -0.0541662 1.40504 
64 0.517037 0.357616 2.37907 0.5 0 0 0 -0.565345 0.53036 2.621 
65 1.06184 1.77545 2.19873 0.5 0 0 0 -0.468634 -1.40531 2.12137 
66 2.34198 0.861946 2.01783 0.5 0 0 0 0.0265132 -1.35149 1.67452 
67 1.10298 0.688533 2.02627 0.5 0 0 0 -0.327975 -0.221889 3.45712 
68 2.05806 1.47707 1.72367 0.5 0 0 0 0.443898 0.16585 1.00093 
69 1.40306 0.742946 2.26942 0.5 0 0 0 -0.0127842 -0.601995 3.56711 
77 0.387399 1.54418 1.42854 0.5 0 0 0 -2.22896 -0.477383 2.42533 
71 0.73761 0.532106 1.43847 0.5 0 0 0 -1.94547 -0.911227 1.66725 
72 1.00639 2.24107 2.44178 0.5 0 0 0 0.00219605 -1.25808 1.46174 
73 2.05738 1.03319 1.69108 0.5 0 0 0 0.568082 -0.88277 1.23015 
74 2.23184 1.01522 2.36173 0.5 0 0 0 -0.384269 -1.4577 2.51912 
75 0.0297755 2.3112 2.22173 0.5 0 0 0 -2.35311 -1.61493 0.70546 
76 0.971336 1.10815 1.45355 0.5 0 0 0 -0.382609 -0.281278 1.81095 
12 1.34528 1.51116 1.24545 0.5 0 0 0 0.683772 0.377341 0.874135 
13 1.86621 1.32627 1.25809 0.5 0 0 0 0.997061 -0.0560327 0.662308 
312 2.49224 -0.0785386 1.66921 0.5 0 0 0 -0.146815 -2.94607 1.29968 
42 1.22906 0.726342 1.23555 0.5 0 0 0 0.353157 -0.502418 1.15911 
79 1.43519 2.24238 3.26306 0.5 0 0 0 0.0223941 -2.28939 1.21441 
80 0.722433 0.183722 2.71176 0.5 0 0 0 1.47955 0.523552 2.97282 
81 1.07277 0.414989 2.90579 0.5 0 0 0 1.6268 0.318626 4.42184 
82 1.30862 1.94324 2.75295 0.5 0 0 0 -0.30758 -2.04021 1.91006 
83 1.70365 2.04278 2.87993 0.5 0 0 0 0.281042 -1.52933 1.51931 
84 1.24767 0.840101 3.71739 0.5 0 0 0 1.33465 -3.77979 4.56296 
85 2.02471 1.8402 2.82633 0.5 0 0 0 0.380651 -1.35918 1.644 
106 1.36419 1.31963 2.61107 0.5 0 0 0 -0.890067 -2.18682 3.25937 
87 0.898793 2.29175 3.34264 0.5 0 0 0 -0.293887 -2.9302 0.785305 
88 1.94612 1.3812 2.97941 0.5 0 0 0 -0.745032 -2.92614 2.85491 
89 1.47552 0.236476 3.78193 0.5 0 0 0 0.21962 1.79091 4.58143 
100 0.580247 2.16471 2.54006 0.5 0 0 0 -0.486548 -1.98834 1.75442 
91 1.72849 1.44584 2.74127 0.5 0 0 0 -0.619529 -2.43814 2.67735 
92 0.127772 2.09691 2.8373 0.5 0 0 0 -1.29462 -2.8238 1.55061 
93 0.715279 0.310069 2.79199 0.5 0 0 0 1.35815 0.930458 3.27146 
94 1.45135 1.94302 2.6258 0.5 0 0 0 0.0977475 -1.59543 1.72403 
95 2.18937 2.14759 3.16346 0.5 0 0 0 0.868305 -1.23578 1.36449 
96 0.949792 1.87739 2.59393 0.5 0 0 0 -0.661399 -2.26228 2.27312 
97 1.79656 0.47085 3.60666 0.5 0 0 0 -2.3428 -1.28838 5.27529 
98 0.27304 1.57185 2.88923 0.5 0 0 0 -0.472691 -2.69579 1.99022 
99 2.15148 1.76573 3.33725 0.5 0 0 0 -0.0623548 -2.43032 1.94141 
105 0.748299 0.114089 3.1335 0.5 0 0 0 2.42403 0.80592 3.07574 
186 0.405525 2.44495 2.60322 0.5 0 0 0 -0.466378 -1.47825 1.20446 
102 1.8431 1.71237 3.01665 0.5 0 0 0 -0.358363 -2.45649 2.17476 
103 0.428587 1.0381 3.21399 0.5 0 0 0 1.28694 -1.2172 2.32733 
231 1.26226 2.35115 3.50858 0.5 0 0 0 0.166543 -2.64016 0.96135 
62 2.18333 1.76448 2.56415 0.5 0 0 0 0.45057 -0.647144 1.47221 
131 1.85477 1.6584 3.7735 0.5 0 0 0 -0.993894 -4.30605 2.03125 
56 2.44014 0.522583 2.48151 0.5 0 0 0 -0.939977 -1.83365 2.60203 
107 1.79925 0.179186 4.53986 0.5 0 0 0 -2.45828 2.41511 -3.09056 
108 1.07473 1.50091 4.4532 0.5 0 0 0 2.23001 -3.92928 -0.410835 
109 1.80422 0.539856 4.27432 0.5 0 0 0 -4.08397 -0.270137 -1.06241 
110 1.90998 0.686721 4.17965 0.5 0 0 0 -4.68712 -2.33702 0.535284 
139 1.00999 0.534253 4.84212 0.5 0 0 0 4.18387 -0.55751 -2.80623 
112 1.75817 0.69801 4.66543 0.5 0 0 0 -1.94934 -1.7847 -4.6698 
113 1.92756 1.25306 4.43647 0.5 0 0 0 -2.16257 -4.87597 -0.595469 
114 0.872988 0.92524 4.48012 0.5 0 0 0 4.97056 -2.01785 -2.19322 
115 1.84022 0.570507 4.46821 0.5 0 0 0 -3.73017 -0.563641 -3.38072 
116 0.780046 0.159622 4.3033 0.5 0 0 0 4.86742 0.454755 -1.147 
117 0.976206 0.936284 4.21248 0.5 0 0 0 4.88975 -3.28014 -0.842694 
138 0.0273677 1.19268 4.38544 0.5 0 0 0 0.0333272 -1.92566 0.369729 
119 0.767833 1.80938 4.39848 0.5 0 0 0 1.55624 -2.82261 0.538752 
120 1.48918 0.684125 4.13282 0.5 0 0 0 0.291232 -2.81562 1.22407 
121 1.88098 0.771578 3.948 0.5 0 0 0 -3.89024 -3.61032 3.38604 
122 0.203651 -0.136026 4.07609 0.5 0 0 0 1.17963 -1.13957 0.140352 
123 1.22007 0.0987975 4.57304 0.5 0 0 0 3.27588 1.89727 -2.95652 
124 0.694211 0.489421 4.10319 0.5 0 0 0 4.98957 -0.11234 -0.715302 
125 1.57984 0.388102 4.1862 0.5 0 0 0 -1.13399 2.13372 0.184368 
126 1.32389 0.547611 4.31048 0.5 0 0 0 3.62931 -0.260652 -2.29496 
127 1.22247 2.04544 4.70511 0.5 0 0 0 0.529174 -2.49875 0.73864 
128 1.13273 0.89333 4.24918 0.5 0 0 0 4.63168 -3.84402 -1.04825 
129 0.157207 1.59083 4.15841 0.5 0 0 0 1.0023 -2.69924 -0.130506 
130 0.546429 0.828483 4.34959 0.5 0 0 0 3.60335 -1.03141 -1.40436 
137 0.139755 2.14505 3.86316 0.5 0 0 0 -0.174331 -3.34831 -0.349434 
132 2.24816 1.8794 3.83284 0.5 0 0 0 -0.369853 -2.6551 1.08225 
133 1.36568 0.564187 4.27386 0.5 0 0 0 2.91128 -0.547869 -1.67107 
134 1.70918 2.16356 4.92569 0.5 0 0 0 -0.345944 -2.30075 0.355998 
135 2.26419 0.167802 4.66814 0.5 0 0 0 -2.7027 -0.457132 -0.978096 
136 1.59585 1.61783 4.25902 0.5 0 0 0 -0.174912 -5.05053 0.598242 
86 1.99544 1.44378 3.89321 0.5 0 0 0 -1.58182 -4.76347 2.01603 
252 1.97124 2.33461 4.62375 0.5 0 0 0 -0.380439 -2.50466 -0.187743 
372 2.44558 0.70363 4.33782 0.5 0 0 0 -4.58191 -1.31109 -0.490348 
111 1.47987 2.39444 3.94322 0.5 0 0 0 0.573444 -2.60439 1.12607 
90 1.33534 1.25023 3.83516 0.5 0 0 0 0.0441954 -5.92805 2.6982 
104 1.86758 1.04363 3.82194 0.5 0 0 0 -2.65248 -5.30357 3.62862 
118 2.5096 1.67312 4.55116 0.5 0 0 0 -2.00914 -2.35968 -0.414631 
101 1.63832 0.949619 3.80756 0.5 0 0 0 -1.76205 -5.38823 4.48026 
140 2.46899 2.49535 0.521337 0.5 0 0 0 -0.128926 -0.497133 0.0925398 
141 0.969153 3.25075 0.88121 0.5 0 0 0 -0.687549 -0.0542296 0.763204 
142 1.05819 3.61895 0.280845 0.5 0 0 0 0.0762463 0.567482 -0.30514 
143 0.613292 3.01274 0.59791 0.5 0 0 0 -0.779385 -0.0736848 1.18857 
167 1.34249 2.79902 0.683508 0.5 0 0 0 0.862655 -0.285241 0.459343 
168 1.60812 2.59703 0.915714 0.5 0 0 0 0.694661 -0.0649733 0.373868 
146 1.06775 3.21913 0.367263 0.5 0 0 0 0.565033 -0.407088 0.137551 
147 0.57321 4.49282 0.517003 0.5 0 0 0 1.15796 -0.171634 0.30374 
148 1.97431 3.78988 0.433881 0.5 0 0 0 0.683057 -0.368954 -0.379233 
149 0.683853 3.59681 0.0907926 0.5 0 0 0 -0.320035 1.05829 -0.716976 
150 1.89594 4.42723 0.80637 0.5 0 0 0 -0.262463 0.0303836 0.357101 
151 0.0449989 3.44437 0.106179 0.5 0 0 0 -1.64548 0.61795 -0.0465026 
152 1.35725 3.63101 1.14384 0.5 0 0 0 0.113062 -0.0093475 0.199478 
153 2.20121 4.40131 0.258873 0.5 0 0 0 -0.252429 -0.133622 -0.977996 
154 2.33911 4.58276 0.684233 0.5 0 0 0 -0.385051 -0.355663 0.2554 
155 1.29543 3.739 0.711871 0.5 0 0 0 -0.0563028 0.396049 0.295765 
156 0.448866 4.37763 1.05829 0.5 0 0 0 -0.637533 -0.993328 1.12883 
157 2.28878 2.65211 1.12402 0.5 0 0 0 0.333616 -0.230741 0.723519 
158 1.97601 4.15404 0.975269 0.5 0 0 0 0.404547 -0.54038 0.510196 
159 1.30202 3.80287 0.707773 0.5 0 0 0 -0.132025 0.516313 0.258976 
160 2.25978 2.64393 -0.0732814 0.5 0 0 0 -0.478514 -0.501468 -2.67306 
23 0.962129 2.54199 0.248239 0.5 0 0 0 0.775317 -0.195285 -0.0476433 
162 1.69243 3.28376 0.688211 0.5 0 0 0 1.10819 -0.412026 0.186957 
163 0.0413278 4.44313 0.01018 0.5 0 0 0 0.227754 -0.443071 -0.609397 
164 2.14712 2.84689 0.191517 0.5 0 0 0 -0.0992117 -0.12156 -1.10248 
165 0.0909582 3.27533 0.313753 0.5 0 0 0 -1.79352 0.168403 0.889027 
166 2.19765 3.29178 0.984012 0.5 0 0 0 0.426667 -0.0728771 0.437589 
169 0.463452 3.13038 2.39827 0.5 0 0 0 -0.761687 0.716266 0.0716761 
170 1.91534 3.15615 2.11444 0.5 0 0 0 0.850049 -0.60925 0.276094 
171 0.0731398 4.12224 2.28628 0.5 0 0 0 -2.32472 -0.638984 -1.31693 
172 1.10385 2.49108 1.83479 0.5 0 0 0 0.113755 -0.0897764 0.287118 
173 1.82174 3.36308 1.88122 0.5 0 0 0 0.624512 -0.353052 -0.192826 
174 1.26914 2.64237 1.45142 0.5 0 0 0 0.152498 0.068627 0.0522117 
175 1.51649 4.31087 1.98113 0.5 0 0 0 0.608815 -0.492255 -0.249143 
176 1.55214 2.54248 1.97066 0.5 0 0 0 1.0778 -0.388528 0.4558 
177 -0.000855143 2.86161 2.38797 0.5 0 0 0 -2.34375 0.446078 0.184762 
178 1.44946 3.12326 1.43829 0.5 0 0 0 0.262694 -0.115134 -0.0447499 
179 2.14586 3.0696 2.45798 0.5 0 0 0 1.21854 -1.04111 0.798676 
180 1.15673 3.75587 1.50516 0.5 0 0 0 -0.819981 -0.0253636 -0.175366 
181 1.90675 4.8254 1.69836 0.5 0 0 0 -0.110065 0.56916 -0.338514 
182 1.13562 4.0265 1.86656 0.5 0 0 0 -0.897782 -0.269054 -0.176404 
183 1.54777 4.578 2.2453 0.5 0 0 0 0.407823 -0.184482 0.382015 
184 0.375316 2.61523 1.7266 0.5 0 0 0 -1.25203 0.288719 -0.28191 
185 1.31385 4.74035 2.2815 0.5 0 0 0 -0.39777 0.234681 0.573772 
204 1.32468 2.72488 2.02243 0.5 0 0 0 0.411393 -0.151379 0.337863 
187 1.38995 2.59811 2.25107 0.5 0 0 0 0.7292 -0.475089 0.785651 
188 1.50496 3.99844 2.40064 0.5 0 0 0 0.211211 -0.474674 0.650993 
189 1.72033 3.51607 2.26762 0.5 0 0 0 0.26872 -0.402703 0.325114 
202 0.972532 3.69504 1.79271 0.5 0 0 0 -1.4457 -0.0254354 -0.100602 
191 2.16536 2.9869 2.46312 0.5 0 0 0 1.31933 -1.07887 0.82975 
192 1.889 3.66891 2.05625 0.5 0 0 0 0.64859 -0.477191 -0.120467 
193 0.891353 3.87886 2.43149 0.5 0 0 0 -1.18054 -0.0752915 0.529397 
194 0.584987 3.06103 2.1515 0.5 0 0 0 -0.561685 0.719726 -0.131435 
195 1.99793 2.84629 1.96781 0.5 0 0 0 1.27026 -0.681303 0.435239 
196 1.34713 4.40977 1.55939 0.5 0 0 0 -0.112916 0.028807 -0.882968 
190 1.78496 4.93381 1.1726 0.5 0 0 0 -1.13942 1.85127 -0.304665 
198 0.864724 4.5435 2.00967 0.5 0 0 0 -2.11479 0.135869 -0.143091 
199 1.34387 3.07489 2.36975 0.5 0 0 0 -0.0317894 -0.265247 0.531311 
200 2.34844 5.02928 2.31953 0.5 0 0 0 -0.796935 1.5999 0.324438 
201 0.447629 2.72568 2.13465 0.5 0 0 0 -0.558473 0.0894036 0.113396 
70 0.869077 2.53772 2.15016 0.5 0 0 0 -0.00743431 -0.379523 0.682898 
145 2.0849 2.5666 1.35062 0.5 0 0 0 0.613539 -0.220208 0.593892 
161 0.304221 3.15921 1.21596 0.5 0 0 0 -2.20422 0.586663 0.685969 
205 1.20045 3.53231 3.03398 0.5 0 0 0 0.0678489 -0.333983 0.2644 
206 1.96354 4.32896 3.03559 0.5 0 0 0 -0.110282 -0.374459 0.795731 
207 0.125253 4.09144 3.71369 0.5 0 0 0 -0.808906 -0.464151 0.109159 
208 0.84359 2.50925 3.69924 0.5 0 0 0 0.234166 -2.55706 0.728932 
209 1.51896 3.92171 3.16325 0.5 0 0 0 0.196412 -0.117556 0.840641 
210 1.84192 3.57401 3.51447 0.5 0 0 0 0.186014 -0.79755 0.527512 
211 1.88265 3.75203 2.61168 0.5 0 0 0 0.452327 -0.560304 0.722463 
212 1.26728 4.95011 2.96344 0.5 0 0 0 -0.263374 0.344978 0.888454 
213 2.05997 3.14168 2.58516 0.5 0 0 0 0.926657 -0.95224 0.886786 
214 1.2445 3.27321 3.65914 0.5 0 0 0 0.794297 -0.802971 0.93251 
215 0.723583 3.13221 3.31572 0.5 0 0 0 -0.405286 -0.703702 -0.116971 
216 0.445433 3.18581 3.33118 0.5 0 0 0 -1.08581 -0.462248 -0.477962 
217 2.4775 2.71686 2.75586 0.5 0 0 0 1.39746 -1.20611 0.862043 
218 2.3856 5.03042 3.71336 0.5 0 0 0 -0.964772 1.53913 0.410971 
219 1.09024 2.61491 3.18492 0.5 0 0 0 0.202244 -1.69437 0.472069 
220 2.32371 4.8339 2.95769 0.5 0 0 0 -0.618068 0.361621 0.828816 
221 1.05556 3.48504 3.60298 0.5 0 0 0 0.438451 -0.233081 0.805258 
222 2.43947 3.20194 3.06529 0.5 0 0 0 0.899475 -1.47824 0.585514 
223 1.90844 2.58351 3.33421 0.5 0 0 0 1.00395 -1.39159 0.908071 
224 0.518845 4.92289 3.11834 0.5 0 0 0 -0.680181 1.04935 -0.188431 
225 0.511127 3.84252 3.64451 0.5 0 0 0 -0.152896 0.0962081 0.347046 
226 0.947702 4.03003 2.86601 0.5 0 0 0 -0.664889 0.111387 0.686519 
227 1.10353 3.04117 3.11188 0.5 0 0 0 0.291882 -0.946485 0.135894 
228 0.260917 4.35829 2.60106 0.5 0 0 0 -1.13178 -0.263865 -0.406475 
229 0.262293 4.30495 3.51799 0.5 0 0 0 -0.219818 -0.166068 -0.264815 
230 1.60813 2.9128 3.13403 0.5 0 0 0 0.859954 -1.11713 0.637785 
234 1.25336 3.65657 3.14787 0.5 0 0 0 0.170566 -0.177621 0.462591 
232 2.45704 3.29094 3.07976 0.5 0 0 0 0.789174 -1.45303 0.514955 
233 1.25657 4.7676 3.40159 0.5 0 0 0 0.262837 -0.270112 0.631774 
472 2.51545 4.84304 2.81896 0.5 0 0 0 -0.522628 0.376661 0.860458 
251 1.85861 2.53247 3.78307 0.5 0 0 0 0.796328 -1.97067 0.86192 
452 2.41994 3.93784 3.55703 0.5 0 0 0 -0.618567 -0.76775 -0.227211 
254 1.67058 4.93834 3.76207 0.5 0 0 0 -0.108516 -0.00648746 -0.126814 
197 1.56002 4.63702 2.4755 0.5 0 0 0 0.194486 -0.0431651 0.939237 
235 1.25867 4.88886 4.11647 0.5 0 0 0 -0.0651231 -0.422463 -0.500046 
236 2.01964 3.92687 3.99277 0.5 0 0 0 -1.36752 -0.449656 -0.153222 
237 0.594821 2.54956 3.92611 0.5 0 0 0 0.437815 -2.27666 0.91192 
238 0.923658 4.7717 4.37611 0.5 0 0 0 0.1501 -0.396483 -0.10896 
239 0.871878 3.75292 3.98212 0.5 0 0 0 0.547505 0.0329708 1.33284 
240 2.06139 4.5736 4.57908 0.5 0 0 0 -2.31867 1.31122 0.100666 
241 2.18404 4.38619 4.75142 0.5 0 0 0 -2.57608 0.697029 0.681002 
242 0.0972791 3.19401 4.41598 0.5 0 0 0 0.71209 -0.0226467 0.530369 
243 -0.0210882 2.72653 4.80955 0.5 0 0 0 0.478517 -2.54415 1.85162 
244 0.523834 4.91628 4.84729 0.5 0 0 0 -0.892572 0.136728 1.01536 
245 1.52927 3.07001 4.9543 0.5 0 0 0 -1.28629 -1.12745 1.45297 
246 1.24538 3.71929 4.41729 0.5 0 0 0 -0.181744 -0.942073 1.03637 
247 2.42627 3.35712 3.82755 0.5 0 0 0 -0.0792569 -1.80327 -0.26374 
248 1.72736 2.6764 4.86734 0.5 0 0 0 -0.717054 -1.99976 0.514701 
249 1.67259 3.00147 4.12672 0.5 0 0 0 0.268963 -1.74658 0.717873 
250 1.29946 2.62047 3.95289 0.5 0 0 0 0.753732 -2.08436 1.28444 
259 0.587312 2.8217 3.88904 0.5 0 0 0 0.414857 -1.32143 0.940618 
258 0.0372927 2.95954 4.02069 0.5 0 0 0 -0.312629 -0.790853 -0.239211 
253 0.163214 2.67727 3.94064 0.5 0 0 0 -0.222697 -1.89763 0.00968776 
498 2.47241 3.56394 4.29258 0.5 0 0 0 -1.20945 -2.02103 -0.680375 
255 0.21392 3.66474 4.84726 0.5 0 0 0 0.696271 0.260033 1.04158 
256 2.32357 4.09436 4.60624 0.5 0 0 0 -2.25486 -0.685991 -0.152641 
257 1.27313 4.24124 4.86155 0.5 0 0 0 -0.926732 -1.02028 1.44443 
260 4.00548 -0.156981 0.919827 0.5 0 0 0 -0.224123 -2.77561 0.556826 
261 3.19555 2.28939 1.1298 0.5 0 0 0 -0.766293 0.0920799 1.34747 
262 4.78766 2.0216 0.404295 0.5 0 0 0 1.76571 0.433295 -1.08045 
263 4.86348 0.626847 0.98959 0.5 0 0 0 1.13944 -1.77797 0.856615 
264 3.25884 0.915974 0.20199 0.5 0 0 0 -0.773204 0.955028 -0.970817 
265 4.90554 1.41686 1.11291 0.5 0 0 0 1.8499 0.293406 1.42064 
266 4.83436 0.647197 -0.0129294 0.5 0 0 0 0.867883 -0.263267 -3.22908 
267 3.45728 1.79731 0.886208 0.5 0 0 0 -1.61344 -0.356158 0.380734 
268 2.89322 0.522865 0.844905 0.5 0 0 0 -0.153669 -0.397538 1.69462 
269 3.96982 1.81192 0.224053 0.5 0 0 0 -1.04673 -0.483306 -2.25333 
270 3.93633 1.90246 1.01936 0.5 0 0 0 -0.967751 0.532186 1.32245 
293 3.0209 2.402 0.572195 0.5 0 0 0 -0.796773 -0.433163 0.20857 
272 4.42309 1.79276 0.74169 0.5 0 0 0 0.0471627 0.718761 0.202831 
273 4.85214 1.36363 0.800134 0.5 0 0 0 1.45537 -0.322715 -0.105088 
274 2.68345 0.714079 0.824468 0.5 0 0 0 0.231245 -0.0903688 1.49875 
275 2.53788 2.34775 0.0564492 0.5 0 0 0 -0.496809 -1.07394 -2.05814 
276 5.08107 0.0669191 0.787804 0.5 0 0 0 1.14268 -1.66567 0.654519 
294 3.1399 0.0914951 0.349254 0.5 0 0 0 0.150639 -2.31544 -0.195652 
278 3.60827 1.88445 0.935527 0.5 0 0 0 -1.47463 -0.0204876 0.739811 
279 3.71217 0.457467 0.171548 0.5 0 0 0 0.354191 -1.3219 -1.49393 
295 2.73142 1.13214 0.898664 0.5 0 0 0 -0.159657 0.170704 0.86899 
281 3.0564 0.151204 0.970869 0.5 0 0 0 -0.451422 -1.93761 1.77542 
282 3.8744 1.69556 1.09783 0.5 0 0 0 -1.31083 0.0497836 1.41507 
283 3.80613 2.33927 -0.181278 0.5 0 0 0 -1.10119 -0.92873 -3.77636 
284 4.16863 2.09976 0.500958 0.5 0 0 0 -0.298067 0.731249 -0.333603 
285 3.41145 2.33265 0.439947 0.5 0 0 0 -1.11925 -0.145078 -0.370699 
286 3.72183 0.963263 0.427497 0.5 0 0 0 -1.14009 -0.231042 -0.451789 
287 4.34117 1.03841 0.421521 0.5 0 0 0 -0.48695 -1.23545 -1.49508 
288 4.07944 1.6191 1.03376 0.5 0 0 0 -1.10338 0.123647 1.24638 
289 4.36668 1.05293 0.596493 0.5 0 0 0 -0.637179 -1.32411 -0.787537 
290 3.33103 0.992293 0.623105 0.5 0 0 0 -1.22178 0.311962 0.681976 
291 2.90505 1.00379 0.0831401 0.5 0 0 0 -0.432347 1.52793 -1.78159 
297 3.1628 0.422646 1.81526 0.5 0 0 0 -1.29628 -1.55319 0.777126 
298 3.83873 2.08749 2.17161 0.5 0 0 0 -1.14485 -0.142797 1.0444 
299 3.06609 0.732192 2.23274 0.5 0 0 0 -0.806988 -0.563646 1.53064 
323 3.16958 1.7184 1.55879 0.5 0 0 0 -0.674011 -0.158868 1.15615 
301 3.32709 1.70196 2.15388 0.5 0 0 0 -0.572203 0.0774351 1.27871 
302 3.70478 0.970469 1.80799 0.5 0 0 0 -0.872637 0.195384 1.52381 
303 3.80396 0.847812 1.9442 0.5 0 0 0 -0.641847 0.0391945 1.64934 
292 4.33293 1.2853 1.247 0.5 0 0 0 -0.639721 -0.24934 1.77523 
305 4.06196 1.45734 1.37117 0.5 0 0 0 -1.02101 0.152813 2.08159 
306 4.61121 1.24738 1.92466 0.5 0 0 0 0.787666 -0.0452654 1.55538 
307 4.02807 0.00290704 2.16168 0.5 0 0 0 -1.98922 -2.04563 -0.125271 
308 4.72506 0.10443 2.27495 0.5 0 0 0 0.0573777 -0.247069 0.0162182 
309 3.95474 0.747127 1.92068 0.5 0 0 0 -0.468743 -0.276005 1.65565 
310 4.61075 2.32872 1.97826 0.5 0 0 0 0.484483 -0.142864 0.410056 
311 3.53786 2.25907 2.09171 0.5 0 0 0 -0.893472 0.158258 1.12888 
321 4.85074 -0.0225681 2.20582 0.5 0 0 0 0.482391 -0.650853 -0.309894 
313 2.56726 1.50595 2.20377 0.5 0 0 0 0.109501 0.00598678 1.31397 
320 2.69246 1.31431 1.87261 0.5 0 0 0 0.0635797 -0.068921 0.908764 
315 3.26739 0.871674 1.95479 0.5 0 0 0 -0.804995 -0.121807 1.16742 
316 4.50044 1.00423 2.30411 0.5 0 0 0 0.307771 0.0216562 0.921436 
317 4.42454 1.96834 2.33396 0.5 0 0 0 -0.426078 -0.757581 0.429066 
318 3.62757 0.647102 1.4244 0.5 0 0 0 -1.2971 -0.89422 0.717612 
319 3.17122 2.16817 1.97116 0.5 0 0 0 -0.361795 0.250638 1.24402 
271 4.89445 1.59838 1.20693 0.5 0 0 0 1.99259 1.05745 1.86764 
19 2.58919 1.86325 1.1735 0.5 0 0 0 0.0130788 -0.264312 0.539887 
280 3.82517 0.808423 1.18765 0.5 0 0 0 -1.36638 -0.816554 0.795772 
300 4.20682 2.38482 1.22812 0.5 0 0 0 -0.0437795 0.85015 1.85779 
296 4.29953 0.620873 1.17349 0.5 0 0 0 -0.391205 -1.69166 0.799844 
277 3.47974 2.13585 1.17679 0.5 0 0 0 -1.08779 0.311788 1.56497 
324 4.2005 1.07209 3.60419 0.5 0 0 0 -1.49449 0.44759 -0.557452 
325 3.13526 0.346658 3.34054 0.5 0 0 0 -3.12541 -1.2646 1.33761 
326 3.6674 1.472 3.67458 0.5 0 0 0 -1.94332 -0.405533 -0.0547215 
327 4.15864 1.37272 2.56514 0.5 0 0 0 -0.879734 -0.24879 0.532213 
328 3.56054 0.74607 2.82266 0.5 0 0 0 -1.23031 0.197374 0.97087 
329 4.6547 1.85821 2.76121 0.5 0 0 0 0.287448 -1.60688 -0.422618 
330 3.37921 1.61927 3.26273 0.5 0 0 0 -1.49018 -0.39345 0.612963 
331 4.42015 1.68675 3.2659 0.5 0 0 0 -1.11423 -1.26894 -0.40788 
332 4.72992 0.335375 2.57276 0.5 0 0 0 0.29563 0.868842 -0.287331 
333 2.6687 0.745662 3.45056 0.5 0 0 0 -3.12683 -1.52282 2.19033 
334 4.39709 0.492244 3.23253 0.5 0 0 0 -0.533095 0.856189 -1.8411 
335 5.05886 2.33764 2.86349 0.5 0 0 0 3.04182 -1.00717 -0.90386 
336 4.0552 0.349995 3.25553 0.5 0 0 0 -1.75579 0.276347 -0.965941 
350 2.94786 1.6205 2.67099 0.5 0 0 0 -0.331914 -0.231865 1.44436 
338 2.75766 1.04702 3.7024 0.5 0 0 0 -3.05278 -1.44822 1.35405 
339 2.70522 0.895148 2.70661 0.5 0 0 0 -1.0301 -1.15822 2.43863 
340 2.93398 1.02899 3.59673 0.5 0 0 0 -2.76063 -1.00176 1.23853 
341 4.47473 1.9948 3.43292 0.5 0 0 0 -1.11104 -1.62637 0.0347211 
342 4.92134 1.88469 3.61398 0.5 0 0 0 1.08787 -1.75814 0.255101 
343 3.24145 1.5906 2.6238 0.5 0 0 0 -0.676344 -0.187414 1.25356 
349 4.1968 -0.0384065 3.21981 0.5 0 0 0 -1.68687 -1.34803 -1.61063 
345 3.47824 0.042665 3.05535 0.5 0 0 0 -2.73641 -2.21437 0.525275 
346 3.69694 0.812518 3.53319 0.5 0 0 0 -2.44886 0.196074 0.13308 
347 2.80181 1.66491 2.63693 0.5 0 0 0 -0.102885 -0.190696 1.44765 
348 2.63913 1.65882 2.67643 0.5 0 0 0 0.0403044 -0.424346 1.55995 
352 4.94759 1.25163 3.70679 0.5 0 0 0 1.53044 -0.0804482 -0.468106 
469 4.12805 2.45323 2.60915 0.5 0 0 0 -1.94939 -0.32756 -0.22052 
304 2.73538 0.148584 2.52863 0.5 0 0 0 -1.7314 -2.67708 1.93469 
384 4.55125 0.313802 3.78158 0.5 0 0 0 -1.08601 0.714418 -1.93761 
351 4.81681 0.433176 4.13216 0.5 0 0 0 0.535569 1.28442 -0.255546 
381 3.28515 1.87301 4.23842 0.5 0 0 0 -1.69196 -1.05932 -1.04763 
353 3.42787 1.25797 4.13506 0.5 0 0 0 -2.41256 -0.74174 -0.231667 
354 3.93464 1.93868 4.94641 0.5 0 0 0 -0.46934 -0.731158 1.15885 
355 4.89446 2.33384 4.0075 0.5 0 0 0 0.313428 -1.36289 1.33112 
356 4.4518 -0.173153 4.76968 0.5 0 0 0 -1.8599 -2.81266 1.58584 
383 4.1318 0.484744 4.99291 0.5 0 0 0 -2.19937 0.864394 2.5648 
358 5.09289 1.5728 4.75784 0.5 0 0 0 1.2854 -0.321766 1.65896 
359 3.01964 1.92093 4.29427 0.5 0 0 0 -1.64714 -1.29444 -1.07775 
360 4.55823 0.294838 4.19705 0.5 0 0 0 -1.20755 0.680704 -0.31247 
361 5.0107 2.27456 4.16295 0.5 0 0 0 0.815448 -1.71614 1.74499 
362 4.17113 0.254776 4.2464 0.5 0 0 0 -3.31803 0.015712 -0.20573 
363 3.9113 0.319092 4.53698 0.5 0 0 0 -4.12051 -0.228939 0.557681 
364 2.66473 1.94635 4.90104 0.5 0 0 0 -2.03356 -1.87524 0.775546 
365 3.1697 1.79581 4.59542 0.5 0 0 0 -1.63188 -1.52831 -0.429104 
366 4.61143 0.911564 4.1486 0.5 0 0 0 -0.161787 1.71038 0.501421 
367 3.81678 -0.0602478 3.84489 0.5 0 0 0 -4.3825 -2.21107 0.189197 
368 4.06429 1.84855 4.28442 0.5 0 0 0 -1.15827 -0.71884 -0.0177375 
369 3.4942 1.48242 4.35656 0.5 0 0 0 -1.88366 -0.953648 -0.468798 
370 2.82999 0.443283 4.66007 0.5 0 0 0 -3.54671 -1.0807 0.0899852 
371 4.72583 0.250737 4.64224 0.5 0 0 0 0.354017 0.645354 1.6131 
382 3.88419 0.944612 3.84084 0.5 0 0 0 -2.45412 0.362202 -0.0352746 
373 4.63289 0.300491 3.94053 0.5 0 0 0 -0.776872 0.734406 -1.3753 
374 4.53401 0.4862 4.04811 0.5 0 0 0 -1.13014 1.24204 -0.778795 
375 5.03447 0.0100987 4.98312 0.5 0 0 0 3.59473 -1.18715 3.2094 
376 4.10392 1.60789 4.6828 0.5 0 0 0 -0.582515 -0.440843 0.453451 
377 4.01537 2.10371 5.10767 0.5 0 0 0 -0.10988 -0.494932 2.13391 
378 2.91759 1.64263 5.01092 0.5 0 0 0 -1.92863 -2.16827 1.57483 
379 3.53378 0.926495 5.07408 0.5 0 0 0 -2.38334 -0.425521 1.83415 
380 3.06477 2.29047 4.29765 0.5 0 0 0 -1.41922 -1.25235 -1.06824 
385 2.72743 3.16667 0.678625 0.5 0 0 0 -0.259404 0.03759 0.477864 
386 4.46001 4.72631 0.0499722 0.5 0 0 0 0.670263 0.329364 -0.709591 
387 3.86554 3.94207 0.138872 0.5 0 0 0 0.119298 -0.411048 -0.427999 
388 4.32021 4.0172 1.07919 0.5 0 0 0 -0.817741 -0.172869 -1.10386 
389 3.81849 3.08829 0.794953 0.5 0 0 0 -0.593907 0.0886795 0.755426 
390 3.64731 4.11213 0.128382 0.5 0 0 0 0.0900852 -0.597329 0.0534268 
391 5.05322 4.32999 1.07581 0.5 0 0 0 2.14326 1.0872 -1.29534 
392 4.88878 2.67893 0.295459 0.5 0 0 0 1.32142 0.365176 -0.297538 
393 4.52615 4.58372 0.677722 0.5 0 0 0 -0.0148469 1.27504 -0.991652 
394 2.76375 2.92559 1.08836 0.5 0 0 0 0.017205 -0.151015 1.30114 
395 4.91111 2.95984 0.998603 0.5 0 0 0 1.35504 -0.497235 1.14156 
396 4.08242 3.07659 0.0175135 0.5 0 0 0 -0.343927 0.450849 -1.52539 
397 5.07976 4.04744 0.82505 0.5 0 0 0 2.38249 -0.0624499 -1.63067 
398 2.92734 4.94157 0.00822042 0.5 0 0 0 -0.477086 2.0375 -1.50091 
399 3.38818 4.92148 0.588322 0.5 0 0 0 0.578039 1.09103 -0.330991 
400 3.33768 4.51274 0.419337 0.5 0 0 0 0.195516 -0.603886 0.275915 
401 3.37374 2.65717 0.071992 0.5 0 0 0 -0.97883 -0.396983 -1.65034 
402 2.72655 3.11912 0.688007 0.5 0 0 0 -0.262875 0.00999695 0.537523 
403 4.76397 3.22272 0.182963 0.5 0 0 0 0.431396 0.481352 -1.34414 
404 4.20748 2.63552 0.142012 0.5 0 0 0 -0.164163 0.531448 -0.894051 
405 4.05945 4.87616 -0.0238891 0.5 0 0 0 0.28288 0.873257 -0.164251 
406 4.20553 3.58907 1.03062 0.5 0 0 0 -0.88744 -0.743139 -0.290759 
407 2.81353 4.21131 -0.0113295 0.5 0 0 0 -0.346715 -0.769312 -1.25041 
408 4.99349 3.11745 0.424443 0.5 0 0 0 1.24841 -0.0506815 -0.253515 
409 3.77206 3.30856 0.562627 0.5 0 0 0 -0.535945 0.0681148 0.0362013 
410 3.87007 2.62726 0.885772 0.5 0 0 0 -0.532581 0.714145 1.2317 
411 4.18383 2.65307 1.06401 0.5 0 0 0 -0.135396 0.559444 1.46072 
412 3.0916 3.18162 0.446709 0.5 0 0 0 -0.480453 0.0500612 0.0615088 
413 2.9187 3.71694 0.925144 0.5 0 0 0 -0.225709 -0.363148 0.330764 
414 2.70955 4.48431 0.643286 0.5 0 0 0 -0.107215 -0.930291 0.142364 
415 2.6388 4.93667 1.11349 0.5 0 0 0 -1.07919 0.886343 -0.319933 
417 3.0858 3.60769 0.193227 0.5 0 0 0 -0.439155 -0.300426 -0.622333 
418 4.81606 4.17573 1.6567 0.5 0 0 0 0.591411 -0.344372 0.0452518 
419 2.97104 3.77732 2.20127 0.5 0 0 0 0.527179 -1.67748 0.597791 
420 4.87673 3.94974 2.41375 0.5 0 0 0 0.274877 -1.57639 0.677263 
421 4.8751 4.57039 1.80973 0.5 0 0 0 1.01157 1.67479 -0.455603 
422 4.26911 4.54908 1.75393 0.5 0 0 0 0.210617 0.978853 0.159588 
423 3.64883 4.60707 1.39654 0.5 0 0 0 0.361032 0.133712 -1.23185 
424 4.35686 3.80958 1.43822 0.5 0 0 0 -0.729228 -1.16538 0.524537 
425 2.78397 3.15329 1.33965 0.5 0 0 0 0.223684 -0.293643 1.28224 
426 3.24265 4.55351 2.11576 0.5 0 0 0 0.10523 -0.908433 1.66018 
427 3.29534 4.61706 1.65763 0.5 0 0 0 -0.180091 -0.610715 -0.144508 
428 4.92767 4.3107 2.00987 0.5 0 0 0 0.632436 -0.199116 0.0995154 
429 3.19584 4.83428 1.72876 0.5 0 0 0 -0.356617 0.283534 0.170773 
430 2.95764 4.84836 1.32106 0.5 0 0 0 -0.875966 0.354235 -0.984323 
431 3.50765 2.67592 2.37491 0.5 0 0 0 -0.874512 -0.138894 0.589053 
432 3.95776 2.50817 1.48 0.5 0 0 0 -0.674992 0.427693 1.943 
433 2.74246 4.35531 2.39777 0.5 0 0 0 -0.216759 -1.01736 0.873594 
434 3.13473 4.5078 1.94043 0.5 0 0 0 -0.332037 -1.07924 0.870717 
435 3.61635 4.6595 1.62657 0.5 0 0 0 0.532133 0.0850821 -0.176546 
436 3.34108 3.27577 2.05506 0.5 0 0 0 -0.141774 -0.940369 0.961174 
437 3.80656 3.98331 1.78453 0.5 0 0 0 -0.714629 -1.51626 0.9408 
438 5.00233 3.52831 1.86043 0.5 0 0 0 1.73065 -1.93281 0.236791 
439 4.48504 4.48045 2.45637 0.5 0 0 0 -0.699925 0.100604 1.44691 
440 2.64624 3.87469 2.23009 0.5 0 0 0 0.374726 -1.16794 0.247914 
441 2.92967 4.74914 2.12021 0.5 0 0 0 -0.681675 -0.00188838 1.1079 
442 3.06368 4.58908 1.38181 0.5 0 0 0 -0.702523 -0.753026 -1.05749 
443 3.87393 4.1195 1.9644 0.5 0 0 0 -0.426207 -1.36559 1.44374 
444 2.67807 4.3564 1.89243 0.5 0 0 0 -0.768882 -0.933532 -0.157709 
445 4.42925 3.75366 1.23855 0.5 0 0 0 -0.571491 -1.03452 -0.0131124 
446 4.16136 3.88015 2.29142 0.5 0 0 0 -0.971887 -1.56511 1.40267 
447 3.98414 3.83381 1.7099 0.5 0 0 0 -1.0035 -1.50695 1.02252 
448 4.54614 2.8292 2.22811 0.5 0 0 0 -0.167322 0.272995 -0.265157 
449 3.08114 3.86142 1.29596 0.5 0 0 0 -0.376898 -0.892187 0.0159918 
450 3.48301 3.36566 1.39671 0.5 0 0 0 -0.555956 -0.723565 1.08945 
416 4.4394 3.86706 1.2623 0.5 0 0 0 -0.55354 -0.823874 -0.162324 
203 2.54257 2.99444 1.48494 0.5 0 0 0 0.543098 -0.349898 1.11907 
322 2.8968 2.52125 1.8635 0.5 0 0 0 0.201451 -0.0968841 1.34304 
314 4.95153 2.49957 1.43986 0.5 0 0 0 2.18035 0.0170281 0.881094 
479 2.67201 3.66334 3.67497 0.5 0 0 0 -0.203289 -1.6408 -0.627286 
453 4.81672 2.73412 3.2535 0.5 0 0 0 0.831716 0.57149 -0.423171 
454 3.96861 3.31053 2.81272 0.5 0 0 0 -1.04522 -0.0947011 0.106194 
455 2.9786 4.28332 3.66019 0.5 0 0 0 -0.726507 -0.931999 -1.02451 
456 2.78681 4.65171 3.10914 0.5 0 0 0 -0.203217 -0.44247 0.326359 
457 3.04669 4.89391 2.94079 0.5 0 0 0 0.553135 0.68705 0.706068 
458 3.38148 3.15475 2.90913 0.5 0 0 0 -0.536569 -0.877628 0.204813 
459 4.79833 4.06689 2.63941 0.5 0 0 0 -0.128109 -1.05999 1.14755 
460 4.33881 2.93316 3.14829 0.5 0 0 0 -1.28471 1.05584 -0.479655 
461 4.46962 4.44766 2.57146 0.5 0 0 0 -0.804011 -0.0312788 1.57333 
462 4.70144 4.99918 2.54254 0.5 0 0 0 0.45687 4.6025 1.38145 
463 4.41338 2.63817 2.73774 0.5 0 0 0 -1.22617 -0.00238598 -0.778387 
464 3.08229 3.82563 3.12878 0.5 0 0 0 0.299019 -1.73467 -0.110341 
465 3.5702 3.93289 3.56068 0.5 0 0 0 0.454624 -1.22727 -1.19882 
466 4.19208 2.57746 3.01758 0.5 0 0 0 -2.12602 -0.251424 -0.64055 
467 3.47467 4.4369 3.46202 0.5 0 0 0 0.871091 -0.333501 -0.872539 
468 4.83204 2.71881 2.53955 0.5 0 0 0 1.39737 0.238186 -0.966798 
344 4.18941 2.52632 3.41191 0.5 0 0 0 -2.05254 -0.494533 0.0024795 
470 4.4847 2.5291 3.64937 0.5 0 0 0 -1.05989 -0.473927 0.538407 
471 3.84037 4.76542 3.03905 0.5 0 0 0 0.428616 1.21801 0.489408 
451 2.79986 3.7981 2.4996 0.5 0 0 0 0.673176 -1.50344 0.668469 
473 2.91846 5.08609 3.74857 0.5 0 0 0 -0.149595 2.67788 0.232562 
474 4.50733 2.85756 3.6255 0.5 0 0 0 -0.710929 1.0426 0.308586 
478 3.98902 2.61315 3.41298 0.5 0 0 0 -2.49939 -0.215994 -0.0580641 
476 4.67836 3.70549 3.01079 0.5 0 0 0 0.0893665 -0.00659222 0.817232 
477 2.80107 4.25512 2.56629 0.5 0 0 0 0.088251 -1.26941 0.94076 
337 4.00855 2.47712 3.28526 0.5 0 0 0 -2.56719 -0.587886 -0.210879 
475 4.80452 4.05407 3.78608 0.5 0 0 0 0.93925 -0.0504979 -0.15589 
480 3.58953 3.80889 4.79312 0.5 0 0 0 1.28077 -1.32209 0.955273 
481 4.13979 3.02608 4.95778 0.5 0 0 0 -0.268005 -1.4702 2.14236 
482 3.77861 3.59844 4.0078 0.5 0 0 0 0.420711 -0.998568 -1.09704 
483 4.4053 4.8875 4.10612 0.5 0 0 0 0.262984 0.500345 -1.75148 
484 3.17257 4.00243 3.96811 0.5 0 0 0 -0.446881 -1.44901 -1.51125 
485 3.66542 3.93623 4.40886 0.5 0 0 0 1.3097 -0.836028 -0.600788 
486 4.72062 4.70312 4.34976 0.5 0 0 0 -0.0982475 -0.899073 -1.36617 
487 3.2799 3.12529 4.27903 0.5 0 0 0 -0.664689 -1.98188 -0.831769 
488 4.67013 3.1766 4.66622 0.5 0 0 0 0.0223547 0.0686456 0.971288 
489 3.35019 4.83711 5.08971 0.5 0 0 0 -0.173165 3.09065 3.98358 
490 3.58041 3.44622 4.24509 0.5 0 0 0 -0.0363058 -1.73963 -0.884367 
491 3.71318 4.11091 4.82948 0.5 0 0 0 2.05158 -0.117153 1.33699 
492 2.66401 3.19064 4.79124 0.5 0 0 0 -1.28711 -2.59108 0.923019 
493 4.51494 3.66925 4.72374 0.5 0 0 0 1.18591 0.523262 0.678229 
494 3.42613 3.64516 5.12502 0.5 0 0 0 0.777809 -2.09058 3.3119 
495 2.6833 4.06725 4.41672 0.5 0 0 0 -1.05385 -0.908434 -1.15868 
496 2.62238 3.80937 4.95755 0.5 0 0 0 -1.37844 -1.77676 1.45777 
497 3.38169 4.37698 3.94441 0.5 0 0 0 0.446712 -0.250724 -1.31615 
357 3.44985 2.4954 4.63855 0.5 0 0 0 -0.880716 -1.29877 0.135068 
499 3.95608 2.50646 4.05607 0.5 0 0 0 -1.53387 -0.7491 0.251147 
500 4.65468 4.93223 4.97398 0.5 0 0 0 -0.725087 -0.119521 1.69279 
501 4.62616 4.81561 4.90394 0.5 0 0 0 -0.28352 -0.29376 1.29272 
502 2.68187 3.97567 4.77886 0.5 0 0 0 -0.999005 -1.16852 0.287559 
503 2.93975 4.25916 4.55901 0.5 0 0 0 -0.375716 -0.128667 -0.685945 
504 3.55114 3.30536 4.29101 0.5 0 0 0 -0.23461 -1.87487 -0.698648 
505 3.69576 4.82259 4.28552 0.5 0 0 0 1.42029 1.77461 -0.194306 
506 4.09435 4.02173 3.97424 0.5 0 0 0 1.82456 0.0293979 -0.947338 
507 4.9127 2.81897 3.94309 0.5 0 0 0 0.483231 0.990074 0.557368 
508 2.87514 3.92811 4.68636 0.5 0 0 0 -0.391832 -1.40775 -0.269409 
509 3.30514 4.7555 4.40391 0.5 0 0 0 0.178886 1.78593 -0.10022 
510 3.08449 4.49512 4.06088 0.5 0 0 0 -0.596054 0.201675 -1.22216 
511 2.64438 3.03166 4.50455 0.5 0 0 0 -1.03002 -2.20832 -0.126203 
512 2.666 2.82481 4.36838 0.5 0 0 0 -0.847073 -1.88601 -0.442515 
513 4.86973 3.02687 4.2985 0.5 0 0 0 0.30437 1.0337 0.591181 
ITEM: TIMESTEP
60057
ITEM: NUMBER OF ATOMS
512
ITEM: BOX BOUNDS ss ss ss
-2.1589663964569298e-02 5.0933846546203574e+00
-1.7364439631764822e-01 5.0865807164741392e+00
-1.8176655292622759e-01 5.1255068607205727e+00
ITEM: ATOMS id x y z width_SPH x_COM y_COM z_COM vx vy vz 
2 0.301064 0.775935 0.24686 0.5 0 0 0 -1.37932 -0.579517 0.0687963 
3 0.259441 1.29101 0.60572 0.5 0 0 0 -2.08439 -0.964672 0.287744 
4 0.78748 1.24764 1.03676 0.5 0 0 0 -0.386233 -0.340105 0.749205 
5 1.73538 1.8934 0.823938 0.5 0 0 0 0.958559 0.352105 0.221129 
6 0.274201 2.07866 0.84853 0.5 0 0 0 -2.11846 0.860428 1.16652 
7 0.546657 1.58454 0.342548 0.5 0 0 0 -0.688682 -0.372085 -0.682104 
8 1.33606 0.2259 0.773361 0.5 0 0 0 0.0500301 -0.685423 1.18411 
9 1.53468 0.986431 0.33138 0.5 0 0 0 0.774076 0.260717 -0.747349 
10 1.11158 1.53603 -0.0685492 0.5 0 0 0 0.98379 -0.388498 -2.84956 
11 1.39605 1.22774 0.796168 0.5 0 0 0 0.782327 0.130038 0.282639 
38 1.08307 2.32881 0.776648 0.5 0 0 0 0.516866 0.421789 0.862951 
41 2.23083 2.37931 1.02289 0.5 0 0 0 0.351372 -0.202259 0.556569 
14 1.26049 2.06321 0.329272 0.5 0 0 0 1.32266 0.117816 -0.380264 
15 1.54694 0.0394786 0.976119 0.5 0 0 0 1.23301 -1.50689 2.12373 
37 0.636908 0.390266 0.353983 0.5 0 0 0 -1.47734 -0.58654 0.379705 
17 1.08139 0.119436 0.519715 0.5 0 0 0 -1.29667 -0.687397 0.53848 
18 1.50826 -0.0164863 0.0458996 0.5 0 0 0 0.0210414 -0.949773 -1.1523 
40 1.99513 0.669575 0.604462 0.5 0 0 0 1.39264 -0.197948 0.904848 
20 0.369823 1.75927 1.04789 0.5 0 0 0 -1.73136 0.350025 1.28566 
21 1.878 1.79469 0.745542 0.5 0 0 0 1.08073 0.22636 -0.00311548 
22 0.552788 2.4223 0.409937 0.5 0 0 0 -0.55825 0.212977 0.657484 
39 0.791151 1.5785 0.810199 0.5 0 0 0 0.140692 0.22759 0.408955 
24 0.00341407 0.598287 0.0816951 0.5 0 0 0 -2.72802 -0.779909 -0.133749 
25 1.95436 0.260601 0.581879 0.5 0 0 0 1.68408 -0.755028 1.36424 
26 1.35581 0.890949 0.584786 0.5 0 0 0 0.399608 0.0193502 -0.00984295 
27 0.864667 1.8141 0.900152 0.5 0 0 0 0.377412 0.670905 0.691824 
28 2.15663 0.959746 0.359459 0.5 0 0 0 0.88357 0.501597 -0.229977 
29 2.42448 1.35995 0.269411 0.5 0 0 0 0.107995 1.01778 -1.19046 
30 1.3992 0.242433 0.884059 0.5 0 0 0 0.488745 -0.821785 1.45704 
31 1.65837 1.51848 0.685685 0.5 0 0 0 1.2024 0.362151 0.0101973 
32 1.30153 2.09592 0.250957 0.5 0 0 0 1.47637 0.00634827 -0.708899 
33 1.46276 1.14326 0.721758 0.5 0 0 0 0.856833 0.0701451 0.199775 
34 0.622256 2.08924 -0.0271204 0.5 0 0 0 -0.447986 -0.575382 -2.02294 
35 1.77116 0.0448097 -0.128815 0.5 0 0 0 1.17617 -0.864671 -2.25462 
36 0.968307 0.88323 0.0786193 0.5 0 0 0 0.0955936 0.032826 -1.47965 
144 0.0212074 2.45507 0.114574 0.5 0 0 0 -3.16821 -0.780045 -1.09895 
43 1.54524 0.0677301 1.95231 0.5 0 0 0 1.5468 -2.05896 2.27935 
44 1.36472 2.35713 1.90941 0.5 0 0 0 0.773321 -0.34797 0.538687 
45 1.3338 1.11988 1.48552 0.5 0 0 0 0.476511 -0.198913 1.55749 
46 1.38771 2.23672 2.32625 0.5 0 0 0 0.773087 -0.849673 1.17322 
47 1.3959 1.26088 1.91896 0.5 0 0 0 -0.099845 -0.503567 2.36786 
48 1.18006 0.812493 1.47865 0.5 0 0 0 0.169844 -0.426955 1.76228 
49 2.47935 2.34211 1.69817 0.5 0 0 0 0.558041 -0.173277 1.19153 
50 0.891251 0.608881 1.67019 0.5 0 0 0 -1.07943 -0.542195 2.5108 
51 1.96892 0.939588 1.80624 0.5 0 0 0 0.474687 -1.09681 1.64682 
52 0.671609 1.64139 1.3334 0.5 0 0 0 -0.669205 0.09769 1.61566 
53 2.1247 1.44177 1.71791 0.5 0 0 0 0.456218 0.123614 0.952317 
54 0.390187 0.0429199 2.20343 0.5 0 0 0 -1.55319 -1.25142 0.557928 
55 1.73184 1.84185 1.70752 0.5 0 0 0 0.650538 0.164914 0.906609 
16 2.25736 2.0163 1.1787 0.5 0 0 0 0.457648 -0.0719204 0.552915 
57 2.38803 1.07707 1.62868 0.5 0 0 0 0.472638 -0.69335 0.75542 
58 1.78528 0.149196 2.2391 0.5 0 0 0 1.03273 -2.02278 2.7164 
59 1.24235 0.582601 2.37878 0.5 0 0 0 0.260536 -0.272358 3.92144 
60 0.669152 1.69642 1.57452 0.5 0 0 0 -0.979983 -0.221868 2.09611 
61 1.33412 0.3004 1.71432 0.5 0 0 0 0.887239 -1.21205 2.2636 
78 1.05745 1.89882 1.61753 0.5 0 0 0 0.147241 0.000548668 1.16135 
63 2.01583 1.57785 2.03482 0.5 0 0 0 0.300789 -0.0541685 1.40504 
64 0.517037 0.357616 2.37907 0.5 0 0 0 -0.565339 0.530362 2.62101 
65 1.06184 1.77544 2.19873 0.5 0 0 0 -0.468633 -1.40531 2.12137 
66 2.34198 0.861946 2.01783 0.5 0 0 0 0.0265109 -1.35149 1.67451 
67 1.10298 0.688532 2.02627 0.5 0 0 0 -0.327967 -0.221885 3.45711 
68 2.05806 1.47707 1.72367 0.5 0 0 0 0.443894 0.165848 1.00094 
69 1.40306 0.742946 2.26942 0.5 0 0 0 -0.0127784 -0.601991 3.5671 
77 0.387398 1.54418 1.42854 0.5 0 0 0 -2.22896 -0.477384 2.42533 
71 0.737609 0.532106 1.43847 0.5 0 0 0 -1.94547 -0.911225 1.66725 
72 1.00639 2.24107 2.44178 0.5 0 0 0 0.00219493 -1.25807 1.46173 
73 2.05738 1.03319 1.69108 0.5 0 0 0 0.568078 -0.88277 1.23015 
74 2.23184 1.01522 2.36173 0.5 0 0 0 -0.384269 -1.4577 2.51911 
75 0.0297744 2.3112 2.22173 0.5 0 0 0 -2.3531 -1.61492 0.705458 
76 0.971335 1.10815 1.45355 0.5 0 0 0 -0.382607 -0.281277 1.81095 
12 1.34528 1.51116 1.24545 0.5 0 0 0 0.683768 0.377339 0.874135 
13 1.86621 1.32627 1.25809 0.5 0 0 0 0.997055 -0.056035 0.66231 
312 2.49224 -0.0785401 1.66921 0.5 0 0 0 -0.146814 -2.94606 1.29968 
42 1.22906 0.726342 1.23555 0.5 0 0 0 0.353157 -0.502418 1.15911 
79 1.43519 2.24238 3.26306 0.5 0 0 0 0.022394 -2.28939 1.21441 
80 0.722434 0.183722 2.71177 0.5 0 0 0 1.47955 0.523551 2.97283 
81 1.07277 0.414989 2.90579 0.5 0 0 0 1.6268 0.318624 4.42182 
82 1.30862 1.94324 2.75295 0.5 0 0 0 -0.30758 -2.0402 1.91006 
83 1.70365 2.04278 2.87993 0.5 0 0 0 0.281041 -1.52933 1.5193 
84 1.24767 0.840099 3.71739 0.5 0 0 0 1.33464 -3.77977 4.56293 
85 2.02471 1.84019 2.82633 0.5 0 0 0 0.380648 -1.35918 1.644 
106 1.36419 1.31963 2.61107 0.5 0 0 0 -0.890061 -2.18681 3.25936 
87 0.898793 2.29175 3.34264 0.5 0 0 0 -0.293886 -2.93019 0.785301 
88 1.94612 1.3812 2.97942 0.5 0 0 0 -0.745031 -2.92613 2.8549 
89 1.47552 0.236477 3.78193 0.5 0 0 0 0.219616 1.79092 4.5814 
100 0.580247 2.16471 2.54007 0.5 0 0 0 -0.486546 -1.98833 1.75441 
91 1.72849 1.44584 2.74127 0.5 0 0 0 -0.619527 -2.43814 2.67734 
92 0.127772 2.09691 2.8373 0.5 0 0 0 -1.29462 -2.82379 1.5506 
93 0.715279 0.310069 2.792 0.5 0 0 0 1.35815 0.930455 3.27146 
94 1.45135 1.94302 2.6258 0.5 0 0 0 0.0977469 -1.59542 1.72403 
95 2.18937 2.14759 3.16346 0.5 0 0 0 0.8683 -1.23578 1.36449 
96 0.949792 1.87739 2.59393 0.5 0 0 0 -0.661398 -2.26227 2.27311 
97 1.79656 0.470849 3.60666 0.5 0 0 0 -2.34278 -1.28836 5.27526 
98 0.273039 1.57185 2.88923 0.5 0 0 0 -0.472683 -2.69578 1.99021 
99 2.15148 1.76573 3.33725 0.5 0 0 0 -0.0623566 -2.43032 1.9414 
105 0.7483 0.114089 3.1335 0.5 0 0 0 2.42402 0.805914 3.07574 
186 0.405525 2.44495 2.60322 0.5 0 0 0 -0.466374 -1.47824 1.20446 
102 1.84309 1.71237 3.01665 0.5 0 0 0 -0.358363 -2.45649 2.17475 
103 0.428588 1.0381 3.21399 0.5 0 0 0 1.28694 -1.2172 2.32733 
231 1.26226 2.35115 3.50858 0.5 0 0 0 0.166543 -2.64015 0.961345 
62 2.18333 1.76448 2.56415 0.5 0 0 0 0.450566 -0.647144 1.47221 
131 1.85477 1.6584 3.7735 0.5 0 0 0 -0.993892 -4.30605 2.03124 
56 2.44014 0.522582 2.48151 0.5 0 0 0 -0.939975 -1.83364 2.60202 
107 1.79924 0.179187 4.53986 0.5 0 0 0 -2.45825 2.4151 -3.09054 
108 1.07474 1.50091 4.4532 0.5 0 0 0 2.22999 -3.92927 -0.410834 
109 1.80422 0.539855 4.27432 0.5 0 0 0 -4.08391 -0.270142 -1.06239 
110 1.90998 0.686719 4.17965 0.5 0 0 0 -4.68706 -2.337 0.535285 
139 1.01 0.534253 4.84212 0.5 0 0 0 4.18383 -0.557517 -2.80623 
112 1.75817 0.698009 4.66543 0.5 0 0 0 -1.94931 -1.7847 -4.66978 
113 1.92756 1.25305 4.43647 0.5 0 0 0 -2.16254 -4.87596 -0.595469 
114 0.87299 0.925239 4.48012 0.5 0 0 0 4.97052 -2.01785 -2.19321 
115 1.84022 0.570507 4.46821 0.5 0 0 0 -3.73012 -0.563646 -3.38069 
116 0.780048 0.159623 4.3033 0.5 0 0 0 4.86737 0.454748 -1.147 
117 0.976208 0.936282 4.21248 0.5 0 0 0 4.88971 -3.28014 -0.842687 
138 0.0273677 1.19267 4.38544 0.5 0 0 0 0.0333269 -1.92568 0.369741 
119 0.767834 1.80938 4.39848 0.5 0 0 0 1.55623 -2.8226 0.538752 
120 1.48918 0.684123 4.13282 0.5 0 0 0 0.291234 -2.81559 1.22405 
121 1.88098 0.771576 3.94801 0.5 0 0 0 -3.8902 -3.61029 3.38602 
122 0.203652 -0.136026 4.07609 0.5 0 0 0 1.17963 -1.13955 0.140371 
123 1.22007 0.0987985 4.57304 0.5 0 0 0 3.27585 1.89726 -2.95651 
124 0.694214 0.489421 4.10319 0.5 0 0 0 4.98953 -0.112347 -0.715292 
125 1.57984 0.388103 4.1862 0.5 0 0 0 -1.13396 2.13369 0.184374 
126 1.32389 0.547611 4.31048 0.5 0 0 0 3.62926 -0.260659 -2.29493 
127 1.22247 2.04544 4.70511 0.5 0 0 0 0.529167 -2.49875 0.73864 
128 1.13273 0.893328 4.24918 0.5 0 0 0 4.63163 -3.84401 -1.04824 
129 0.157207 1.59083 4.15841 0.5 0 0 0 1.00231 -2.69924 -0.130502 
130 0.546431 0.828483 4.34959 0.5 0 0 0 3.60331 -1.03141 -1.40435 
137 0.139755 2.14504 3.86316 0.5 0 0 0 -0.174324 -3.3483 -0.349431 
132 2.24816 1.8794 3.83284 0.5 0 0 0 -0.369855 -2.65509 1.08224 
133 1.36568 0.564187 4.27385 0.5 0 0 0 2.91123 -0.547872 -1.67104 
134 1.70918 2.16356 4.92569 0.5 0 0 0 -0.345943 -2.30075 0.355999 
135 2.26419 0.167802 4.66814 0.5 0 0 0 -2.70267 -0.457139 -0.978082 
136 1.59585 1.61783 4.25902 0.5 0 0 0 -0.174909 -5.05052 0.598239 
86 1.99544 1.44378 3.89321 0.5 0 0 0 -1.58182 -4.76347 2.01602 
252 1.97124 2.33461 4.62375 0.5 0 0 0 -0.380436 -2.50466 -0.187744 
372 2.44558 0.703629 4.33782 0.5 0 0 0 -4.58188 -1.31109 -0.490341 
111 1.47988 2.39444 3.94322 0.5 0 0 0 0.573442 -2.60438 1.12606 
90 1.33534 1.25023 3.83517 0.5 0 0 0 0.0441995 -5.92803 2.69818 
104 1.86758 1.04363 3.82194 0.5 0 0 0 -2.65246 -5.30355 3.6286 
118 2.5096 1.67312 4.55116 0.5 0 0 0 -2.00913 -2.35967 -0.414629 
101 1.63832 0.949617 3.80756 0.5 0 0 0 -1.76203 -5.3882 4.48024 
140 2.46899 2.49535 0.521337 0.5 0 0 0 -0.128925 -0.497131 0.09254 
141 0.969153 3.25075 0.881211 0.5 0 0 0 -0.687551 -0.0542304 0.763204 
142 1.05819 3.61895 0.280845 0.5 0 0 0 0.076246 0.567478 -0.305142 
143 0.613292 3.01274 0.59791 0.5 0 0 0 -0.779387 -0.0736854 1.18857 
167 1.34249 2.79902 0.683508 0.5 0 0 0 0.86265 -0.28524 0.459342 
168 1.60812 2.59703 0.915715 0.5 0 0 0 0.694656 -0.0649736 0.373868 
146 1.06775 3.21913 0.367263 0.5 0 0 0 0.565029 -0.407088 0.137549 
147 0.57321 4.49282 0.517003 0.5 0 0 0 1.15795 -0.171626 0.303738 
148 1.97431 3.78988 0.433881 0.5 0 0 0 0.683055 -0.368954 -0.379234 
149 0.683853 3.59681 0.0907922 0.5 0 0 0 -0.320032 1.05829 -0.716978 
150 1.89594 4.42723 0.80637 0.5 0 0 0 -0.262461 0.0303825 0.357102 
151 0.0449981 3.44437 0.106179 0.5 0 0 0 -1.64546 0.617942 -0.0464986 
152 1.35725 3.63101 1.14384 0.5 0 0 0 0.113063 -0.00934829 0.19948 
153 2.20121 4.40131 0.258873 0.5 0 0 0 -0.252428 -0.133621 -0.977999 
154 2.33911 4.58276 0.684233 0.5 0 0 0 -0.385048 -0.355662 0.255401 
155 1.29543 3.739 0.711871 0.5 0 0 0 -0.0563025 0.396046 0.295765 
156 0.448865 4.37763 1.05829 0.5 0 0 0 -0.637538 -0.993321 1.12883 
157 2.28878 2.65211 1.12402 0.5 0 0 0 0.333614 -0.230741 0.723517 
158 1.97601 4.15404 0.975269 0.5 0 0 0 0.404546 -0.540379 0.510197 
159 1.30202 3.80287 0.707774 0.5 0 0 0 -0.132024 0.516309 0.258976 
160 2.25978 2.64393 -0.0732827 0.5 0 0 0 -0.478512 -0.501464 -2.67306 
23 0.962129 2.54199 0.248239 0.5 0 0 0 0.775312 -0.195285 -0.0476439 
162 1.69243 3.28376 0.688211 0.5 0 0 0 1.10819 -0.412024 0.186956 
163 0.0413279 4.44313 0.0101797 0.5 0 0 0 0.227752 -0.443062 -0.609396 
164 2.14712 2.84689 0.191516 0.5 0 0 0 -0.099211 -0.121559 -1.10247 
165 0.0909573 3.27533 0.313754 0.5 0 0 0 -1.79351 0.168396 0.889029 
166 2.19765 3.29178 0.984012 0.5 0 0 0 0.426664 -0.0728759 0.437588 
169 0.463451 3.13038 2.39827 0.5 0 0 0 -0.761682 0.716259 0.0716784 
170 1.91534 3.15615 2.11444 0.5 0 0 0 0.850045 -0.609249 0.276096 
171 0.0731386 4.12224 2.28628 0.5 0 0 0 -2.32471 -0.638983 -1.31693 
172 1.10385 2.49108 1.83479 0.5 0 0 0 0.113752 -0.0897785 0.28712 
173 1.82174 3.36308 1.88122 0.5 0 0 0 0.624508 -0.35305 -0.192823 
174 1.26914 2.64237 1.45142 0.5 0 0 0 0.152494 0.0686249 0.0522144 
175 1.51649 4.31087 1.98113 0.5 0 0 0 0.608815 -0.492254 -0.249142 
176 1.55214 2.54248 1.97066 0.5 0 0 0 1.07779 -0.38853 0.455803 
177 -0.000856315 2.86161 2.38797 0.5 0 0 0 -2.34375 0.446075 0.184763 
178 1.44946 3.12326 1.43829 0.5 0 0 0 0.262692 -0.115134 -0.0447467 
179 2.14586 3.0696 2.45798 0.5 0 0 0 1.21853 -1.04111 0.798676 
180 1.15673 3.75587 1.50516 0.5 0 0 0 -0.819978 -0.0253647 -0.175362 
181 1.90675 4.8254 1.69836 0.5 0 0 0 -0.110065 0.569159 -0.338511 
182 1.13562 4.0265 1.86656 0.5 0 0 0 -0.897778 -0.269054 -0.176401 
183 1.54777 4.578 2.2453 0.5 0 0 0 0.407823 -0.184483 0.382013 
184 0.375315 2.61523 1.7266 0.5 0 0 0 -1.25202 0.288715 -0.281906 
185 1.31385 4.74035 2.2815 0.5 0 0 0 -0.397768 0.23468 0.573768 
204 1.32468 2.72488 2.02243 0.5 0 0 0 0.411389 -0.151381 0.337866 
187 1.38995 2.59811 2.25107 0.5 0 0 0 0.729196 -0.47509 0.785653 
188 1.50496 3.99844 2.40064 0.5 0 0 0 0.211211 -0.474673 0.65099 
189 1.72033 3.51607 2.26762 0.5 0 0 0 0.268718 -0.402702 0.325114 
202 0.972531 3.69504 1.79271 0.5 0 0 0 -1.4457 -0.0254371 -0.100599 
191 2.16536 2.9869 2.46312 0.5 0 0 0 1.31933 -1.07887 0.82975 
192 1.889 3.66891 2.05625 0.5 0 0 0 0.648587 -0.477188 -0.120466 
193 0.891352 3.87886 2.43149 0.5 0 0 0 -1.18053 -0.0752931 0.529395 
194 0.584987 3.06103 2.1515 0.5 0 0 0 -0.561681 0.719719 -0.131431 
195 1.99793 2.84629 1.96781 0.5 0 0 0 1.27026 -0.681302 0.435242 
196 1.34713 4.40977 1.55939 0.5 0 0 0 -0.112914 0.0288069 -0.882961 
190 1.78496 4.93381 1.1726 0.5 0 0 0 -1.13942 1.85127 -0.304664 
198 0.864723 4.5435 2.00967 0.5 0 0 0 -2.11479 0.135869 -0.14309 
199 1.34387 3.07489 2.36975 0.5 0 0 0 -0.0317905 -0.265248 0.531312 
200 2.34844 5.02928 2.31953 0.5 0 0 0 -0.796931 1.5999 0.324434 
201 0.447629 2.72568 2.13465 0.5 0 0 0 -0.558468 0.0893998 0.113398 
70 0.869077 2.53772 2.15016 0.5 0 0 0 -0.0074356 -0.379524 0.682898 
145 2.0849 2.5666 1.35062 0.5 0 0 0 0.613536 -0.220208 0.593892 
161 0.304219 3.15921 1.21596 0.5 0 0 0 -2.20421 0.586659 0.685968 
205 1.20045 3.53231 3.03398 0.5 0 0 0 0.0678489 -0.333986 0.2644 
206 1.96354 4.32896 3.03559 0.5 0 0 0 -0.11028 -0.37446 0.795727 
207 0.125252 4.09144 3.71369 0.5 0 0 0 -0.808903 -0.464153 0.10916 
208 0.84359 2.50924 3.69924 0.5 0 0 0 0.234166 -2.55705 0.728928 
209 1.51896 3.92171 3.16325 0.5 0 0 0 0.196411 -0.117558 0.840637 
210 1.84192 3.57401 3.51447 0.5 0 0 0 0.186013 -0.797551 0.527511 
211 1.88265 3.75203 2.61168 0.5 0 0 0 0.452324 -0.560303 0.72246 
212 1.26728 4.95011 2.96344 0.5 0 0 0 -0.263374 0.344975 0.888447 
213 2.05997 3.14168 2.58516 0.5 0 0 0 0.926652 -0.952239 0.886785 
214 1.2445 3.27321 3.65914 0.5 0 0 0 0.794294 -0.802974 0.932509 
215 0.723583 3.1322 3.31572 0.5 0 0 0 -0.405284 -0.703704 -0.11697 
216 0.445433 3.18581 3.33118 0.5 0 0 0 -1.08581 -0.46225 -0.477961 
217 2.4775 2.71685 2.75586 0.5 0 0 0 1.39745 -1.20611 0.862043 
218 2.3856 5.03042 3.71336 0.5 0 0 0 -0.964762 1.53912 0.410969 
219 1.09024 2.61491 3.18492 0.5 0 0 0 0.202244 -1.69437 0.472069 
220 2.32371 4.8339 2.95769 0.5 0 0 0 -0.618064 0.361616 0.828812 
221 1.05556 3.48504 3.60298 0.5 0 0 0 0.43845 -0.233086 0.805257 
222 2.43947 3.20194 3.06529 0.5 0 0 0 0.899468 -1.47824 0.585513 
223 1.90844 2.58351 3.33421 0.5 0 0 0 1.00395 -1.39159 0.90807 
224 0.518845 4.92289 3.11834 0.5 0 0 0 -0.680182 1.04935 -0.188432 
225 0.511127 3.84252 3.64451 0.5 0 0 0 -0.152895 0.0962039 0.347045 
226 0.947702 4.03003 2.86601 0.5 0 0 0 -0.664887 0.111384 0.686516 
227 1.10353 3.04117 3.11188 0.5 0 0 0 0.291881 -0.946486 0.135895 
228 0.260916 4.35829 2.60106 0.5 0 0 0 -1.13177 -0.263864 -0.406471 
229 0.262293 4.30495 3.51799 0.5 0 0 0 -0.219817 -0.166069 -0.264815 
230 1.60813 2.9128 3.13403 0.5 0 0 0 0.859951 -1.11713 0.637785 
234 1.25336 3.65657 3.14787 0.5 0 0 0 0.170565 -0.177625 0.46259 
232 2.45704 3.29094 3.07976 0.5 0 0 0 0.789168 -1.45302 0.514954 
233 1.25657 4.7676 3.4016 0.5 0 0 0 0.262835 -0.270115 0.631769 
472 2.51545 4.84304 2.81896 0.5 0 0 0 -0.522626 0.376657 0.860454 
251 1.85861 2.53247 3.78307 0.5 0 0 0 0.796325 -1.97067 0.861915 
452 2.41994 3.93784 3.55703 0.5 0 0 0 -0.618566 -0.767748 -0.22721 
254 1.67058 4.93834 3.76207 0.5 0 0 0 -0.108513 -0.00649158 -0.126815 
197 1.56002 4.63702 2.4755 0.5 0 0 0 0.194486 -0.0431668 0.939232 
235 1.25867 4.88886 4.11647 0.5 0 0 0 -0.0651243 -0.422464 -0.500042 
236 2.01964 3.92687 3.99277 0.5 0 0 0 -1.36752 -0.449658 -0.153223 
237 0.594822 2.54956 3.92611 0.5 0 0 0 0.437815 -2.27665 0.911918 
238 0.923658 4.7717 4.37611 0.5 0 0 0 0.150095 -0.396483 -0.108958 
239 0.871878 3.75292 3.98212 0.5 0 0 0 0.547502 0.0329657 1.33284 
240 2.06139 4.5736 4.57908 0.5 0 0 0 -2.31864 1.31121 0.100662 
241 2.18404 4.38619 4.75142 0.5 0 0 0 -2.57606 0.697024 0.680999 
242 0.0972795 3.19401 4.41599 0.5 0 0 0 0.712092 -0.022648 0.530368 
243 -0.021088 2.72653 4.80955 0.5 0 0 0 0.478517 -2.54415 1.85161 
244 0.523833 4.91628 4.84729 0.5 0 0 0 -0.892569 0.136728 1.01536 
245 1.52927 3.07001 4.9543 0.5 0 0 0 -1.28629 -1.12745 1.45296 
246 1.24538 3.71929 4.41729 0.5 0 0 0 -0.181744 -0.942076 1.03636 
247 2.42627 3.35712 3.82755 0.5 0 0 0 -0.0792568 -1.80327 -0.263739 
248 1.72736 2.6764 4.86734 0.5 0 0 0 -0.717052 -1.99976 0.514699 
249 1.67259 3.00147 4.12672 0.5 0 0 0 0.268961 -1.74657 0.71787 
250 1.29946 2.62047 3.95289 0.5 0 0 0 0.75373 -2.08435 1.28444 
259 0.587312 2.8217 3.88904 0.5 0 0 0 0.414858 -1.32143 0.940617 
258 0.0372925 2.95954 4.02069 0.5 0 0 0 -0.312627 -0.790852 -0.23921 
253 0.163214 2.67727 3.94064 0.5 0 0 0 -0.222694 -1.89763 0.00968869 
498 2.47241 3.56394 4.29258 0.5 0 0 0 -1.20945 -2.02102 -0.680373 
255 0.213921 3.66474 4.84726 0.5 0 0 0 0.696267 0.260026 1.04158 
256 2.32357 4.09436 4.60624 0.5 0 0 0 -2.25484 -0.68599 -0.152642 
257 1.27313 4.24124 4.86155 0.5 0 0 0 -0.926729 -1.02028 1.44443 
260 4.00548 -0.156982 0.919827 0.5 0 0 0 -0.224126 -2.77559 0.556826 
261 3.19555 2.28939 1.1298 0.5 0 0 0 -0.766289 0.0920796 1.34746 
262 4.78766 2.0216 0.404295 0.5 0 0 0 1.7657 0.433287 -1.08044 
263 4.86349 0.626846 0.989591 0.5 0 0 0 1.13943 -1.77796 0.856609 
264 3.25884 0.915975 0.20199 0.5 0 0 0 -0.7732 0.955023 -0.970812 
265 4.90555 1.41686 1.11291 0.5 0 0 0 1.84989 0.293405 1.42064 
266 4.83436 0.647197 -0.0129311 0.5 0 0 0 0.867872 -0.263255 -3.22905 
267 3.45728 1.79731 0.886208 0.5 0 0 0 -1.61343 -0.356157 0.38073 
268 2.89322 0.522865 0.844905 0.5 0 0 0 -0.153669 -0.397537 1.69462 
269 3.96982 1.81192 0.224052 0.5 0 0 0 -1.04672 -0.483307 -2.25332 
270 3.93633 1.90246 1.01936 0.5 0 0 0 -0.967743 0.532183 1.32245 
293 3.0209 2.402 0.572195 0.5 0 0 0 -0.796768 -0.433162 0.208568 
272 4.42309 1.79276 0.74169 0.5 0 0 0 0.0471634 0.718757 0.20283 
273 4.85214 1.36363 0.800134 0.5 0 0 0 1.45537 -0.322717 -0.105091 
274 2.68345 0.714079 0.824469 0.5 0 0 0 0.231243 -0.0903708 1.49874 
275 2.53788 2.34775 0.0564482 0.5 0 0 0 -0.496805 -1.07393 -2.05813 
276 5.08107 0.0669182 0.787804 0.5 0 0 0 1.14266 -1.66566 0.654515 
294 3.1399 0.091494 0.349254 0.5 0 0 0 0.150635 -2.31544 -0.195654 
278 3.60827 1.88445 0.935527 0.5 0 0 0 -1.47462 -0.0204882 0.739805 
279 3.71217 0.457466 0.171548 0.5 0 0 0 0.354192 -1.3219 -1.49392 
295 2.73142 1.13214 0.898665 0.5 0 0 0 -0.159655 0.170701 0.868989 
281 3.0564 0.151203 0.97087 0.5 0 0 0 -0.451421 -1.9376 1.77541 
282 3.8744 1.69556 1.09783 0.5 0 0 0 -1.31082 0.049782 1.41506 
283 3.80613 2.33927 -0.18128 0.5 0 0 0 -1.10119 -0.928733 -3.77635 
284 4.16863 2.09976 0.500958 0.5 0 0 0 -0.298065 0.731245 -0.3336 
285 3.41145 2.33265 0.439946 0.5 0 0 0 -1.11925 -0.145078 -0.370698 
286 3.72183 0.963263 0.427497 0.5 0 0 0 -1.14008 -0.23104 -0.451783 
287 4.34117 1.03841 0.421521 0.5 0 0 0 -0.486943 -1.23545 -1.49507 
288 4.07944 1.6191 1.03376 0.5 0 0 0 -1.10337 0.123645 1.24637 
289 4.36668 1.05293 0.596493 0.5 0 0 0 -0.637173 -1.32411 -0.787533 
290 3.33103 0.992293 0.623105 0.5 0 0 0 -1.22178 0.311959 0.681977 
291 2.90505 1.0038 0.0831392 0.5 0 0 0 -0.432347 1.52792 -1.78159 
297 3.1628 0.422645 1.81526 0.5 0 0 0 -1.29628 -1.55319 0.777127 
298 3.83873 2.08749 2.17162 0.5 0 0 0 -1.14485 -0.142798 1.0444 
299 3.06609 0.732192 2.23274 0.5 0 0 0 -0.806988 -0.563647 1.53064 
323 3.16958 1.7184 1.55879 0.5 0 0 0 -0.674009 -0.158868 1.15614 
301 3.32709 1.70196 2.15388 0.5 0 0 0 -0.572202 0.0774328 1.2787 
302 3.70478 0.970469 1.80799 0.5 0 0 0 -0.872634 0.195383 1.5238 
303 3.80396 0.847812 1.9442 0.5 0 0 0 -0.641845 0.0391939 1.64934 
292 4.33293 1.2853 1.247 0.5 0 0 0 -0.639716 -0.24934 1.77522 
305 4.06196 1.45734 1.37117 0.5 0 0 0 -1.021 0.152811 2.08158 
306 4.61121 1.24738 1.92466 0.5 0 0 0 0.787662 -0.0452656 1.55537 
307 4.02807 0.00290602 2.16168 0.5 0 0 0 -1.98922 -2.04563 -0.125272 
308 4.72506 0.10443 2.27495 0.5 0 0 0 0.0573755 -0.247067 0.0162175 
309 3.95474 0.747127 1.92068 0.5 0 0 0 -0.468741 -0.276005 1.65565 
310 4.61075 2.32872 1.97826 0.5 0 0 0 0.484481 -0.142864 0.410056 
311 3.53785 2.25907 2.09172 0.5 0 0 0 -0.893468 0.158256 1.12887 
321 4.85074 -0.0225684 2.20582 0.5 0 0 0 0.482389 -0.65085 -0.309894 
313 2.56726 1.50595 2.20377 0.5 0 0 0 0.109498 0.00598395 1.31397 
320 2.69246 1.31431 1.87261 0.5 0 0 0 0.0635776 -0.0689233 0.908766 
315 3.26739 0.871674 1.95479 0.5 0 0 0 -0.804994 -0.121809 1.16742 
316 4.50044 1.00423 2.30411 0.5 0 0 0 0.307768 0.0216563 0.921432 
317 4.42454 1.96834 2.33396 0.5 0 0 0 -0.426078 -0.757576 0.429067 
318 3.62757 0.647102 1.4244 0.5 0 0 0 -1.29709 -0.894219 0.717609 
319 3.17122 2.16817 1.97116 0.5 0 0 0 -0.361795 0.250635 1.24402 
271 4.89445 1.59838 1.20693 0.5 0 0 0 1.99259 1.05745 1.86764 
19 2.58919 1.86325 1.1735 0.5 0 0 0 0.0130792 -0.264312 0.539886 
280 3.82517 0.808423 1.18765 0.5 0 0 0 -1.36637 -0.816552 0.795768 
300 4.20682 2.38482 1.22812 0.5 0 0 0 -0.0437765 0.850143 1.85778 
296 4.29953 0.620872 1.17349 0.5 0 0 0 -0.391201 -1.69166 0.799837 
277 3.47974 2.13585 1.17679 0.5 0 0 0 -1.08779 0.311787 1.56497 
324 4.2005 1.07209 3.60419 0.5 0 0 0 -1.49448 0.447589 -0.55745 
325 3.13526 0.346657 3.34054 0.5 0 0 0 -3.1254 -1.2646 1.33761 
326 3.6674 1.472 3.67458 0.5 0 0 0 -1.94331 -0.405531 -0.0547201 
327 4.15864 1.37272 2.56514 0.5 0 0 0 -0.879734 -0.248787 0.532214 
328 3.56054 0.74607 2.82266 0.5 0 0 0 -1.23031 0.197372 0.970869 
329 4.6547 1.85821 2.76121 0.5 0 0 0 0.287445 -1.60687 -0.422614 
330 3.37921 1.61927 3.26273 0.5 0 0 0 -1.49018 -0.39345 0.612962 
331 4.42015 1.68675 3.2659 0.5 0 0 0 -1.11423 -1.26893 -0.407878 
332 4.72992 0.335375 2.57276 0.5 0 0 0 0.295628 0.86884 -0.287328 
333 2.6687 0.745661 3.45056 0.5 0 0 0 -3.12683 -1.52281 2.19033 
334 4.39709 0.492244 3.23253 0.5 0 0 0 -0.533098 0.856189 -1.84109 
335 5.05886 2.33764 2.86349 0.5 0 0 0 3.04183 -1.00717 -0.903855 
336 4.0552 0.349995 3.25553 0.5 0 0 0 -1.75579 0.276347 -0.965934 
350 2.94786 1.6205 2.671 0.5 0 0 0 -0.331916 -0.231866 1.44436 
338 2.75765 1.04702 3.7024 0.5 0 0 0 -3.05278 -1.44822 1.35405 
339 2.70521 0.895147 2.70661 0.5 0 0 0 -1.0301 -1.15821 2.43863 
340 2.93398 1.02899 3.59673 0.5 0 0 0 -2.76063 -1.00176 1.23853 
341 4.47473 1.9948 3.43292 0.5 0 0 0 -1.11104 -1.62635 0.0347205 
342 4.92134 1.88469 3.61398 0.5 0 0 0 1.08787 -1.75812 0.255095 
343 3.24145 1.5906 2.6238 0.5 0 0 0 -0.676344 -0.187416 1.25355 
349 4.1968 -0.0384071 3.21981 0.5 0 0 0 -1.68687 -1.34803 -1.61062 
345 3.47823 0.0426639 3.05535 0.5 0 0 0 -2.7364 -2.21437 0.525277 
346 3.69694 0.812518 3.53319 0.5 0 0 0 -2.44886 0.196069 0.133082 
347 2.80181 1.66491 2.63693 0.5 0 0 0 -0.102888 -0.190698 1.44764 
348 2.63913 1.65882 2.67643 0.5 0 0 0 0.0403009 -0.424347 1.55995 
352 4.94759 1.25163 3.70679 0.5 0 0 0 1.53044 -0.080445 -0.468107 
469 4.12805 2.45323 2.60915 0.5 0 0 0 -1.94938 -0.327561 -0.220514 
304 2.73537 0.148582 2.52863 0.5 0 0 0 -1.73139 -2.67706 1.93469 
384 4.55125 0.313802 3.78158 0.5 0 0 0 -1.08602 0.714416 -1.9376 
351 4.81681 0.433177 4.13216 0.5 0 0 0 0.53557 1.28442 -0.255535 
381 3.28515 1.87301 4.23842 0.5 0 0 0 -1.69196 -1.05932 -1.04762 
353 3.42786 1.25797 4.13506 0.5 0 0 0 -2.41255 -0.741742 -0.231662 
354 3.93464 1.93868 4.94641 0.5 0 0 0 -0.469346 -0.731158 1.15884 
355 4.89446 2.33384 4.0075 0.5 0 0 0 0.313422 -1.36288 1.33111 
356 4.4518 -0.173154 4.76969 0.5 0 0 0 -1.85992 -2.81266 1.58582 
383 4.13179 0.484745 4.99291 0.5 0 0 0 -2.19936 0.864392 2.56478 
358 5.09289 1.5728 4.75784 0.5 0 0 0 1.28539 -0.321768 1.65895 
359 3.01964 1.92093 4.29427 0.5 0 0 0 -1.64713 -1.29444 -1.07774 
360 4.55823 0.294839 4.19705 0.5 0 0 0 -1.20755 0.680701 -0.31246 
361 5.0107 2.27456 4.16295 0.5 0 0 0 0.815439 -1.71614 1.74498 
362 4.17113 0.254776 4.2464 0.5 0 0 0 -3.31803 0.0157056 -0.205724 
363 3.9113 0.319091 4.53698 0.5 0 0 0 -4.1205 -0.228946 0.557675 
364 2.66473 1.94635 4.90104 0.5 0 0 0 -2.03355 -1.87524 0.775545 
365 3.1697 1.79581 4.59542 0.5 0 0 0 -1.63187 -1.52831 -0.4291 
366 4.61143 0.911565 4.1486 0.5 0 0 0 -0.161784 1.71037 0.501428 
367 3.81678 -0.0602489 3.84489 0.5 0 0 0 -4.38249 -2.21108 0.189206 
368 4.06429 1.84855 4.28442 0.5 0 0 0 -1.15826 -0.718836 -0.0177377 
369 3.4942 1.48242 4.35656 0.5 0 0 0 -1.88365 -0.953649 -0.468793 
370 2.82999 0.443283 4.66007 0.5 0 0 0 -3.5467 -1.0807 0.0899899 
371 4.72583 0.250737 4.64224 0.5 0 0 0 0.354014 0.64536 1.6131 
382 3.88419 0.944613 3.84084 0.5 0 0 0 -2.45411 0.362196 -0.0352728 
373 4.63289 0.300491 3.94053 0.5 0 0 0 -0.776875 0.734405 -1.37529 
374 4.53401 0.4862 4.04811 0.5 0 0 0 -1.13014 1.24203 -0.778786 
375 5.03447 0.0100981 4.98312 0.5 0 0 0 3.59472 -1.18713 3.20937 
376 4.10392 1.60789 4.6828 0.5 0 0 0 -0.582516 -0.440845 0.453449 
377 4.01537 2.10371 5.10767 0.5 0 0 0 -0.109888 -0.494932 2.1339 
378 2.91759 1.64263 5.01092 0.5 0 0 0 -1.92863 -2.16827 1.57483 
379 3.53378 0.926495 5.07408 0.5 0 0 0 -2.38334 -0.42552 1.83414 
380 3.06476 2.29047 4.29765 0.5 0 0 0 -1.41922 -1.25234 -1.06823 
385 2.72743 3.16667 0.678625 0.5 0 0 0 -0.259404 0.0375891 0.477861 
386 4.46001 4.72631 0.0499719 0.5 0 0 0 0.670258 0.329356 -0.709584 
387 3.86554 3.94207 0.138872 0.5 0 0 0 0.1193 -0.411046 -0.427997 
388 4.32021 4.0172 1.07919 0.5 0 0 0 -0.817736 -0.172866 -1.10385 
389 3.81849 3.08829 0.794953 0.5 0 0 0 -0.593903 0.0886769 0.75542 
390 3.64731 4.11213 0.128382 0.5 0 0 0 0.090085 -0.597326 0.0534269 
391 5.05322 4.32999 1.07581 0.5 0 0 0 2.14325 1.08719 -1.29533 
392 4.88878 2.67893 0.295459 0.5 0 0 0 1.32141 0.365172 -0.297529 
393 4.52615 4.58373 0.677722 0.5 0 0 0 -0.0148499 1.27503 -0.991638 
394 2.76375 2.92559 1.08836 0.5 0 0 0 0.0172052 -0.151015 1.30113 
395 4.91111 2.95984 0.998603 0.5 0 0 0 1.35503 -0.497233 1.14156 
396 4.08242 3.07659 0.0175127 0.5 0 0 0 -0.343926 0.450845 -1.52538 
397 5.07976 4.04744 0.825049 0.5 0 0 0 2.38248 -0.0624558 -1.63066 
398 2.92734 4.94157 0.00821967 0.5 0 0 0 -0.47709 2.03751 -1.50091 
399 3.38818 4.92148 0.588322 0.5 0 0 0 0.578037 1.09103 -0.330988 
400 3.33768 4.51274 0.419337 0.5 0 0 0 0.195515 -0.603885 0.275915 
401 3.37374 2.65717 0.0719912 0.5 0 0 0 -0.978825 -0.396983 -1.65033 
402 2.72655 3.11912 0.688007 0.5 0 0 0 -0.262874 0.00999602 0.537519 
403 4.76397 3.22272 0.182962 0.5 0 0 0 0.43139 0.481352 -1.34413 
404 4.20748 2.63552 0.142011 0.5 0 0 0 -0.164164 0.531443 -0.894041 
405 4.05945 4.87616 -0.0238892 0.5 0 0 0 0.282873 0.873254 -0.16425 
406 4.20553 3.58907 1.03062 0.5 0 0 0 -0.887433 -0.743135 -0.290759 
407 2.81353 4.21131 -0.0113302 0.5 0 0 0 -0.346715 -0.769312 -1.25041 
408 4.9935 3.11745 0.424443 0.5 0 0 0 1.2484 -0.0506809 -0.253507 
409 3.77206 3.30856 0.562627 0.5 0 0 0 -0.535941 0.0681127 0.0361994 
410 3.87007 2.62726 0.885773 0.5 0 0 0 -0.532578 0.714139 1.23169 
411 4.18383 2.65307 1.06401 0.5 0 0 0 -0.135393 0.559438 1.46071 
412 3.0916 3.18162 0.446709 0.5 0 0 0 -0.48045 0.050059 0.0615073 
413 2.9187 3.71694 0.925144 0.5 0 0 0 -0.225709 -0.363145 0.330763 
414 2.70955 4.48431 0.643286 0.5 0 0 0 -0.107212 -0.930289 0.142364 
415 2.6388 4.93667 1.11349 0.5 0 0 0 -1.07919 0.886344 -0.319929 
417 3.0858 3.60769 0.193227 0.5 0 0 0 -0.439155 -0.300427 -0.622333 
418 4.81607 4.17573 1.6567 0.5 0 0 0 0.591409 -0.344374 0.0452526 
419 2.97104 3.77732 2.20127 0.5 0 0 0 0.527175 -1.67748 0.597789 
420 4.87673 3.94974 2.41375 0.5 0 0 0 0.274874 -1.57638 0.677257 
421 4.8751 4.57039 1.80973 0.5 0 0 0 1.01157 1.67479 -0.455601 
422 4.26911 4.54908 1.75393 0.5 0 0 0 0.210619 0.978853 0.159589 
423 3.64883 4.60707 1.39654 0.5 0 0 0 0.361034 0.133712 -1.23185 
424 4.35686 3.80958 1.43822 0.5 0 0 0 -0.729222 -1.16538 0.524537 
425 2.78397 3.15329 1.33965 0.5 0 0 0 0.223682 -0.293643 1.28224 
426 3.24265 4.55351 2.11577 0.5 0 0 0 0.105231 -0.908431 1.66018 
427 3.29534 4.61706 1.65763 0.5 0 0 0 -0.180091 -0.610715 -0.144507 
428 4.92768 4.3107 2.00987 0.5 0 0 0 0.63243 -0.199119 0.0995164 
429 3.19584 4.83428 1.72876 0.5 0 0 0 -0.356617 0.283535 0.170774 
430 2.95764 4.84836 1.32106 0.5 0 0 0 -0.875964 0.354235 -0.984317 
431 3.50765 2.67592 2.37491 0.5 0 0 0 -0.874509 -0.138895 0.589053 
432 3.95776 2.50817 1.48 0.5 0 0 0 -0.674988 0.42769 1.94299 
433 2.74246 4.35531 2.39777 0.5 0 0 0 -0.21676 -1.01735 0.87359 
434 3.13473 4.5078 1.94043 0.5 0 0 0 -0.332036 -1.07924 0.870714 
435 3.61635 4.6595 1.62657 0.5 0 0 0 0.532134 0.085083 -0.176544 
436 3.34108 3.27577 2.05506 0.5 0 0 0 -0.141775 -0.940367 0.96117 
437 3.80656 3.98331 1.78453 0.5 0 0 0 -0.714625 -1.51625 0.940798 
438 5.00233 3.52831 1.86043 0.5 0 0 0 1.73065 -1.9328 0.236785 
439 4.48504 4.48045 2.45637 0.5 0 0 0 -0.699924 0.100599 1.44691 
440 2.64624 3.87469 2.23009 0.5 0 0 0 0.374722 -1.16794 0.247913 
441 2.92967 4.74914 2.12021 0.5 0 0 0 -0.681674 -0.00188736 1.1079 
442 3.06368 4.58908 1.38181 0.5 0 0 0 -0.702521 -0.753026 -1.05749 
443 3.87393 4.1195 1.96441 0.5 0 0 0 -0.426202 -1.36558 1.44374 
444 2.67807 4.3564 1.89243 0.5 0 0 0 -0.768882 -0.933529 -0.157709 
445 4.42925 3.75366 1.23855 0.5 0 0 0 -0.571485 -1.03451 -0.0131122 
446 4.16136 3.88015 2.29142 0.5 0 0 0 -0.971879 -1.5651 1.40266 
447 3.98414 3.83381 1.7099 0.5 0 0 0 -1.00349 -1.50695 1.02252 
448 4.54614 2.8292 2.22811 0.5 0 0 0 -0.167323 0.27299 -0.265153 
449 3.08114 3.86142 1.29596 0.5 0 0 0 -0.376898 -0.892183 0.0159925 
450 3.48301 3.36566 1.39671 0.5 0 0 0 -0.555955 -0.723563 1.08944 
416 4.4394 3.86706 1.2623 0.5 0 0 0 -0.553534 -0.82387 -0.162324 
203 2.54257 2.99444 1.48494 0.5 0 0 0 0.543095 -0.349896 1.11906 
322 2.8968 2.52125 1.8635 0.5 0 0 0 0.201448 -0.0968852 1.34304 
314 4.95153 2.49957 1.43986 0.5 0 0 0 2.18034 0.0170281 0.88109 
479 2.67201 3.66334 3.67497 0.5 0 0 0 -0.203288 -1.6408 -0.627282 
453 4.81672 2.73412 3.2535 0.5 0 0 0 0.831718 0.571485 -0.42317 
454 3.96861 3.31053 2.81272 0.5 0 0 0 -1.04521 -0.0947019 0.106194 
455 2.9786 4.28332 3.66019 0.5 0 0 0 -0.726504 -0.931996 -1.0245 
456 2.78681 4.65171 3.10914 0.5 0 0 0 -0.203218 -0.442471 0.326359 
457 3.04669 4.89391 2.94079 0.5 0 0 0 0.553135 0.687048 0.706066 
458 3.38148 3.15475 2.90913 0.5 0 0 0 -0.536569 -0.877626 0.204814 
459 4.79833 4.06689 2.63941 0.5 0 0 0 -0.128112 -1.05999 1.14754 
460 4.33881 2.93316 3.14829 0.5 0 0 0 -1.2847 1.05583 -0.479651 
461 4.46961 4.44766 2.57146 0.5 0 0 0 -0.80401 -0.0312828 1.57332 
462 4.70144 4.99918 2.54255 0.5 0 0 0 0.456874 4.6025 1.38144 
463 4.41338 2.63817 2.73774 0.5 0 0 0 -1.22617 -0.00238995 -0.778379 
464 3.08229 3.82563 3.12878 0.5 0 0 0 0.299015 -1.73466 -0.110339 
465 3.57021 3.93289 3.56067 0.5 0 0 0 0.454619 -1.22726 -1.19881 
466 4.19208 2.57746 3.01758 0.5 0 0 0 -2.12601 -0.251427 -0.640544 
467 3.47467 4.4369 3.46202 0.5 0 0 0 0.871086 -0.333502 -0.872533 
468 4.83204 2.71881 2.53955 0.5 0 0 0 1.39737 0.238182 -0.96679 
344 4.1894 2.52632 3.41191 0.5 0 0 0 -2.05253 -0.494535 0.00248154 
470 4.4847 2.5291 3.64937 0.5 0 0 0 -1.05989 -0.473929 0.538405 
471 3.84037 4.76542 3.03905 0.5 0 0 0 0.428614 1.21801 0.489404 
451 2.79986 3.7981 2.4996 0.5 0 0 0 0.673171 -1.50344 0.668467 
473 2.91846 5.08609 3.74857 0.5 0 0 0 -0.14959 2.67787 0.232565 
474 4.50733 2.85756 3.6255 0.5 0 0 0 -0.710924 1.0426 0.308585 
478 3.98902 2.61315 3.41298 0.5 0 0 0 -2.49938 -0.215998 -0.0580613 
476 4.67836 3.70549 3.01079 0.5 0 0 0 0.0893656 -0.00659352 0.817226 
477 2.80107 4.25512 2.56629 0.5 0 0 0 0.088249 -1.2694 0.940756 
337 4.00855 2.47712 3.28526 0.5 0 0 0 -2.56718 -0.587888 -0.210875 
475 4.80452 4.05407 3.78608 0.5 0 0 0 0.939248 -0.0504976 -0.155891 
480 3.58953 3.80889 4.79312 0.5 0 0 0 1.28076 -1.32209 0.955268 
481 4.13979 3.02608 4.95778 0.5 0 0 0 -0.268009 -1.4702 2.14235 
482 3.77861 3.59844 4.0078 0.5 0 0 0 0.420704 -0.998563 -1.09703 
483 4.4053 4.8875 4.10612 0.5 0 0 0 0.262982 0.500344 -1.75148 
484 3.17257 4.00243 3.96811 0.5 0 0 0 -0.446877 -1.449 -1.51124 
485 3.66542 3.93623 4.40886 0.5 0 0 0 1.30969 -0.836022 -0.600786 
486 4.72062 4.70312 4.34976 0.5 0 0 0 -0.0982423 -0.899068 -1.36616 
487 3.2799 3.12529 4.27903 0.5 0 0 0 -0.664689 -1.98187 -0.831766 
488 4.67013 3.1766 4.66622 0.5 0 0 0 0.0223477 0.0686394 0.971279 
489 3.35019 4.83711 5.08971 0.5 0 0 0 -0.173189 3.09062 3.98356 
490 3.58041 3.44622 4.24509 0.5 0 0 0 -0.0363098 -1.73963 -0.884363 
491 3.71318 4.11091 4.82948 0.5 0 0 0 2.05156 -0.117148 1.33699 
492 2.66401 3.19064 4.79124 0.5 0 0 0 -1.28711 -2.59107 0.923018 
493 4.51494 3.66925 4.72374 0.5 0 0 0 1.1859 0.523259 0.678222 
494 3.42613 3.64516 5.12502 0.5 0 0 0 0.777798 -2.09057 3.3119 
495 2.6833 4.06725 4.41672 0.5 0 0 0 -1.05384 -0.90843 -1.15867 
496 2.62238 3.80937 4.95756 0.5 0 0 0 -1.37844 -1.77676 1.45777 
497 3.38169 4.37698 3.94441 0.5 0 0 0 0.446711 -0.250724 -1.31614 
357 3.44985 2.4954 4.63855 0.5 0 0 0 -0.880716 -1.29877 0.135069 
499 3.95608 2.50646 4.05607 0.5 0 0 0 -1.53386 -0.749099 0.251147 
500 4.65468 4.93223 4.97398 0.5 0 0 0 -0.725081 -0.119521 1.69278 
501 4.62616 4.81561 4.90394 0.5 0 0 0 -0.283519 -0.29376 1.29271 
502 2.68187 3.97567 4.77886 0.5 0 0 0 -0.998994 -1.16851 0.287559 
503 2.93975 4.25916 4.55901 0.5 0 0 0 -0.375707 -0.128662 -0.685941 
504 3.55114 3.30536 4.29101 0.5 0 0 0 -0.234613 -1.87486 -0.698644 
505 3.69576 4.82259 4.28552 0.5 0 0 0 1.42028 1.77459 -0.194306 
506 4.09435 4.02173 3.97424 0.5 0 0 0 1.82454 0.0293985 -0.947331 
507 4.9127 2.81898 3.94309 0.5 0 0 0 0.483228 0.990068 0.557358 
508 2.87514 3.92811 4.68636 0.5 0 0 0 -0.391823 -1.40775 -0.269408 
509 3.30514 4.7555 4.40391 0.5 0 0 0 0.178882 1.78592 -0.100218 
510 3.08449 4.49512 4.06087 0.5 0 0 0 -0.59605 0.201674 -1.22215 
511 2.64438 3.03166 4.50455 0.5 0 0 0 -1.03002 -2.20831 -0.126204 
512 2.666 2.8248 4.36838 0.5 0 0 0 -0.847069 -1.886 -0.442515 
513 4.86973 3.02687 4.29851 0.5 0 0 0 0.304364 1.0337 0.591171 
ITEM: TIMESTEP
60058
ITEM: NUMBER OF ATOMS
512
ITEM: BOX BOUNDS ss ss ss
-2.1589663964569298e-02 5.0933846546203574e+00
-1.7364439631764822e-01 5.0865807164741392e+00
-1.8176655292622759e-01 5.1255068607205727e+00
ITEM: ATOMS id x y z width_SPH x_COM y_COM z_COM vx vy vz 
2 0.301064 0.775935 0.24686 0.5 0 0 0 -1.37931 -0.579512 0.0688015 
3 0.25944 1.29101 0.60572 0.5 0 0 0 -2.08438 -0.964668 0.287747 
4 0.78748 1.24764 1.03676 0.5 0 0 0 -0.386231 -0.340105 0.749202 
5 1.73538 1.8934 0.823938 0.5 0 0 0 0.958552 0.352103 0.22113 
6 0.2742 2.07866 0.84853 0.5 0 0 0 -2.11845 0.860426 1.16652 
7 0.546657 1.58454 0.342548 0.5 0 0 0 -0.688678 -0.372082 -0.682099 
8 1.33606 0.225899 0.773362 0.5 0 0 0 0.0500296 -0.685422 1.18411 
9 1.53468 0.986431 0.33138 0.5 0 0 0 0.774071 0.260713 -0.747349 
10 1.11158 1.53603 -0.0685506 0.5 0 0 0 0.983788 -0.388497 -2.84956 
11 1.39605 1.22774 0.796168 0.5 0 0 0 0.78232 0.130036 0.282641 
38 1.08307 2.32881 0.776648 0.5 0 0 0 0.516861 0.421786 0.862949 
41 2.23083 2.37931 1.02289 0.5 0 0 0 0.35137 -0.202259 0.556567 
14 1.26049 2.06321 0.329272 0.5 0 0 0 1.32265 0.117815 -0.380262 
15 1.54694 0.0394778 0.97612 0.5 0 0 0 1.23301 -1.50689 2.12373 
37 0.636907 0.390266 0.353983 0.5 0 0 0 -1.47733 -0.586537 0.379709 
17 1.08139 0.119436 0.519716 0.5 0 0 0 -1.29666 -0.687393 0.538478 
18 1.50826 -0.0164868 0.045899 0.5 0 0 0 0.0210399 -0.949763 -1.15229 
40 1.99513 0.669575 0.604462 0.5 0 0 0 1.39263 -0.197952 0.904846 
20 0.369822 1.75927 1.04789 0.5 0 0 0 -1.73135 0.350024 1.28565 
21 1.878 1.79469 0.745542 0.5 0 0 0 1.08072 0.226358 -0.00311357 
22 0.552787 2.4223 0.409937 0.5 0 0 0 -0.558249 0.212977 0.657485 
39 0.791151 1.5785 0.810199 0.5 0 0 0 0.140692 0.22759 0.408954 
24 0.0034127 0.598287 0.0816951 0.5 0 0 0 -2.72801 -0.779905 -0.133743 
25 1.95436 0.260601 0.581879 0.5 0 0 0 1.68407 -0.755029 1.36424 
26 1.35581 0.890949 0.584786 0.5 0 0 0 0.399603 0.0193467 -0.00984325 
27 0.864667 1.8141 0.900152 0.5 0 0 0 0.37741 0.670902 0.691822 
28 2.15663 0.959746 0.359459 0.5 0 0 0 0.883564 0.501591 -0.229977 
29 2.42448 1.35995 0.26941 0.5 0 0 0 0.107995 1.01778 -1.19046 
30 1.3992 0.242432 0.88406 0.5 0 0 0 0.488745 -0.821783 1.45703 
31 1.65837 1.51848 0.685685 0.5 0 0 0 1.20239 0.362149 0.0101994 
32 1.30153 2.09592 0.250957 0.5 0 0 0 1.47636 0.00634786 -0.708897 
33 1.46276 1.14326 0.721758 0.5 0 0 0 0.856826 0.0701426 0.199776 
34 0.622256 2.08924 -0.0271214 0.5 0 0 0 -0.447985 -0.57538 -2.02294 
35 1.77116 0.0448093 -0.128816 0.5 0 0 0 1.17616 -0.864659 -2.25461 
36 0.968307 0.88323 0.0786186 0.5 0 0 0 0.0955954 0.0328249 -1.47964 
144 0.0212058 2.45507 0.114573 0.5 0 0 0 -3.1682 -0.780047 -1.09895 
43 1.54524 0.0677291 1.95231 0.5 0 0 0 1.54679 -2.05895 2.27935 
44 1.36472 2.35713 1.90941 0.5 0 0 0 0.773316 -0.347972 0.53869 
45 1.3338 1.11988 1.48552 0.5 0 0 0 0.476511 -0.198913 1.55749 
46 1.38771 2.23672 2.32625 0.5 0 0 0 0.773084 -0.849673 1.17322 
47 1.3959 1.26088 1.91896 0.5 0 0 0 -0.0998435 -0.503567 2.36786 
48 1.18006 0.812493 1.47865 0.5 0 0 0 0.169846 -0.426955 1.76228 
49 2.47935 2.34211 1.69817 0.5 0 0 0 0.558038 -0.173277 1.19153 
50 0.891251 0.608881 1.67019 0.5 0 0 0 -1.07943 -0.542191 2.5108 
51 1.96892 0.939588 1.80624 0.5 0 0 0 0.474684 -1.09681 1.64682 
52 0.671609 1.64139 1.3334 0.5 0 0 0 -0.669201 0.0976888 1.61565 
53 2.1247 1.44177 1.71791 0.5 0 0 0 0.456214 0.123611 0.952319 
54 0.390186 0.0429193 2.20343 0.5 0 0 0 -1.5532 -1.25143 0.557937 
55 1.73184 1.84185 1.70752 0.5 0 0 0 0.650534 0.164911 0.906611 
16 2.25736 2.0163 1.1787 0.5 0 0 0 0.457645 -0.0719213 0.552915 
57 2.38803 1.07707 1.62868 0.5 0 0 0 0.472634 -0.693351 0.755422 
58 1.78528 0.149195 2.2391 0.5 0 0 0 1.03272 -2.02277 2.71639 
59 1.24235 0.582601 2.37879 0.5 0 0 0 0.260544 -0.272353 3.92143 
60 0.669152 1.69642 1.57452 0.5 0 0 0 -0.979979 -0.221869 2.0961 
61 1.33412 0.3004 1.71432 0.5 0 0 0 0.887241 -1.21205 2.2636 
78 1.05745 1.89882 1.61753 0.5 0 0 0 0.147241 0.00054695 1.16134 
63 2.01583 1.57785 2.03482 0.5 0 0 0 0.300786 -0.0541708 1.40504 
64 0.517037 0.357616 2.37907 0.5 0 0 0 -0.565333 0.530365 2.62102 
65 1.06184 1.77544 2.19873 0.5 0 0 0 -0.468632 -1.4053 2.12136 
66 2.34198 0.861945 2.01783 0.5 0 0 0 0.0265086 -1.35149 1.67451 
67 1.10298 0.688532 2.02627 0.5 0 0 0 -0.327959 -0.221881 3.4571 
68 2.05806 1.47707 1.72367 0.5 0 0 0 0.443891 0.165846 1.00094 
69 1.40306 0.742945 2.26942 0.5 0 0 0 -0.0127725 -0.601986 3.56709 
77 0.387397 1.54418 1.42854 0.5 0 0 0 -2.22895 -0.477386 2.42532 
71 0.737608 0.532105 1.43847 0.5 0 0 0 -1.94547 -0.911223 1.66725 
72 1.00639 2.24107 2.44178 0.5 0 0 0 0.00219381 -1.25807 1.46173 
73 2.05738 1.03319 1.69108 0.5 0 0 0 0.568074 -0.882771 1.23015 
74 2.23184 1.01521 2.36173 0.5 0 0 0 -0.384269 -1.4577 2.51911 
75 0.0297732 2.3112 2.22173 0.5 0 0 0 -2.3531 -1.61492 0.705457 
76 0.971335 1.10815 1.45355 0.5 0 0 0 -0.382604 -0.281276 1.81095 
12 1.34528 1.51116 1.24545 0.5 0 0 0 0.683763 0.377337 0.874135 
13 1.86621 1.32627 1.25809 0.5 0 0 0 0.99705 -0.0560373 0.662312 
312 2.49224 -0.0785415 1.66921 0.5 0 0 0 -0.146812 -2.94605 1.29968 
42 1.22906 0.726342 1.23555 0.5 0 0 0 0.353158 -0.502418 1.15911 
79 1.43519 2.24238 3.26306 0.5 0 0 0 0.0223938 -2.28938 1.2144 
80 0.722434 0.183723 2.71177 0.5 0 0 0 1.47955 0.523549 2.97283 
81 1.07277 0.414989 2.9058 0.5 0 0 0 1.6268 0.318622 4.42181 
82 1.30862 1.94324 2.75295 0.5 0 0 0 -0.30758 -2.0402 1.91005 
83 1.70365 2.04278 2.87994 0.5 0 0 0 0.28104 -1.52933 1.5193 
84 1.24767 0.840097 3.71739 0.5 0 0 0 1.33464 -3.77974 4.56291 
85 2.02471 1.84019 2.82633 0.5 0 0 0 0.380645 -1.35917 1.644 
106 1.36418 1.31962 2.61107 0.5 0 0 0 -0.890055 -2.18681 3.25935 
87 0.898792 2.29175 3.34264 0.5 0 0 0 -0.293886 -2.93018 0.785297 
88 1.94612 1.3812 2.97942 0.5 0 0 0 -0.745029 -2.92612 2.85489 
89 1.47552 0.236478 3.78194 0.5 0 0 0 0.219611 1.79092 4.58138 
100 0.580247 2.16471 2.54007 0.5 0 0 0 -0.486544 -1.98832 1.75441 
91 1.72849 1.44584 2.74127 0.5 0 0 0 -0.619525 -2.43813 2.67733 
92 0.127771 2.09691 2.8373 0.5 0 0 0 -1.29461 -2.82378 1.55059 
93 0.71528 0.31007 2.792 0.5 0 0 0 1.35814 0.930452 3.27146 
94 1.45135 1.94302 2.6258 0.5 0 0 0 0.0977463 -1.59542 1.72403 
95 2.18937 2.14759 3.16346 0.5 0 0 0 0.868296 -1.23578 1.36449 
96 0.949791 1.87739 2.59393 0.5 0 0 0 -0.661396 -2.26226 2.27311 
97 1.79656 0.470849 3.60666 0.5 0 0 0 -2.34277 -1.28834 5.27524 
98 0.273039 1.57184 2.88923 0.5 0 0 0 -0.472676 -2.69576 1.99021 
99 2.15148 1.76573 3.33725 0.5 0 0 0 -0.0623584 -2.43031 1.9414 
105 0.748301 0.11409 3.1335 0.5 0 0 0 2.42401 0.805907 3.07573 
186 0.405525 2.44495 2.60322 0.5 0 0 0 -0.46637 -1.47824 1.20445 
102 1.84309 1.71237 3.01665 0.5 0 0 0 -0.358364 -2.45648 2.17474 
103 0.428589 1.0381 3.21399 0.5 0 0 0 1.28694 -1.21719 2.32733 
231 1.26226 2.35115 3.50858 0.5 0 0 0 0.166542 -2.64014 0.96134 
62 2.18333 1.76448 2.56415 0.5 0 0 0 0.450562 -0.647145 1.47221 
131 1.85477 1.6584 3.7735 0.5 0 0 0 -0.99389 -4.30604 2.03123 
56 2.44014 0.522581 2.48151 0.5 0 0 0 -0.939972 -1.83363 2.60202 
107 1.79924 0.179188 4.53985 0.5 0 0 0 -2.45822 2.41509 -3.09052 
108 1.07474 1.50091 4.4532 0.5 0 0 0 2.22997 -3.92927 -0.410834 
109 1.80421 0.539855 4.27431 0.5 0 0 0 -4.08384 -0.270147 -1.06236 
110 1.90998 0.686718 4.17965 0.5 0 0 0 -4.68701 -2.33699 0.535285 
139 1.01 0.534253 4.84211 0.5 0 0 0 4.18379 -0.557525 -2.80624 
112 1.75817 0.698008 4.66543 0.5 0 0 0 -1.94928 -1.7847 -4.66976 
113 1.92756 1.25305 4.43647 0.5 0 0 0 -2.16252 -4.87595 -0.595468 
114 0.872993 0.925238 4.48012 0.5 0 0 0 4.97048 -2.01786 -2.19321 
115 1.84021 0.570507 4.46821 0.5 0 0 0 -3.73007 -0.563652 -3.38066 
116 0.780051 0.159623 4.3033 0.5 0 0 0 4.86733 0.454742 -1.14699 
117 0.976211 0.936281 4.21248 0.5 0 0 0 4.88966 -3.28013 -0.842679 
138 0.0273677 1.19267 4.38544 0.5 0 0 0 0.0333267 -1.92569 0.369754 
119 0.767835 1.80937 4.39848 0.5 0 0 0 1.55622 -2.8226 0.538752 
120 1.48918 0.684122 4.13282 0.5 0 0 0 0.291235 -2.81556 1.22403 
121 1.88098 0.771574 3.94801 0.5 0 0 0 -3.89016 -3.61027 3.38599 
122 0.203652 -0.136027 4.07609 0.5 0 0 0 1.17963 -1.13954 0.140389 
123 1.22008 0.0987994 4.57304 0.5 0 0 0 3.27581 1.89726 -2.9565 
124 0.694216 0.489421 4.10319 0.5 0 0 0 4.98948 -0.112353 -0.715281 
125 1.57984 0.388104 4.1862 0.5 0 0 0 -1.13394 2.13366 0.184381 
126 1.3239 0.547611 4.31048 0.5 0 0 0 3.6292 -0.260666 -2.2949 
127 1.22247 2.04543 4.70511 0.5 0 0 0 0.52916 -2.49875 0.73864 
128 1.13273 0.893326 4.24918 0.5 0 0 0 4.63158 -3.84399 -1.04823 
129 0.157208 1.59083 4.15841 0.5 0 0 0 1.00232 -2.69924 -0.130499 
130 0.546433 0.828482 4.34959 0.5 0 0 0 3.60327 -1.03141 -1.40434 
137 0.139755 2.14504 3.86316 0.5 0 0 0 -0.174317 -3.34829 -0.349428 
132 2.24816 1.87939 3.83284 0.5 0 0 0 -0.369856 -2.65509 1.08224 
133 1.36568 0.564187 4.27385 0.5 0 0 0 2.91118 -0.547876 -1.67101 
134 1.70918 2.16355 4.92569 0.5 0 0 0 -0.345941 -2.30074 0.356001 
135 2.26419 0.167802 4.66814 0.5 0 0 0 -2.70264 -0.457146 -0.978068 
136 1.59585 1.61783 4.25902 0.5 0 0 0 -0.174907 -5.05051 0.598236 
86 1.99544 1.44378 3.89321 0.5 0 0 0 -1.58181 -4.76346 2.01602 
252 1.97124 2.33461 4.62375 0.5 0 0 0 -0.380432 -2.50465 -0.187745 
372 2.44557 0.703629 4.33782 0.5 0 0 0 -4.58185 -1.31109 -0.490334 
111 1.47988 2.39443 3.94322 0.5 0 0 0 0.57344 -2.60438 1.12605 
90 1.33534 1.25023 3.83517 0.5 0 0 0 0.0442036 -5.92801 2.69817 
104 1.86758 1.04363 3.82195 0.5 0 0 0 -2.65245 -5.30354 3.62858 
118 2.5096 1.67311 4.55116 0.5 0 0 0 -2.00912 -2.35967 -0.414628 
101 1.63832 0.949614 3.80756 0.5 0 0 0 -1.76202 -5.38817 4.48021 
140 2.46899 2.49535 0.521337 0.5 0 0 0 -0.128923 -0.497129 0.0925402 
141 0.969153 3.25075 0.881211 0.5 0 0 0 -0.687553 -0.0542312 0.763203 
142 1.05819 3.61895 0.280845 0.5 0 0 0 0.0762456 0.567474 -0.305144 
143 0.613292 3.01274 0.597911 0.5 0 0 0 -0.779389 -0.0736859 1.18856 
167 1.34249 2.79902 0.683508 0.5 0 0 0 0.862645 -0.285239 0.45934 
168 1.60812 2.59703 0.915715 0.5 0 0 0 0.694652 -0.0649738 0.373868 
146 1.06775 3.21913 0.367263 0.5 0 0 0 0.565026 -0.407089 0.137546 
147 0.573211 4.49282 0.517004 0.5 0 0 0 1.15795 -0.171618 0.303735 
148 1.97431 3.78988 0.43388 0.5 0 0 0 0.683053 -0.368954 -0.379235 
149 0.683853 3.59681 0.0907918 0.5 0 0 0 -0.32003 1.05828 -0.716979 
150 1.89594 4.42723 0.806371 0.5 0 0 0 -0.262459 0.0303814 0.357103 
151 0.0449973 3.44437 0.106179 0.5 0 0 0 -1.64545 0.617934 -0.0464946 
152 1.35725 3.63101 1.14384 0.5 0 0 0 0.113064 -0.00934907 0.199482 
153 2.20121 4.40131 0.258873 0.5 0 0 0 -0.252426 -0.133621 -0.978002 
154 2.33911 4.58276 0.684233 0.5 0 0 0 -0.385044 -0.355662 0.255401 
155 1.29543 3.739 0.711871 0.5 0 0 0 -0.0563022 0.396043 0.295765 
156 0.448865 4.37763 1.05829 0.5 0 0 0 -0.637543 -0.993314 1.12882 
157 2.28878 2.65211 1.12402 0.5 0 0 0 0.333612 -0.23074 0.723514 
158 1.97601 4.15404 0.975269 0.5 0 0 0 0.404546 -0.540378 0.510199 
159 1.30202 3.80287 0.707774 0.5 0 0 0 -0.132024 0.516306 0.258977 
160 2.25978 2.64393 -0.073284 0.5 0 0 0 -0.478509 -0.50146 -2.67305 
23 0.96213 2.54199 0.248239 0.5 0 0 0 0.775307 -0.195284 -0.0476445 
162 1.69243 3.28376 0.688211 0.5 0 0 0 1.10818 -0.412023 0.186955 
163 0.041328 4.44313 0.0101794 0.5 0 0 0 0.227751 -0.443052 -0.609395 
164 2.14712 2.84689 0.191516 0.5 0 0 0 -0.0992102 -0.121557 -1.10247 
165 0.0909564 3.27533 0.313754 0.5 0 0 0 -1.7935 0.16839 0.889031 
166 2.19765 3.29178 0.984013 0.5 0 0 0 0.42666 -0.0728746 0.437587 
169 0.463451 3.13038 2.39827 0.5 0 0 0 -0.761678 0.716252 0.0716808 
170 1.91534 3.15615 2.11444 0.5 0 0 0 0.85004 -0.609248 0.276098 
171 0.0731375 4.12224 2.28628 0.5 0 0 0 -2.3247 -0.638982 -1.31692 
172 1.10385 2.49108 1.83479 0.5 0 0 0 0.113749 -0.0897806 0.287122 
173 1.82174 3.36308 1.88122 0.5 0 0 0 0.624505 -0.353049 -0.192821 
174 1.26914 2.64237 1.45142 0.5 0 0 0 0.15249 0.0686227 0.0522171 
175 1.51649 4.31087 1.98113 0.5 0 0 0 0.608816 -0.492254 -0.249141 
176 1.55214 2.54248 1.97066 0.5 0 0 0 1.07779 -0.388531 0.455806 
177 -0.000857487 2.86161 2.38797 0.5 0 0 0 -2.34374 0.446071 0.184765 
178 1.44946 3.12326 1.43829 0.5 0 0 0 0.262689 -0.115134 -0.0447435 
179 2.14586 3.0696 2.45798 0.5 0 0 0 1.21853 -1.04111 0.798676 
180 1.15673 3.75587 1.50516 0.5 0 0 0 -0.819975 -0.0253658 -0.175358 
181 1.90675 4.8254 1.69836 0.5 0 0 0 -0.110064 0.569157 -0.338508 
182 1.13562 4.0265 1.86656 0.5 0 0 0 -0.897775 -0.269054 -0.176398 
183 1.54777 4.578 2.2453 0.5 0 0 0 0.407824 -0.184484 0.38201 
184 0.375315 2.61523 1.7266 0.5 0 0 0 -1.25202 0.288712 -0.281903 
185 1.31385 4.74035 2.2815 0.5 0 0 0 -0.397766 0.234678 0.573765 
204 1.32468 2.72488 2.02243 0.5 0 0 0 0.411385 -0.151383 0.337869 
187 1.38995 2.59811 2.25107 0.5 0 0 0 0.729192 -0.475092 0.785655 
188 1.50496 3.99844 2.40064 0.5 0 0 0 0.21121 -0.474673 0.650987 
189 1.72033 3.51607 2.26762 0.5 0 0 0 0.268716 -0.402701 0.325114 
202 0.97253 3.69504 1.79271 0.5 0 0 0 -1.44569 -0.0254388 -0.100596 
191 2.16536 2.9869 2.46313 0.5 0 0 0 1.31932 -1.07887 0.82975 
192 1.889 3.66891 2.05625 0.5 0 0 0 0.648583 -0.477186 -0.120465 
193 0.891351 3.87886 2.43149 0.5 0 0 0 -1.18053 -0.0752948 0.529394 
194 0.584987 3.06103 2.1515 0.5 0 0 0 -0.561678 0.719712 -0.131428 
195 1.99793 2.84629 1.96781 0.5 0 0 0 1.27025 -0.681301 0.435245 
196 1.34713 4.40977 1.55939 0.5 0 0 0 -0.112911 0.0288068 -0.882955 
190 1.78496 4.93381 1.1726 0.5 0 0 0 -1.13942 1.85127 -0.304663 
198 0.864722 4.5435 2.00967 0.5 0 0 0 -2.11478 0.13587 -0.14309 
199 1.34387 3.07488 2.36975 0.5 0 0 0 -0.0317916 -0.26525 0.531313 
200 2.34844 5.02928 2.31953 0.5 0 0 0 -0.796927 1.5999 0.324431 
201 0.447629 2.72568 2.13465 0.5 0 0 0 -0.558463 0.0893961 0.1134 
70 0.869077 2.53772 2.15016 0.5 0 0 0 -0.00743689 -0.379525 0.682899 
145 2.0849 2.5666 1.35062 0.5 0 0 0 0.613532 -0.220207 0.593893 
161 0.304218 3.15921 1.21596 0.5 0 0 0 -2.2042 0.586656 0.685966 
205 1.20045 3.53231 3.03398 0.5 0 0 0 0.0678489 -0.333989 0.2644 
206 1.96354 4.32896 3.03559 0.5 0 0 0 -0.110279 -0.374461 0.795724 
207 0.125252 4.09144 3.71369 0.5 0 0 0 -0.808901 -0.464154 0.10916 
208 0.843591 2.50924 3.69924 0.5 0 0 0 0.234166 -2.55704 0.728924 
209 1.51896 3.92171 3.16325 0.5 0 0 0 0.196411 -0.11756 0.840634 
210 1.84192 3.57401 3.51447 0.5 0 0 0 0.186013 -0.797552 0.527509 
211 1.88265 3.75203 2.61168 0.5 0 0 0 0.452322 -0.560302 0.722458 
212 1.26728 4.95011 2.96344 0.5 0 0 0 -0.263374 0.344971 0.888441 
213 2.05997 3.14168 2.58517 0.5 0 0 0 0.926647 -0.952237 0.886785 
214 1.2445 3.27321 3.65914 0.5 0 0 0 0.794291 -0.802976 0.932507 
215 0.723583 3.1322 3.31572 0.5 0 0 0 -0.405282 -0.703705 -0.116969 
216 0.445432 3.18581 3.33118 0.5 0 0 0 -1.0858 -0.462252 -0.47796 
217 2.4775 2.71685 2.75586 0.5 0 0 0 1.39744 -1.20611 0.862043 
218 2.3856 5.03042 3.71336 0.5 0 0 0 -0.964752 1.53911 0.410967 
219 1.09024 2.61491 3.18492 0.5 0 0 0 0.202244 -1.69436 0.472068 
220 2.32371 4.8339 2.95769 0.5 0 0 0 -0.618061 0.361611 0.828808 
221 1.05556 3.48504 3.60298 0.5 0 0 0 0.438449 -0.23309 0.805256 
222 2.43947 3.20194 3.06529 0.5 0 0 0 0.899462 -1.47824 0.585513 
223 1.90844 2.58351 3.33421 0.5 0 0 0 1.00394 -1.39159 0.908069 
224 0.518844 4.92289 3.11834 0.5 0 0 0 -0.680184 1.04935 -0.188433 
225 0.511127 3.84252 3.64451 0.5 0 0 0 -0.152893 0.0961997 0.347045 
226 0.947702 4.03003 2.86601 0.5 0 0 0 -0.664885 0.111382 0.686513 
227 1.10353 3.04117 3.11188 0.5 0 0 0 0.291881 -0.946486 0.135897 
228 0.260916 4.35829 2.60106 0.5 0 0 0 -1.13177 -0.263864 -0.406467 
229 0.262293 4.30495 3.51799 0.5 0 0 0 -0.219816 -0.166069 -0.264815 
230 1.60813 2.9128 3.13403 0.5 0 0 0 0.859947 -1.11713 0.637785 
234 1.25336 3.65657 3.14787 0.5 0 0 0 0.170565 -0.177628 0.462588 
232 2.45704 3.29094 3.07976 0.5 0 0 0 0.789162 -1.45302 0.514954 
233 1.25657 4.7676 3.4016 0.5 0 0 0 0.262832 -0.270117 0.631765 
472 2.51545 4.84304 2.81896 0.5 0 0 0 -0.522624 0.376653 0.86045 
251 1.85861 2.53247 3.78307 0.5 0 0 0 0.796322 -1.97066 0.861911 
452 2.41994 3.93784 3.55703 0.5 0 0 0 -0.618564 -0.767746 -0.227209 
254 1.67058 4.93834 3.76207 0.5 0 0 0 -0.10851 -0.00649571 -0.126816 
197 1.56002 4.63702 2.4755 0.5 0 0 0 0.194486 -0.0431684 0.939227 
235 1.25867 4.88886 4.11647 0.5 0 0 0 -0.0651255 -0.422465 -0.500039 
236 2.01963 3.92687 3.99277 0.5 0 0 0 -1.36751 -0.449659 -0.153223 
237 0.594822 2.54956 3.92612 0.5 0 0 0 0.437815 -2.27665 0.911916 
238 0.923658 4.7717 4.37611 0.5 0 0 0 0.150089 -0.396482 -0.108956 
239 0.871879 3.75292 3.98212 0.5 0 0 0 0.547499 0.0329605 1.33283 
240 2.06139 4.5736 4.57908 0.5 0 0 0 -2.31861 1.3112 0.100659 
241 2.18404 4.38619 4.75142 0.5 0 0 0 -2.57604 0.69702 0.680996 
242 0.0972798 3.19401 4.41599 0.5 0 0 0 0.712094 -0.0226494 0.530368 
243 -0.0210877 2.72653 4.80955 0.5 0 0 0 0.478518 -2.54415 1.85161 
244 0.523833 4.91628 4.84729 0.5 0 0 0 -0.892566 0.136729 1.01535 
245 1.52927 3.07 4.9543 0.5 0 0 0 -1.28628 -1.12746 1.45296 
246 1.24538 3.71929 4.41729 0.5 0 0 0 -0.181745 -0.942078 1.03636 
247 2.42627 3.35712 3.82755 0.5 0 0 0 -0.0792567 -1.80327 -0.263738 
248 1.72736 2.6764 4.86734 0.5 0 0 0 -0.71705 -1.99976 0.514697 
249 1.67259 3.00147 4.12672 0.5 0 0 0 0.268959 -1.74657 0.717866 
250 1.29946 2.62047 3.95289 0.5 0 0 0 0.753727 -2.08434 1.28443 
259 0.587312 2.8217 3.88904 0.5 0 0 0 0.414859 -1.32142 0.940616 
258 0.0372923 2.95954 4.02069 0.5 0 0 0 -0.312624 -0.790852 -0.239209 
253 0.163214 2.67727 3.94064 0.5 0 0 0 -0.222692 -1.89763 0.00968963 
498 2.47241 3.56394 4.29258 0.5 0 0 0 -1.20944 -2.02102 -0.68037 
255 0.213921 3.66474 4.84726 0.5 0 0 0 0.696264 0.260018 1.04157 
256 2.32357 4.09436 4.60624 0.5 0 0 0 -2.25483 -0.685989 -0.152643 
257 1.27313 4.24124 4.86156 0.5 0 0 0 -0.926727 -1.02028 1.44442 
260 4.00548 -0.156984 0.919828 0.5 0 0 0 -0.224129 -2.77557 0.556826 
261 3.19555 2.28939 1.1298 0.5 0 0 0 -0.766285 0.0920794 1.34746 
262 4.78767 2.0216 0.404294 0.5 0 0 0 1.76569 0.433278 -1.08044 
263 4.86349 0.626846 0.989591 0.5 0 0 0 1.13943 -1.77795 0.856604 
264 3.25884 0.915975 0.201989 0.5 0 0 0 -0.773197 0.955018 -0.970807 
265 4.90555 1.41686 1.11291 0.5 0 0 0 1.84988 0.293403 1.42063 
266 4.83436 0.647197 -0.0129327 0.5 0 0 0 0.867861 -0.263244 -3.22902 
267 3.45728 1.79731 0.886208 0.5 0 0 0 -1.61343 -0.356157 0.380725 
268 2.89322 0.522865 0.844906 0.5 0 0 0 -0.153669 -0.397537 1.69461 
269 3.96982 1.81192 0.224051 0.5 0 0 0 -1.04672 -0.483307 -2.25332 
270 3.93633 1.90246 1.01936 0.5 0 0 0 -0.967735 0.53218 1.32244 
293 3.0209 2.402 0.572196 0.5 0 0 0 -0.796763 -0.433161 0.208566 
272 4.42309 1.79276 0.74169 0.5 0 0 0 0.0471642 0.718753 0.202829 
273 4.85214 1.36363 0.800134 0.5 0 0 0 1.45536 -0.32272 -0.105093 
274 2.68345 0.714079 0.824469 0.5 0 0 0 0.231242 -0.0903728 1.49874 
275 2.53788 2.34775 0.0564472 0.5 0 0 0 -0.496801 -1.07393 -2.05812 
276 5.08107 0.0669174 0.787804 0.5 0 0 0 1.14265 -1.66564 0.654511 
294 3.1399 0.0914928 0.349254 0.5 0 0 0 0.150632 -2.31543 -0.195657 
278 3.60827 1.88445 0.935528 0.5 0 0 0 -1.47461 -0.0204887 0.7398 
279 3.71217 0.457465 0.171547 0.5 0 0 0 0.354194 -1.3219 -1.49392 
295 2.73142 1.13214 0.898665 0.5 0 0 0 -0.159654 0.170698 0.868988 
281 3.0564 0.151202 0.970871 0.5 0 0 0 -0.451419 -1.9376 1.7754 
282 3.8744 1.69556 1.09783 0.5 0 0 0 -1.31081 0.0497804 1.41505 
283 3.80613 2.33927 -0.181282 0.5 0 0 0 -1.10119 -0.928736 -3.77634 
284 4.16863 2.09976 0.500958 0.5 0 0 0 -0.298063 0.73124 -0.333597 
285 3.41145 2.33265 0.439946 0.5 0 0 0 -1.11924 -0.145078 -0.370697 
286 3.72183 0.963263 0.427497 0.5 0 0 0 -1.14008 -0.231038 -0.451777 
287 4.34117 1.03841 0.42152 0.5 0 0 0 -0.486937 -1.23544 -1.49506 
288 4.07944 1.6191 1.03376 0.5 0 0 0 -1.10336 0.123643 1.24636 
289 4.36668 1.05293 0.596493 0.5 0 0 0 -0.637167 -1.3241 -0.78753 
290 3.33103 0.992293 0.623105 0.5 0 0 0 -1.22177 0.311956 0.681979 
291 2.90505 1.0038 0.0831383 0.5 0 0 0 -0.432346 1.52791 -1.78159 
297 3.1628 0.422644 1.81526 0.5 0 0 0 -1.29627 -1.55319 0.777129 
298 3.83873 2.08749 2.17162 0.5 0 0 0 -1.14484 -0.142799 1.0444 
299 3.06609 0.732191 2.23274 0.5 0 0 0 -0.806988 -0.563647 1.53063 
323 3.16958 1.7184 1.55879 0.5 0 0 0 -0.674006 -0.158868 1.15614 
301 3.32709 1.70196 2.15388 0.5 0 0 0 -0.572201 0.0774305 1.2787 
302 3.70478 0.970469 1.80799 0.5 0 0 0 -0.87263 0.195383 1.5238 
303 3.80395 0.847812 1.9442 0.5 0 0 0 -0.641843 0.0391932 1.64933 
292 4.33293 1.2853 1.247 0.5 0 0 0 -0.639711 -0.24934 1.77521 
305 4.06196 1.45734 1.37117 0.5 0 0 0 -1.02099 0.15281 2.08157 
306 4.61121 1.24738 1.92466 0.5 0 0 0 0.787658 -0.0452658 1.55536 
307 4.02806 0.002905 2.16168 0.5 0 0 0 -1.98922 -2.04563 -0.125274 
308 4.72506 0.10443 2.27495 0.5 0 0 0 0.0573733 -0.247064 0.0162167 
309 3.95474 0.747127 1.92068 0.5 0 0 0 -0.46874 -0.276004 1.65564 
310 4.61075 2.32872 1.97826 0.5 0 0 0 0.484478 -0.142864 0.410056 
311 3.53785 2.25907 2.09172 0.5 0 0 0 -0.893465 0.158253 1.12887 
321 4.85074 -0.0225687 2.20582 0.5 0 0 0 0.482387 -0.650847 -0.309895 
313 2.56726 1.50595 2.20377 0.5 0 0 0 0.109494 0.00598113 1.31397 
320 2.69246 1.31431 1.87261 0.5 0 0 0 0.0635756 -0.0689255 0.908768 
315 3.26739 0.871674 1.95479 0.5 0 0 0 -0.804993 -0.121811 1.16742 
316 4.50044 1.00423 2.30411 0.5 0 0 0 0.307764 0.0216564 0.921428 
317 4.42454 1.96834 2.33396 0.5 0 0 0 -0.426079 -0.757571 0.429067 
318 3.62757 0.647101 1.4244 0.5 0 0 0 -1.29709 -0.894219 0.717606 
319 3.17122 2.16817 1.97116 0.5 0 0 0 -0.361796 0.250632 1.24402 
271 4.89445 1.59838 1.20693 0.5 0 0 0 1.99258 1.05745 1.86763 
19 2.58919 1.86325 1.1735 0.5 0 0 0 0.0130797 -0.264312 0.539886 
280 3.82517 0.808423 1.18765 0.5 0 0 0 -1.36636 -0.816551 0.795763 
300 4.20682 2.38482 1.22812 0.5 0 0 0 -0.0437736 0.850136 1.85777 
296 4.29953 0.620871 1.1735 0.5 0 0 0 -0.391197 -1.69165 0.79983 
277 3.47974 2.13585 1.17679 0.5 0 0 0 -1.08778 0.311786 1.56496 
324 4.2005 1.07209 3.60419 0.5 0 0 0 -1.49448 0.447588 -0.557448 
325 3.13526 0.346657 3.34054 0.5 0 0 0 -3.12539 -1.2646 1.33761 
326 3.6674 1.472 3.67458 0.5 0 0 0 -1.94331 -0.40553 -0.0547188 
327 4.15864 1.37272 2.56514 0.5 0 0 0 -0.879734 -0.248784 0.532214 
328 3.56054 0.74607 2.82266 0.5 0 0 0 -1.23031 0.197369 0.970868 
329 4.6547 1.85821 2.76121 0.5 0 0 0 0.287442 -1.60686 -0.42261 
330 3.37921 1.61927 3.26273 0.5 0 0 0 -1.49017 -0.393449 0.612962 
331 4.42014 1.68675 3.2659 0.5 0 0 0 -1.11423 -1.26892 -0.407876 
332 4.72992 0.335376 2.57276 0.5 0 0 0 0.295626 0.868839 -0.287325 
333 2.6687 0.74566 3.45056 0.5 0 0 0 -3.12682 -1.52281 2.19032 
334 4.39709 0.492245 3.23253 0.5 0 0 0 -0.5331 0.856188 -1.84108 
335 5.05886 2.33764 2.86349 0.5 0 0 0 3.04183 -1.00717 -0.903849 
336 4.05519 0.349996 3.25553 0.5 0 0 0 -1.75579 0.276347 -0.965926 
350 2.94785 1.6205 2.671 0.5 0 0 0 -0.331918 -0.231868 1.44435 
338 2.75765 1.04702 3.7024 0.5 0 0 0 -3.05277 -1.44822 1.35405 
339 2.70521 0.895147 2.70661 0.5 0 0 0 -1.0301 -1.15821 2.43862 
340 2.93398 1.02899 3.59673 0.5 0 0 0 -2.76062 -1.00176 1.23853 
341 4.47473 1.9948 3.43292 0.5 0 0 0 -1.11103 -1.62634 0.0347199 
342 4.92134 1.88469 3.61398 0.5 0 0 0 1.08786 -1.7581 0.25509 
343 3.24145 1.5906 2.6238 0.5 0 0 0 -0.676344 -0.187417 1.25355 
349 4.1968 -0.0384078 3.21981 0.5 0 0 0 -1.68687 -1.34803 -1.61061 
345 3.47823 0.0426627 3.05535 0.5 0 0 0 -2.7364 -2.21436 0.52528 
346 3.69694 0.812518 3.53319 0.5 0 0 0 -2.44885 0.196064 0.133084 
347 2.80181 1.66491 2.63693 0.5 0 0 0 -0.102891 -0.1907 1.44764 
348 2.63913 1.65882 2.67643 0.5 0 0 0 0.0402973 -0.424348 1.55994 
352 4.94759 1.25163 3.70679 0.5 0 0 0 1.53043 -0.0804418 -0.468108 
469 4.12804 2.45323 2.60915 0.5 0 0 0 -1.94937 -0.327562 -0.220508 
304 2.73537 0.148581 2.52863 0.5 0 0 0 -1.73138 -2.67705 1.93468 
384 4.55125 0.313802 3.78158 0.5 0 0 0 -1.08602 0.714414 -1.93759 
351 4.81681 0.433177 4.13216 0.5 0 0 0 0.535572 1.28442 -0.255524 
381 3.28515 1.873 4.23842 0.5 0 0 0 -1.69195 -1.05932 -1.04762 
353 3.42786 1.25797 4.13506 0.5 0 0 0 -2.41254 -0.741744 -0.231657 
354 3.93464 1.93868 4.94642 0.5 0 0 0 -0.469351 -0.731158 1.15884 
355 4.89446 2.33384 4.0075 0.5 0 0 0 0.313415 -1.36288 1.3311 
356 4.4518 -0.173156 4.76969 0.5 0 0 0 -1.85993 -2.81267 1.5858 
383 4.13179 0.484745 4.99291 0.5 0 0 0 -2.19934 0.86439 2.56477 
358 5.09289 1.5728 4.75784 0.5 0 0 0 1.28538 -0.321769 1.65894 
359 3.01964 1.92093 4.29427 0.5 0 0 0 -1.64713 -1.29443 -1.07774 
360 4.55823 0.294839 4.19705 0.5 0 0 0 -1.20755 0.680698 -0.31245 
361 5.0107 2.27456 4.16295 0.5 0 0 0 0.815429 -1.71613 1.74497 
362 4.17113 0.254776 4.2464 0.5 0 0 0 -3.31803 0.0156992 -0.205719 
363 3.9113 0.319091 4.53698 0.5 0 0 0 -4.12048 -0.228953 0.55767 
364 2.66473 1.94634 4.90104 0.5 0 0 0 -2.03355 -1.87524 0.775544 
365 3.1697 1.79581 4.59542 0.5 0 0 0 -1.63187 -1.52831 -0.429097 
366 4.61143 0.911566 4.1486 0.5 0 0 0 -0.161782 1.71037 0.501436 
367 3.81678 -0.06025 3.84489 0.5 0 0 0 -4.38247 -2.21108 0.189214 
368 4.06429 1.84855 4.28442 0.5 0 0 0 -1.15826 -0.718833 -0.0177379 
369 3.4942 1.48242 4.35656 0.5 0 0 0 -1.88365 -0.953649 -0.468787 
370 2.82999 0.443282 4.66007 0.5 0 0 0 -3.54669 -1.08071 0.0899946 
371 4.72583 0.250738 4.64224 0.5 0 0 0 0.35401 0.645366 1.6131 
382 3.88419 0.944613 3.84084 0.5 0 0 0 -2.45411 0.362189 -0.0352709 
373 4.63289 0.300491 3.94053 0.5 0 0 0 -0.776878 0.734403 -1.37528 
374 4.53401 0.486201 4.04811 0.5 0 0 0 -1.13014 1.24203 -0.778777 
375 5.03448 0.0100976 4.98312 0.5 0 0 0 3.59472 -1.18712 3.20934 
376 4.10392 1.60789 4.6828 0.5 0 0 0 -0.582517 -0.440846 0.453446 
377 4.01537 2.10371 5.10767 0.5 0 0 0 -0.109896 -0.494931 2.13389 
378 2.91759 1.64263 5.01092 0.5 0 0 0 -1.92862 -2.16827 1.57484 
379 3.53378 0.926495 5.07408 0.5 0 0 0 -2.38333 -0.42552 1.83413 
380 3.06476 2.29047 4.29765 0.5 0 0 0 -1.41922 -1.25234 -1.06823 
385 2.72743 3.16667 0.678625 0.5 0 0 0 -0.259403 0.0375881 0.477857 
386 4.46001 4.72631 0.0499715 0.5 0 0 0 0.670252 0.329348 -0.709578 
387 3.86554 3.94207 0.138871 0.5 0 0 0 0.119301 -0.411044 -0.427995 
388 4.32021 4.0172 1.07919 0.5 0 0 0 -0.81773 -0.172862 -1.10385 
389 3.81849 3.08829 0.794953 0.5 0 0 0 -0.593899 0.0886742 0.755414 
390 3.64731 4.11213 0.128382 0.5 0 0 0 0.0900848 -0.597322 0.053427 
391 5.05323 4.32999 1.07581 0.5 0 0 0 2.14325 1.08718 -1.29532 
392 4.88878 2.67893 0.295458 0.5 0 0 0 1.32139 0.365167 -0.297521 
393 4.52615 4.58373 0.677721 0.5 0 0 0 -0.0148529 1.27502 -0.991625 
394 2.76375 2.92559 1.08836 0.5 0 0 0 0.0172053 -0.151015 1.30112 
395 4.91111 2.95983 0.998604 0.5 0 0 0 1.35503 -0.497231 1.14155 
396 4.08242 3.07659 0.0175119 0.5 0 0 0 -0.343925 0.450841 -1.52537 
397 5.07976 4.04744 0.825049 0.5 0 0 0 2.38248 -0.0624617 -1.63065 
398 2.92734 4.94157 0.00821892 0.5 0 0 0 -0.477094 2.03751 -1.50091 
399 3.38818 4.92148 0.588322 0.5 0 0 0 0.578035 1.09103 -0.330985 
400 3.33768 4.51274 0.419337 0.5 0 0 0 0.195514 -0.603884 0.275916 
401 3.37374 2.65717 0.0719904 0.5 0 0 0 -0.978821 -0.396984 -1.65032 
402 2.72655 3.11912 0.688007 0.5 0 0 0 -0.262873 0.00999509 0.537515 
403 4.76397 3.22272 0.182962 0.5 0 0 0 0.431383 0.481352 -1.34412 
404 4.20748 2.63552 0.142011 0.5 0 0 0 -0.164165 0.531439 -0.894031 
405 4.05945 4.87616 -0.0238892 0.5 0 0 0 0.282866 0.873251 -0.164249 
406 4.20553 3.58907 1.03062 0.5 0 0 0 -0.887427 -0.743131 -0.29076 
407 2.81353 4.21131 -0.0113308 0.5 0 0 0 -0.346716 -0.769311 -1.25041 
408 4.9935 3.11745 0.424443 0.5 0 0 0 1.24839 -0.0506803 -0.2535 
409 3.77206 3.30856 0.562627 0.5 0 0 0 -0.535936 0.0681106 0.0361976 
410 3.87007 2.62726 0.885773 0.5 0 0 0 -0.532574 0.714133 1.23168 
411 4.18383 2.65307 1.06401 0.5 0 0 0 -0.13539 0.559433 1.4607 
412 3.0916 3.18162 0.446709 0.5 0 0 0 -0.480448 0.0500567 0.0615058 
413 2.9187 3.71694 0.925144 0.5 0 0 0 -0.225709 -0.363143 0.330762 
414 2.70955 4.48431 0.643286 0.5 0 0 0 -0.107209 -0.930287 0.142364 
415 2.6388 4.93667 1.11349 0.5 0 0 0 -1.07919 0.886344 -0.319925 
417 3.0858 3.60769 0.193226 0.5 0 0 0 -0.439154 -0.300427 -0.622333 
418 4.81607 4.17573 1.6567 0.5 0 0 0 0.591407 -0.344376 0.0452533 
419 2.97104 3.77732 2.20127 0.5 0 0 0 0.52717 -1.67747 0.597787 
420 4.87673 3.94974 2.41375 0.5 0 0 0 0.27487 -1.57638 0.677251 
421 4.8751 4.57039 1.80973 0.5 0 0 0 1.01156 1.67479 -0.455599 
422 4.26911 4.54909 1.75393 0.5 0 0 0 0.210621 0.978853 0.159591 
423 3.64883 4.60707 1.39654 0.5 0 0 0 0.361035 0.133713 -1.23184 
424 4.35686 3.80958 1.43822 0.5 0 0 0 -0.729216 -1.16537 0.524538 
425 2.78397 3.15329 1.33965 0.5 0 0 0 0.223681 -0.293642 1.28223 
426 3.24265 4.5535 2.11577 0.5 0 0 0 0.105233 -0.908428 1.66017 
427 3.29534 4.61706 1.65763 0.5 0 0 0 -0.18009 -0.610714 -0.144507 
428 4.92768 4.3107 2.00987 0.5 0 0 0 0.632424 -0.199121 0.0995175 
429 3.19584 4.83428 1.72876 0.5 0 0 0 -0.356617 0.283535 0.170775 
430 2.95764 4.84836 1.32106 0.5 0 0 0 -0.875962 0.354234 -0.984311 
431 3.50765 2.67592 2.37491 0.5 0 0 0 -0.874507 -0.138897 0.589053 
432 3.95776 2.50817 1.48 0.5 0 0 0 -0.674985 0.427686 1.94298 
433 2.74246 4.35531 2.39777 0.5 0 0 0 -0.216761 -1.01735 0.873586 
434 3.13473 4.5078 1.94043 0.5 0 0 0 -0.332035 -1.07924 0.870712 
435 3.61635 4.6595 1.62657 0.5 0 0 0 0.532136 0.0850839 -0.176543 
436 3.34108 3.27577 2.05506 0.5 0 0 0 -0.141775 -0.940364 0.961166 
437 3.80656 3.98331 1.78453 0.5 0 0 0 -0.71462 -1.51624 0.940796 
438 5.00234 3.52831 1.86043 0.5 0 0 0 1.73065 -1.93279 0.236779 
439 4.48504 4.48045 2.45637 0.5 0 0 0 -0.699923 0.100594 1.4469 
440 2.64624 3.87469 2.23009 0.5 0 0 0 0.374718 -1.16793 0.247913 
441 2.92967 4.74914 2.12021 0.5 0 0 0 -0.681674 -0.00188634 1.10789 
442 3.06368 4.58908 1.38181 0.5 0 0 0 -0.702519 -0.753025 -1.05748 
443 3.87393 4.1195 1.96441 0.5 0 0 0 -0.426198 -1.36558 1.44373 
444 2.67807 4.3564 1.89243 0.5 0 0 0 -0.768882 -0.933526 -0.157709 
445 4.42925 3.75366 1.23855 0.5 0 0 0 -0.571479 -1.03451 -0.0131121 
446 4.16136 3.88015 2.29142 0.5 0 0 0 -0.971871 -1.56509 1.40265 
447 3.98414 3.83381 1.7099 0.5 0 0 0 -1.00348 -1.50694 1.02252 
448 4.54614 2.8292 2.22811 0.5 0 0 0 -0.167324 0.272986 -0.265148 
449 3.08114 3.86142 1.29596 0.5 0 0 0 -0.376898 -0.89218 0.0159932 
450 3.48301 3.36566 1.39671 0.5 0 0 0 -0.555954 -0.723561 1.08944 
416 4.4394 3.86706 1.2623 0.5 0 0 0 -0.553528 -0.823866 -0.162323 
203 2.54257 2.99444 1.48494 0.5 0 0 0 0.543091 -0.349895 1.11906 
322 2.8968 2.52125 1.8635 0.5 0 0 0 0.201445 -0.0968863 1.34304 
314 4.95153 2.49957 1.43986 0.5 0 0 0 2.18033 0.0170282 0.881086 
479 2.67201 3.66334 3.67497 0.5 0 0 0 -0.203288 -1.64079 -0.627278 
453 4.81672 2.73412 3.2535 0.5 0 0 0 0.831721 0.57148 -0.423169 
454 3.96861 3.31053 2.81272 0.5 0 0 0 -1.04521 -0.0947026 0.106194 
455 2.9786 4.28332 3.66019 0.5 0 0 0 -0.726501 -0.931994 -1.02449 
456 2.78681 4.65171 3.10914 0.5 0 0 0 -0.203218 -0.442472 0.326358 
457 3.04669 4.89391 2.94079 0.5 0 0 0 0.553134 0.687047 0.706064 
458 3.38148 3.15475 2.90913 0.5 0 0 0 -0.53657 -0.877624 0.204814 
459 4.79833 4.06689 2.63941 0.5 0 0 0 -0.128115 -1.05998 1.14753 
460 4.33881 2.93316 3.14829 0.5 0 0 0 -1.28469 1.05582 -0.479647 
461 4.46961 4.44766 2.57146 0.5 0 0 0 -0.804009 -0.0312868 1.57331 
462 4.70144 4.99918 2.54255 0.5 0 0 0 0.456877 4.6025 1.38143 
463 4.41338 2.63817 2.73774 0.5 0 0 0 -1.22616 -0.00239393 -0.778371 
464 3.08229 3.82563 3.12878 0.5 0 0 0 0.299011 -1.73465 -0.110338 
465 3.57021 3.93289 3.56067 0.5 0 0 0 0.454614 -1.22726 -1.1988 
466 4.19208 2.57746 3.01757 0.5 0 0 0 -2.126 -0.251431 -0.640537 
467 3.47467 4.4369 3.46202 0.5 0 0 0 0.871082 -0.333502 -0.872526 
468 4.83204 2.71881 2.53955 0.5 0 0 0 1.39737 0.238178 -0.966783 
344 4.1894 2.52632 3.41191 0.5 0 0 0 -2.05252 -0.494538 0.00248359 
470 4.4847 2.5291 3.64937 0.5 0 0 0 -1.05988 -0.473931 0.538403 
471 3.84037 4.76542 3.03905 0.5 0 0 0 0.428612 1.21801 0.489401 
451 2.79986 3.7981 2.4996 0.5 0 0 0 0.673166 -1.50343 0.668464 
473 2.91846 5.08609 3.74857 0.5 0 0 0 -0.149586 2.67786 0.232568 
474 4.50733 2.85756 3.6255 0.5 0 0 0 -0.710919 1.04259 0.308583 
478 3.98902 2.61315 3.41298 0.5 0 0 0 -2.49937 -0.216003 -0.0580585 
476 4.67836 3.70549 3.01079 0.5 0 0 0 0.0893647 -0.00659482 0.817221 
477 2.80107 4.25512 2.56629 0.5 0 0 0 0.0882469 -1.2694 0.940752 
337 4.00855 2.47712 3.28526 0.5 0 0 0 -2.56717 -0.587889 -0.21087 
475 4.80452 4.05407 3.78608 0.5 0 0 0 0.939247 -0.0504973 -0.155892 
480 3.58953 3.80889 4.79312 0.5 0 0 0 1.28075 -1.32208 0.955262 
481 4.13979 3.02608 4.95778 0.5 0 0 0 -0.268013 -1.47019 2.14235 
482 3.77861 3.59844 4.0078 0.5 0 0 0 0.420697 -0.998558 -1.09702 
483 4.4053 4.8875 4.10612 0.5 0 0 0 0.262979 0.500343 -1.75147 
484 3.17257 4.00242 3.9681 0.5 0 0 0 -0.446874 -1.449 -1.51123 
485 3.66542 3.93623 4.40886 0.5 0 0 0 1.30968 -0.836016 -0.600783 
486 4.72062 4.70312 4.34976 0.5 0 0 0 -0.0982371 -0.899063 -1.36616 
487 3.2799 3.12529 4.27903 0.5 0 0 0 -0.664688 -1.98186 -0.831764 
488 4.67013 3.1766 4.66622 0.5 0 0 0 0.0223407 0.0686333 0.971271 
489 3.35019 4.83711 5.08971 0.5 0 0 0 -0.173213 3.09059 3.98354 
490 3.58041 3.44622 4.24509 0.5 0 0 0 -0.0363139 -1.73962 -0.884358 
491 3.71318 4.11091 4.82948 0.5 0 0 0 2.05154 -0.117143 1.33698 
492 2.66401 3.19064 4.79124 0.5 0 0 0 -1.2871 -2.59106 0.923016 
493 4.51494 3.66925 4.72374 0.5 0 0 0 1.18588 0.523255 0.678215 
494 3.42613 3.64515 5.12502 0.5 0 0 0 0.777787 -2.09056 3.3119 
495 2.6833 4.06725 4.41672 0.5 0 0 0 -1.05383 -0.908425 -1.15867 
496 2.62238 3.80936 4.95756 0.5 0 0 0 -1.37843 -1.77675 1.45777 
497 3.38169 4.37698 3.94441 0.5 0 0 0 0.44671 -0.250724 -1.31613 
357 3.44985 2.4954 4.63855 0.5 0 0 0 -0.880717 -1.29877 0.135069 
499 3.95608 2.50646 4.05608 0.5 0 0 0 -1.53386 -0.749099 0.251147 
500 4.65468 4.93223 4.97398 0.5 0 0 0 -0.725076 -0.119521 1.69277 
501 4.62616 4.81561 4.90394 0.5 0 0 0 -0.283518 -0.293761 1.2927 
502 2.68187 3.97567 4.77886 0.5 0 0 0 -0.998984 -1.16851 0.287559 
503 2.93975 4.25916 4.55901 0.5 0 0 0 -0.375698 -0.128657 -0.685938 
504 3.55114 3.30536 4.29101 0.5 0 0 0 -0.234615 -1.87485 -0.698641 
505 3.69576 4.82259 4.28552 0.5 0 0 0 1.42026 1.77458 -0.194306 
506 4.09435 4.02173 3.97424 0.5 0 0 0 1.82453 0.0293991 -0.947324 
507 4.9127 2.81898 3.94309 0.5 0 0 0 0.483224 0.990062 0.557349 
508 2.87514 3.92811 4.68636 0.5 0 0 0 -0.391814 -1.40774 -0.269407 
509 3.30514 4.7555 4.40391 0.5 0 0 0 0.178878 1.78592 -0.100215 
510 3.08449 4.49512 4.06087 0.5 0 0 0 -0.596046 0.201674 -1.22215 
511 2.64438 3.03166 4.50455 0.5 0 0 0 -1.03001 -2.2083 -0.126205 
512 2.666 2.8248 4.36838 0.5 0 0 0 -0.847065 -1.88599 -0.442516 
513 4.86973 3.02687 4.29851 0.5 0 0 0 0.304358 1.03369 0.591162 
ITEM: TIMESTEP
60059
ITEM: NUMBER OF ATOMS
512
ITEM: BOX BOUNDS ss ss ss
-2.1589663964569298e-02 5.0933846546203574e+00
-1.7364439631764822e-01 5.0865807164741392e+00
-1.8176655292622759e-01 5.1255068607205727e+00
ITEM: ATOMS id x y z width_SPH x_COM y_COM z_COM vx vy vz 
2 0.301063 0.775934 0.24686 0.5 0 0 0 -1.37929 -0.579508 0.0688067 
3 0.259439 1.29101 0.605721 0.5 0 0 0 -2.08437 -0.964664 0.28775 
4 0.78748 1.24764 1.03676 0.5 0 0 0 -0.386229 -0.340104 0.749199 
5 1.73538 1.8934 0.823938 0.5 0 0 0 0.958546 0.352101 0.221132 
6 0.274199 2.07866 0.848531 0.5 0 0 0 -2.11845 0.860424 1.16652 
7 0.546657 1.58454 0.342547 0.5 0 0 0 -0.688674 -0.372078 -0.682094 
8 1.33606 0.225899 0.773362 0.5 0 0 0 0.0500291 -0.68542 1.1841 
9 1.53468 0.986431 0.331379 0.5 0 0 0 0.774065 0.260709 -0.747349 
10 1.11158 1.53603 -0.0685521 0.5 0 0 0 0.983787 -0.388495 -2.84956 
11 1.39605 1.22774 0.796169 0.5 0 0 0 0.782314 0.130034 0.282642 
38 1.08307 2.32881 0.776648 0.5 0 0 0 0.516855 0.421782 0.862947 
41 2.23084 2.37931 1.02289 0.5 0 0 0 0.351368 -0.202259 0.556565 
14 1.26049 2.06321 0.329271 0.5 0 0 0 1.32265 0.117815 -0.38026 
15 1.54694 0.0394771 0.976121 0.5 0 0 0 1.23301 -1.50689 2.12372 
37 0.636907 0.390266 0.353983 0.5 0 0 0 -1.47732 -0.586535 0.379712 
17 1.08139 0.119435 0.519716 0.5 0 0 0 -1.29666 -0.68739 0.538477 
18 1.50826 -0.0164873 0.0458984 0.5 0 0 0 0.0210383 -0.949753 -1.15228 
40 1.99513 0.669574 0.604463 0.5 0 0 0 1.39263 -0.197957 0.904843 
20 0.369821 1.75927 1.04789 0.5 0 0 0 -1.73135 0.350023 1.28565 
21 1.878 1.79469 0.745542 0.5 0 0 0 1.08071 0.226356 -0.00311165 
22 0.552787 2.4223 0.409937 0.5 0 0 0 -0.558247 0.212977 0.657485 
39 0.791151 1.5785 0.8102 0.5 0 0 0 0.140692 0.22759 0.408953 
24 0.00341134 0.598286 0.081695 0.5 0 0 0 -2.72799 -0.7799 -0.133738 
25 1.95436 0.260601 0.58188 0.5 0 0 0 1.68406 -0.755031 1.36423 
26 1.35581 0.890949 0.584786 0.5 0 0 0 0.399598 0.0193433 -0.00984355 
27 0.864668 1.8141 0.900153 0.5 0 0 0 0.377408 0.6709 0.69182 
28 2.15663 0.959746 0.359459 0.5 0 0 0 0.883559 0.501586 -0.229977 
29 2.42448 1.35996 0.26941 0.5 0 0 0 0.107995 1.01777 -1.19045 
30 1.3992 0.242432 0.884061 0.5 0 0 0 0.488744 -0.821782 1.45703 
31 1.65838 1.51848 0.685685 0.5 0 0 0 1.20239 0.362146 0.0102015 
32 1.30153 2.09592 0.250957 0.5 0 0 0 1.47636 0.00634746 -0.708896 
33 1.46276 1.14326 0.721758 0.5 0 0 0 0.85682 0.0701401 0.199778 
34 0.622255 2.08924 -0.0271224 0.5 0 0 0 -0.447983 -0.575377 -2.02294 
35 1.77116 0.0448088 -0.128817 0.5 0 0 0 1.17616 -0.864647 -2.25459 
36 0.968307 0.88323 0.0786178 0.5 0 0 0 0.0955973 0.0328238 -1.47964 
144 0.0212042 2.45507 0.114572 0.5 0 0 0 -3.16819 -0.780049 -1.09894 
43 1.54524 0.067728 1.95231 0.5 0 0 0 1.54679 -2.05895 2.27934 
44 1.36472 2.35713 1.90941 0.5 0 0 0 0.773312 -0.347974 0.538692 
45 1.3338 1.11988 1.48552 0.5 0 0 0 0.47651 -0.198914 1.55749 
46 1.38771 2.23672 2.32625 0.5 0 0 0 0.773082 -0.849672 1.17322 
47 1.3959 1.26088 1.91896 0.5 0 0 0 -0.0998421 -0.503567 2.36785 
48 1.18006 0.812493 1.47865 0.5 0 0 0 0.169848 -0.426954 1.76228 
49 2.47935 2.34211 1.69817 0.5 0 0 0 0.558035 -0.173278 1.19153 
50 0.89125 0.608881 1.67019 0.5 0 0 0 -1.07942 -0.542188 2.5108 
51 1.96892 0.939587 1.80624 0.5 0 0 0 0.474681 -1.09681 1.64682 
52 0.671608 1.64139 1.3334 0.5 0 0 0 -0.669197 0.0976876 1.61565 
53 2.1247 1.44177 1.71791 0.5 0 0 0 0.456211 0.123609 0.952321 
54 0.390186 0.0429187 2.20343 0.5 0 0 0 -1.5532 -1.25143 0.557945 
55 1.73184 1.84185 1.70753 0.5 0 0 0 0.650531 0.164908 0.906612 
16 2.25736 2.0163 1.1787 0.5 0 0 0 0.457643 -0.0719222 0.552915 
57 2.38803 1.07707 1.62868 0.5 0 0 0 0.472631 -0.693352 0.755424 
58 1.78528 0.149194 2.2391 0.5 0 0 0 1.03272 -2.02276 2.71638 
59 1.24236 0.582601 2.37879 0.5 0 0 0 0.260552 -0.272349 3.92142 
60 0.669151 1.69642 1.57452 0.5 0 0 0 -0.979975 -0.22187 2.0961 
61 1.33412 0.300399 1.71432 0.5 0 0 0 0.887244 -1.21204 2.26359 
78 1.05745 1.89882 1.61753 0.5 0 0 0 0.147241 0.000545232 1.16134 
63 2.01583 1.57785 2.03482 0.5 0 0 0 0.300783 -0.0541731 1.40504 
64 0.517037 0.357616 2.37908 0.5 0 0 0 -0.565327 0.530368 2.62103 
65 1.06184 1.77544 2.19873 0.5 0 0 0 -0.468631 -1.4053 2.12136 
66 2.34198 0.861944 2.01783 0.5 0 0 0 0.0265063 -1.35149 1.67451 
67 1.10298 0.688532 2.02628 0.5 0 0 0 -0.327951 -0.221876 3.4571 
68 2.05806 1.47707 1.72367 0.5 0 0 0 0.443887 0.165843 1.00094 
69 1.40306 0.742945 2.26942 0.5 0 0 0 -0.0127667 -0.601982 3.56707 
77 0.387396 1.54418 1.42855 0.5 0 0 0 -2.22895 -0.477387 2.42532 
71 0.737607 0.532105 1.43847 0.5 0 0 0 -1.94547 -0.911221 1.66724 
72 1.00639 2.24107 2.44178 0.5 0 0 0 0.00219269 -1.25807 1.46173 
73 2.05738 1.03319 1.69108 0.5 0 0 0 0.56807 -0.882771 1.23015 
74 2.23184 1.01521 2.36173 0.5 0 0 0 -0.384269 -1.45769 2.5191 
75 0.029772 2.3112 2.22173 0.5 0 0 0 -2.35309 -1.61492 0.705456 
76 0.971335 1.10815 1.45355 0.5 0 0 0 -0.382602 -0.281276 1.81094 
12 1.34528 1.51116 1.24545 0.5 0 0 0 0.683759 0.377335 0.874135 
13 1.86621 1.32627 1.25809 0.5 0 0 0 0.997044 -0.0560397 0.662313 
312 2.49224 -0.078543 1.66922 0.5 0 0 0 -0.14681 -2.94604 1.29967 
42 1.22906 0.726341 1.23555 0.5 0 0 0 0.353158 -0.502418 1.15911 
79 1.43519 2.24237 3.26306 0.5 0 0 0 0.0223937 -2.28937 1.2144 
80 0.722435 0.183723 2.71177 0.5 0 0 0 1.47955 0.523548 2.97283 
81 1.07277 0.414989 2.9058 0.5 0 0 0 1.6268 0.31862 4.4218 
82 1.30862 1.94324 2.75295 0.5 0 0 0 -0.30758 -2.04019 1.91004 
83 1.70365 2.04278 2.87994 0.5 0 0 0 0.281039 -1.52932 1.5193 
84 1.24767 0.840095 3.7174 0.5 0 0 0 1.33464 -3.77972 4.56288 
85 2.02471 1.84019 2.82634 0.5 0 0 0 0.380643 -1.35917 1.644 
106 1.36418 1.31962 2.61107 0.5 0 0 0 -0.890049 -2.1868 3.25934 
87 0.898792 2.29175 3.34264 0.5 0 0 0 -0.293885 -2.93017 0.785294 
88 1.94612 1.3812 2.97942 0.5 0 0 0 -0.745028 -2.92611 2.85488 
89 1.47552 0.236479 3.78194 0.5 0 0 0 0.219606 1.79092 4.58135 
100 0.580247 2.16471 2.54007 0.5 0 0 0 -0.486542 -1.98831 1.7544 
91 1.72849 1.44584 2.74127 0.5 0 0 0 -0.619523 -2.43813 2.67732 
92 0.12777 2.0969 2.8373 0.5 0 0 0 -1.2946 -2.82377 1.55059 
93 0.715281 0.31007 2.792 0.5 0 0 0 1.35814 0.930449 3.27145 
94 1.45135 1.94301 2.6258 0.5 0 0 0 0.0977458 -1.59542 1.72402 
95 2.18937 2.14759 3.16346 0.5 0 0 0 0.868291 -1.23578 1.36449 
96 0.949791 1.87738 2.59393 0.5 0 0 0 -0.661395 -2.26226 2.2731 
97 1.79656 0.470848 3.60666 0.5 0 0 0 -2.34275 -1.28831 5.27522 
98 0.273039 1.57184 2.88923 0.5 0 0 0 -0.472668 -2.69575 1.9902 
99 2.15148 1.76573 3.33725 0.5 0 0 0 -0.0623602 -2.4303 1.94139 
105 0.748303 0.11409 3.1335 0.5 0 0 0 2.424 0.805901 3.07573 
186 0.405524 2.44494 2.60322 0.5 0 0 0 -0.466366 -1.47824 1.20445 
102 1.84309 1.71237 3.01665 0.5 0 0 0 -0.358364 -2.45648 2.17474 
103 0.428589 1.0381 3.21399 0.5 0 0 0 1.28694 -1.21719 2.32733 
231 1.26226 2.35115 3.50858 0.5 0 0 0 0.166541 -2.64013 0.961336 
62 2.18333 1.76448 2.56415 0.5 0 0 0 0.450558 -0.647146 1.47221 
131 1.85477 1.65839 3.7735 0.5 0 0 0 -0.993888 -4.30603 2.03122 
56 2.44014 0.52258 2.48151 0.5 0 0 0 -0.93997 -1.83362 2.60201 
107 1.79924 0.17919 4.53985 0.5 0 0 0 -2.45819 2.41508 -3.09049 
108 1.07474 1.50091 4.4532 0.5 0 0 0 2.22996 -3.92926 -0.410833 
109 1.80421 0.539855 4.27431 0.5 0 0 0 -4.08378 -0.270151 -1.06234 
110 1.90997 0.686717 4.17965 0.5 0 0 0 -4.68695 -2.33698 0.535286 
139 1.01 0.534253 4.84211 0.5 0 0 0 4.18375 -0.557532 -2.80625 
112 1.75817 0.698007 4.66543 0.5 0 0 0 -1.94925 -1.78471 -4.66974 
113 1.92756 1.25305 4.43647 0.5 0 0 0 -2.1625 -4.87594 -0.595468 
114 0.872995 0.925237 4.48012 0.5 0 0 0 4.97043 -2.01786 -2.1932 
115 1.84021 0.570506 4.46821 0.5 0 0 0 -3.73002 -0.563658 -3.38063 
116 0.780053 0.159623 4.3033 0.5 0 0 0 4.86729 0.454735 -1.14698 
117 0.976213 0.936279 4.21247 0.5 0 0 0 4.88962 -3.28012 -0.842671 
138 0.0273678 1.19267 4.38544 0.5 0 0 0 0.0333264 -1.92571 0.369767 
119 0.767836 1.80937 4.39848 0.5 0 0 0 1.55621 -2.8226 0.538751 
120 1.48918 0.68412 4.13282 0.5 0 0 0 0.291237 -2.81552 1.22402 
121 1.88097 0.771572 3.94801 0.5 0 0 0 -3.89013 -3.61024 3.38597 
122 0.203653 -0.136027 4.07609 0.5 0 0 0 1.17963 -1.13953 0.140407 
123 1.22008 0.0988004 4.57304 0.5 0 0 0 3.27578 1.89725 -2.95649 
124 0.694219 0.489421 4.10319 0.5 0 0 0 4.98943 -0.112359 -0.715271 
125 1.57983 0.388106 4.1862 0.5 0 0 0 -1.13391 2.13362 0.184388 
126 1.3239 0.547611 4.31048 0.5 0 0 0 3.62914 -0.260674 -2.29486 
127 1.22247 2.04543 4.70511 0.5 0 0 0 0.529153 -2.49875 0.73864 
128 1.13273 0.893324 4.24917 0.5 0 0 0 4.63153 -3.84398 -1.04822 
129 0.157208 1.59083 4.15841 0.5 0 0 0 1.00233 -2.69924 -0.130495 
130 0.546434 0.828482 4.34959 0.5 0 0 0 3.60323 -1.03141 -1.40433 
137 0.139755 2.14504 3.86316 0.5 0 0 0 -0.17431 -3.34828 -0.349425 
132 2.24816 1.87939 3.83284 0.5 0 0 0 -0.369858 -2.65508 1.08224 
133 1.36568 0.564187 4.27385 0.5 0 0 0 2.91113 -0.547879 -1.67098 
134 1.70918 2.16355 4.92569 0.5 0 0 0 -0.345939 -2.30074 0.356002 
135 2.26419 0.167801 4.66814 0.5 0 0 0 -2.70262 -0.457154 -0.978054 
136 1.59585 1.61782 4.25902 0.5 0 0 0 -0.174904 -5.0505 0.598233 
86 1.99544 1.44377 3.89321 0.5 0 0 0 -1.58181 -4.76346 2.01601 
252 1.97124 2.33461 4.62375 0.5 0 0 0 -0.380429 -2.50465 -0.187746 
372 2.44557 0.703628 4.33782 0.5 0 0 0 -4.58182 -1.31109 -0.490327 
111 1.47988 2.39443 3.94322 0.5 0 0 0 0.573438 -2.60437 1.12605 
90 1.33534 1.25022 3.83517 0.5 0 0 0 0.0442077 -5.92799 2.69815 
104 1.86758 1.04362 3.82195 0.5 0 0 0 -2.65243 -5.30352 3.62857 
118 2.5096 1.67311 4.55116 0.5 0 0 0 -2.00911 -2.35966 -0.414626 
101 1.63832 0.949611 3.80756 0.5 0 0 0 -1.762 -5.38814 4.48018 
140 2.46899 2.49535 0.521337 0.5 0 0 0 -0.128921 -0.497128 0.0925403 
141 0.969152 3.25075 0.881212 0.5 0 0 0 -0.687555 -0.054232 0.763202 
142 1.05819 3.61895 0.280844 0.5 0 0 0 0.0762452 0.56747 -0.305146 
143 0.613291 3.01274 0.597911 0.5 0 0 0 -0.77939 -0.0736865 1.18856 
167 1.34249 2.79902 0.683509 0.5 0 0 0 0.862639 -0.285239 0.459339 
168 1.60812 2.59703 0.915715 0.5 0 0 0 0.694647 -0.0649741 0.373868 
146 1.06775 3.21913 0.367263 0.5 0 0 0 0.565022 -0.407089 0.137543 
147 0.573211 4.49282 0.517004 0.5 0 0 0 1.15794 -0.17161 0.303732 
148 1.97431 3.78988 0.43388 0.5 0 0 0 0.683052 -0.368953 -0.379236 
149 0.683853 3.59681 0.0907915 0.5 0 0 0 -0.320027 1.05827 -0.716981 
150 1.89594 4.42723 0.806371 0.5 0 0 0 -0.262458 0.0303803 0.357104 
151 0.0449965 3.44437 0.106179 0.5 0 0 0 -1.64543 0.617925 -0.0464907 
152 1.35725 3.63101 1.14384 0.5 0 0 0 0.113064 -0.00934986 0.199485 
153 2.20121 4.40131 0.258872 0.5 0 0 0 -0.252424 -0.133621 -0.978004 
154 2.33911 4.58276 0.684233 0.5 0 0 0 -0.385041 -0.355662 0.255402 
155 1.29543 3.739 0.711871 0.5 0 0 0 -0.0563019 0.39604 0.295766 
156 0.448865 4.37762 1.05829 0.5 0 0 0 -0.637548 -0.993306 1.12882 
157 2.28878 2.65211 1.12402 0.5 0 0 0 0.33361 -0.23074 0.723512 
158 1.97601 4.15404 0.975269 0.5 0 0 0 0.404545 -0.540377 0.5102 
159 1.30202 3.80287 0.707774 0.5 0 0 0 -0.132023 0.516303 0.258977 
160 2.25978 2.64393 -0.0732854 0.5 0 0 0 -0.478507 -0.501456 -2.67304 
23 0.96213 2.54199 0.248239 0.5 0 0 0 0.775302 -0.195284 -0.0476452 
162 1.69243 3.28376 0.688211 0.5 0 0 0 1.10818 -0.412021 0.186954 
163 0.0413281 4.44313 0.0101791 0.5 0 0 0 0.227749 -0.443043 -0.609394 
164 2.14712 2.84689 0.191515 0.5 0 0 0 -0.0992094 -0.121556 -1.10246 
165 0.0909555 3.27533 0.313755 0.5 0 0 0 -1.79348 0.168384 0.889034 
166 2.19765 3.29178 0.984013 0.5 0 0 0 0.426657 -0.0728734 0.437586 
169 0.46345 3.13038 2.39827 0.5 0 0 0 -0.761673 0.716245 0.0716831 
170 1.91534 3.15615 2.11444 0.5 0 0 0 0.850036 -0.609246 0.276099 
171 0.0731363 4.12224 2.28628 0.5 0 0 0 -2.32469 -0.638981 -1.31691 
172 1.10385 2.49108 1.83479 0.5 0 0 0 0.113745 -0.0897828 0.287125 
173 1.82174 3.36308 1.88122 0.5 0 0 0 0.624501 -0.353047 -0.192818 
174 1.26914 2.64237 1.45142 0.5 0 0 0 0.152486 0.0686206 0.0522198 
175 1.51649 4.31087 1.98113 0.5 0 0 0 0.608816 -0.492253 -0.24914 
176 1.55214 2.54248 1.97066 0.5 0 0 0 1.07778 -0.388533 0.455809 
177 -0.000858659 2.86161 2.38797 0.5 0 0 0 -2.34374 0.446068 0.184766 
178 1.44946 3.12326 1.43829 0.5 0 0 0 0.262687 -0.115134 -0.0447402 
179 2.14586 3.0696 2.45798 0.5 0 0 0 1.21852 -1.04111 0.798676 
180 1.15673 3.75587 1.50516 0.5 0 0 0 -0.819972 -0.0253668 -0.175354 
181 1.90675 4.8254 1.69836 0.5 0 0 0 -0.110064 0.569156 -0.338505 
182 1.13562 4.0265 1.86656 0.5 0 0 0 -0.897771 -0.269054 -0.176395 
183 1.54777 4.578 2.2453 0.5 0 0 0 0.407824 -0.184485 0.382007 
184 0.375314 2.61523 1.7266 0.5 0 0 0 -1.25201 0.288708 -0.281899 
185 1.31385 4.74035 2.2815 0.5 0 0 0 -0.397765 0.234677 0.573762 
204 1.32468 2.72488 2.02243 0.5 0 0 0 0.411381 -0.151385 0.337872 
187 1.38995 2.59811 2.25108 0.5 0 0 0 0.729188 -0.475093 0.785657 
188 1.50496 3.99844 2.40064 0.5 0 0 0 0.21121 -0.474673 0.650984 
189 1.72033 3.51607 2.26762 0.5 0 0 0 0.268714 -0.4027 0.325114 
202 0.97253 3.69504 1.79271 0.5 0 0 0 -1.44569 -0.0254405 -0.100592 
191 2.16536 2.9869 2.46313 0.5 0 0 0 1.31931 -1.07886 0.82975 
192 1.889 3.66891 2.05625 0.5 0 0 0 0.648579 -0.477183 -0.120464 
193 0.891351 3.87886 2.43149 0.5 0 0 0 -1.18052 -0.0752964 0.529393 
194 0.584987 3.06103 2.1515 0.5 0 0 0 -0.561674 0.719704 -0.131424 
195 1.99793 2.84629 1.96781 0.5 0 0 0 1.27024 -0.6813 0.435248 
196 1.34713 4.40977 1.55939 0.5 0 0 0 -0.112909 0.0288067 -0.882948 
190 1.78496 4.93381 1.1726 0.5 0 0 0 -1.13942 1.85128 -0.304663 
198 0.864721 4.5435 2.00967 0.5 0 0 0 -2.11478 0.135871 -0.14309 
199 1.34387 3.07488 2.36975 0.5 0 0 0 -0.0317927 -0.265251 0.531314 
200 2.34844 5.02928 2.31953 0.5 0 0 0 -0.796923 1.5999 0.324427 
201 0.447628 2.72568 2.13465 0.5 0 0 0 -0.558459 0.0893923 0.113402 
70 0.869077 2.53772 2.15016 0.5 0 0 0 -0.00743817 -0.379526 0.6829 
145 2.0849 2.5666 1.35062 0.5 0 0 0 0.613528 -0.220207 0.593893 
161 0.304217 3.15922 1.21596 0.5 0 0 0 -2.20419 0.586652 0.685965 
205 1.20045 3.53231 3.03398 0.5 0 0 0 0.0678489 -0.333992 0.264399 
206 1.96354 4.32896 3.03559 0.5 0 0 0 -0.110278 -0.374462 0.79572 
207 0.125252 4.09144 3.71369 0.5 0 0 0 -0.808899 -0.464155 0.10916 
208 0.843591 2.50924 3.69924 0.5 0 0 0 0.234166 -2.55703 0.728921 
209 1.51896 3.92171 3.16325 0.5 0 0 0 0.196411 -0.117562 0.84063 
210 1.84193 3.57401 3.51447 0.5 0 0 0 0.186013 -0.797553 0.527508 
211 1.88265 3.75203 2.61168 0.5 0 0 0 0.452319 -0.560301 0.722455 
212 1.26728 4.95011 2.96344 0.5 0 0 0 -0.263374 0.344968 0.888434 
213 2.05997 3.14168 2.58517 0.5 0 0 0 0.926642 -0.952236 0.886784 
214 1.2445 3.27321 3.65914 0.5 0 0 0 0.794289 -0.802979 0.932506 
215 0.723582 3.1322 3.31572 0.5 0 0 0 -0.40528 -0.703707 -0.116968 
216 0.445432 3.18581 3.33118 0.5 0 0 0 -1.0858 -0.462254 -0.477959 
217 2.4775 2.71685 2.75586 0.5 0 0 0 1.39743 -1.2061 0.862043 
218 2.3856 5.03042 3.71336 0.5 0 0 0 -0.964741 1.5391 0.410965 
219 1.09024 2.6149 3.18492 0.5 0 0 0 0.202243 -1.69436 0.472068 
220 2.32371 4.8339 2.95769 0.5 0 0 0 -0.618057 0.361606 0.828805 
221 1.05556 3.48504 3.60298 0.5 0 0 0 0.438447 -0.233094 0.805255 
222 2.43947 3.20194 3.06529 0.5 0 0 0 0.899455 -1.47823 0.585512 
223 1.90844 2.58351 3.33421 0.5 0 0 0 1.00394 -1.39159 0.908067 
224 0.518844 4.9229 3.11834 0.5 0 0 0 -0.680185 1.04935 -0.188434 
225 0.511127 3.84252 3.64451 0.5 0 0 0 -0.152892 0.0961955 0.347045 
226 0.947701 4.03003 2.86601 0.5 0 0 0 -0.664883 0.111379 0.686509 
227 1.10353 3.04117 3.11188 0.5 0 0 0 0.29188 -0.946487 0.135898 
228 0.260915 4.35829 2.60106 0.5 0 0 0 -1.13176 -0.263863 -0.406462 
229 0.262293 4.30495 3.51799 0.5 0 0 0 -0.219814 -0.16607 -0.264815 
230 1.60813 2.9128 3.13403 0.5 0 0 0 0.859944 -1.11713 0.637786 
234 1.25336 3.65657 3.14787 0.5 0 0 0 0.170565 -0.177631 0.462587 
232 2.45704 3.29094 3.07976 0.5 0 0 0 0.789156 -1.45302 0.514953 
233 1.25657 4.7676 3.4016 0.5 0 0 0 0.262829 -0.270119 0.631761 
472 2.51545 4.84304 2.81896 0.5 0 0 0 -0.522621 0.376649 0.860446 
251 1.85861 2.53246 3.78307 0.5 0 0 0 0.796318 -1.97066 0.861907 
452 2.41994 3.93784 3.55703 0.5 0 0 0 -0.618562 -0.767744 -0.227208 
254 1.67058 4.93834 3.76207 0.5 0 0 0 -0.108507 -0.00649983 -0.126816 
197 1.56002 4.63702 2.4755 0.5 0 0 0 0.194486 -0.0431701 0.939222 
235 1.25867 4.88886 4.11647 0.5 0 0 0 -0.0651267 -0.422466 -0.500036 
236 2.01963 3.92687 3.99277 0.5 0 0 0 -1.3675 -0.44966 -0.153224 
237 0.594822 2.54956 3.92612 0.5 0 0 0 0.437815 -2.27664 0.911914 
238 0.923658 4.7717 4.37611 0.5 0 0 0 0.150084 -0.396482 -0.108954 
239 0.871879 3.75292 3.98212 0.5 0 0 0 0.547496 0.0329554 1.33283 
240 2.06139 4.5736 4.57908 0.5 0 0 0 -2.31859 1.31119 0.100656 
241 2.18404 4.38619 4.75142 0.5 0 0 0 -2.57601 0.697015 0.680993 
242 0.0972802 3.19401 4.41599 0.5 0 0 0 0.712096 -0.0226507 0.530368 
243 -0.0210875 2.72653 4.80955 0.5 0 0 0 0.478519 -2.54414 1.8516 
244 0.523833 4.91629 4.8473 0.5 0 0 0 -0.892563 0.136729 1.01535 
245 1.52927 3.07 4.9543 0.5 0 0 0 -1.28628 -1.12746 1.45296 
246 1.24538 3.71929 4.41729 0.5 0 0 0 -0.181745 -0.94208 1.03636 
247 2.42627 3.35711 3.82755 0.5 0 0 0 -0.0792567 -1.80326 -0.263737 
248 1.72736 2.6764 4.86734 0.5 0 0 0 -0.717047 -1.99976 0.514696 
249 1.67259 3.00147 4.12672 0.5 0 0 0 0.268958 -1.74657 0.717862 
250 1.29946 2.62047 3.95289 0.5 0 0 0 0.753724 -2.08434 1.28442 
259 0.587312 2.8217 3.88904 0.5 0 0 0 0.41486 -1.32142 0.940616 
258 0.0372922 2.95954 4.02069 0.5 0 0 0 -0.312622 -0.790851 -0.239208 
253 0.163214 2.67727 3.94064 0.5 0 0 0 -0.222689 -1.89762 0.00969057 
498 2.47241 3.56394 4.29258 0.5 0 0 0 -1.20943 -2.02101 -0.680367 
255 0.213921 3.66474 4.84726 0.5 0 0 0 0.696261 0.260011 1.04156 
256 2.32357 4.09436 4.60624 0.5 0 0 0 -2.25482 -0.685989 -0.152644 
257 1.27313 4.24124 4.86156 0.5 0 0 0 -0.926725 -1.02028 1.44442 
260 4.00548 -0.156985 0.919828 0.5 0 0 0 -0.224132 -2.77554 0.556825 
261 3.19555 2.28939 1.1298 0.5 0 0 0 -0.766281 0.0920792 1.34745 
262 4.78767 2.0216 0.404294 0.5 0 0 0 1.76568 0.43327 -1.08043 
263 4.86349 0.626845 0.989592 0.5 0 0 0 1.13942 -1.77795 0.856599 
264 3.25884 0.915976 0.201989 0.5 0 0 0 -0.773194 0.955013 -0.970801 
265 4.90555 1.41686 1.11291 0.5 0 0 0 1.84987 0.293401 1.42063 
266 4.83436 0.647197 -0.0129343 0.5 0 0 0 0.86785 -0.263232 -3.22899 
267 3.45728 1.79731 0.886208 0.5 0 0 0 -1.61342 -0.356156 0.380721 
268 2.89322 0.522865 0.844907 0.5 0 0 0 -0.153668 -0.397537 1.69461 
269 3.96982 1.81192 0.22405 0.5 0 0 0 -1.04671 -0.483307 -2.25331 
270 3.93633 1.90246 1.01936 0.5 0 0 0 -0.967728 0.532177 1.32243 
293 3.0209 2.402 0.572196 0.5 0 0 0 -0.796758 -0.433159 0.208564 
272 4.42309 1.79277 0.741691 0.5 0 0 0 0.0471649 0.718748 0.202828 
273 4.85214 1.36363 0.800134 0.5 0 0 0 1.45535 -0.322722 -0.105096 
274 2.68345 0.714079 0.82447 0.5 0 0 0 0.23124 -0.0903748 1.49874 
275 2.53788 2.34774 0.0564461 0.5 0 0 0 -0.496796 -1.07392 -2.05812 
276 5.08107 0.0669166 0.787805 0.5 0 0 0 1.14263 -1.66563 0.654506 
294 3.1399 0.0914916 0.349254 0.5 0 0 0 0.150628 -2.31543 -0.195659 
278 3.60827 1.88445 0.935528 0.5 0 0 0 -1.4746 -0.0204892 0.739794 
279 3.71217 0.457465 0.171546 0.5 0 0 0 0.354195 -1.3219 -1.49391 
295 2.73142 1.13214 0.898665 0.5 0 0 0 -0.159652 0.170696 0.868987 
281 3.0564 0.151201 0.970872 0.5 0 0 0 -0.451418 -1.93759 1.7754 
282 3.8744 1.69556 1.09783 0.5 0 0 0 -1.3108 0.0497788 1.41505 
283 3.80613 2.33927 -0.181284 0.5 0 0 0 -1.10119 -0.928739 -3.77633 
284 4.16863 2.09976 0.500957 0.5 0 0 0 -0.298061 0.731236 -0.333594 
285 3.41145 2.33265 0.439946 0.5 0 0 0 -1.11923 -0.145078 -0.370696 
286 3.72183 0.963263 0.427497 0.5 0 0 0 -1.14007 -0.231036 -0.45177 
287 4.34117 1.03841 0.421519 0.5 0 0 0 -0.486931 -1.23544 -1.49505 
288 4.07944 1.6191 1.03376 0.5 0 0 0 -1.10335 0.123641 1.24636 
289 4.36668 1.05293 0.596492 0.5 0 0 0 -0.637161 -1.3241 -0.787526 
290 3.33103 0.992293 0.623106 0.5 0 0 0 -1.22176 0.311953 0.68198 
291 2.90505 1.0038 0.0831374 0.5 0 0 0 -0.432345 1.5279 -1.78159 
297 3.1628 0.422644 1.81526 0.5 0 0 0 -1.29627 -1.55319 0.77713 
298 3.83873 2.08749 2.17162 0.5 0 0 0 -1.14484 -0.1428 1.04439 
299 3.06609 0.732191 2.23274 0.5 0 0 0 -0.806988 -0.563648 1.53063 
323 3.16958 1.7184 1.55879 0.5 0 0 0 -0.674004 -0.158868 1.15614 
301 3.32709 1.70196 2.15388 0.5 0 0 0 -0.5722 0.0774282 1.2787 
302 3.70478 0.970469 1.80799 0.5 0 0 0 -0.872627 0.195382 1.5238 
303 3.80395 0.847812 1.9442 0.5 0 0 0 -0.641841 0.0391925 1.64933 
292 4.33293 1.2853 1.247 0.5 0 0 0 -0.639706 -0.24934 1.7752 
305 4.06196 1.45734 1.37117 0.5 0 0 0 -1.02099 0.152809 2.08156 
306 4.61121 1.24738 1.92466 0.5 0 0 0 0.787654 -0.045266 1.55535 
307 4.02806 0.00290398 2.16168 0.5 0 0 0 -1.98921 -2.04563 -0.125275 
308 4.72506 0.104429 2.27495 0.5 0 0 0 0.0573711 -0.247062 0.016216 
309 3.95474 0.747127 1.92068 0.5 0 0 0 -0.468738 -0.276004 1.65564 
310 4.61075 2.32872 1.97826 0.5 0 0 0 0.484476 -0.142863 0.410056 
311 3.53785 2.25908 2.09172 0.5 0 0 0 -0.893461 0.158251 1.12887 
321 4.85074 -0.022569 2.20582 0.5 0 0 0 0.482384 -0.650844 -0.309896 
313 2.56726 1.50595 2.20377 0.5 0 0 0 0.109491 0.00597831 1.31397 
320 2.69246 1.31431 1.87261 0.5 0 0 0 0.0635736 -0.0689278 0.908769 
315 3.26739 0.871674 1.95479 0.5 0 0 0 -0.804992 -0.121812 1.16741 
316 4.50044 1.00423 2.30411 0.5 0 0 0 0.30776 0.0216566 0.921424 
317 4.42454 1.96834 2.33396 0.5 0 0 0 -0.426079 -0.757565 0.429067 
318 3.62757 0.647101 1.4244 0.5 0 0 0 -1.29708 -0.894218 0.717602 
319 3.17122 2.16817 1.97116 0.5 0 0 0 -0.361796 0.250629 1.24402 
271 4.89445 1.59838 1.20694 0.5 0 0 0 1.99257 1.05745 1.86762 
19 2.58919 1.86325 1.1735 0.5 0 0 0 0.0130801 -0.264312 0.539885 
280 3.82517 0.808422 1.18765 0.5 0 0 0 -1.36635 -0.816549 0.795758 
300 4.20682 2.38482 1.22812 0.5 0 0 0 -0.0437706 0.85013 1.85776 
296 4.29953 0.62087 1.1735 0.5 0 0 0 -0.391193 -1.69165 0.799823 
277 3.47974 2.13585 1.17679 0.5 0 0 0 -1.08778 0.311785 1.56495 
324 4.2005 1.07209 3.60419 0.5 0 0 0 -1.49448 0.447587 -0.557446 
325 3.13526 0.346656 3.34054 0.5 0 0 0 -3.12538 -1.26459 1.3376 
326 3.6674 1.472 3.67458 0.5 0 0 0 -1.9433 -0.405529 -0.0547174 
327 4.15864 1.37272 2.56514 0.5 0 0 0 -0.879734 -0.248782 0.532214 
328 3.56054 0.746071 2.82266 0.5 0 0 0 -1.23031 0.197366 0.970867 
329 4.6547 1.8582 2.76121 0.5 0 0 0 0.287439 -1.60684 -0.422606 
330 3.37921 1.61927 3.26273 0.5 0 0 0 -1.49017 -0.393449 0.612961 
331 4.42014 1.68675 3.2659 0.5 0 0 0 -1.11423 -1.26891 -0.407875 
332 4.72992 0.335376 2.57276 0.5 0 0 0 0.295624 0.868837 -0.287321 
333 2.6687 0.745659 3.45056 0.5 0 0 0 -3.12682 -1.52281 2.19032 
334 4.39709 0.492245 3.23253 0.5 0 0 0 -0.533102 0.856187 -1.84108 
335 5.05886 2.33764 2.86349 0.5 0 0 0 3.04184 -1.00716 -0.903843 
336 4.05519 0.349996 3.25553 0.5 0 0 0 -1.75579 0.276348 -0.965918 
350 2.94785 1.6205 2.671 0.5 0 0 0 -0.331921 -0.23187 1.44435 
338 2.75765 1.04702 3.7024 0.5 0 0 0 -3.05276 -1.44822 1.35405 
339 2.70521 0.895146 2.70661 0.5 0 0 0 -1.0301 -1.15821 2.43861 
340 2.93398 1.02899 3.59673 0.5 0 0 0 -2.76062 -1.00176 1.23853 
341 4.47472 1.9948 3.43292 0.5 0 0 0 -1.11103 -1.62633 0.0347193 
342 4.92134 1.88469 3.61398 0.5 0 0 0 1.08786 -1.75809 0.255084 
343 3.24144 1.5906 2.6238 0.5 0 0 0 -0.676344 -0.187419 1.25355 
349 4.1968 -0.0384085 3.21981 0.5 0 0 0 -1.68687 -1.34802 -1.6106 
345 3.47823 0.0426616 3.05535 0.5 0 0 0 -2.73639 -2.21436 0.525282 
346 3.69694 0.812519 3.53319 0.5 0 0 0 -2.44885 0.196059 0.133085 
347 2.80181 1.66491 2.63693 0.5 0 0 0 -0.102894 -0.190702 1.44764 
348 2.63913 1.65882 2.67643 0.5 0 0 0 0.0402938 -0.42435 1.55994 
352 4.94759 1.25163 3.70679 0.5 0 0 0 1.53043 -0.0804386 -0.46811 
469 4.12804 2.45323 2.60915 0.5 0 0 0 -1.94936 -0.327564 -0.220502 
304 2.73537 0.14858 2.52863 0.5 0 0 0 -1.73137 -2.67704 1.93467 
384 4.55125 0.313803 3.78158 0.5 0 0 0 -1.08602 0.714412 -1.93759 
351 4.81681 0.433178 4.13216 0.5 0 0 0 0.535573 1.28442 -0.255513 
381 3.28515 1.873 4.23842 0.5 0 0 0 -1.69195 -1.05932 -1.04761 
353 3.42786 1.25797 4.13506 0.5 0 0 0 -2.41253 -0.741745 -0.231653 
354 3.93464 1.93868 4.94642 0.5 0 0 0 -0.469356 -0.731158 1.15883 
355 4.89446 2.33384 4.0075 0.5 0 0 0 0.313409 -1.36287 1.33109 
356 4.4518 -0.173157 4.76969 0.5 0 0 0 -1.85994 -2.81267 1.58578 
383 4.13179 0.484746 4.99291 0.5 0 0 0 -2.19933 0.864388 2.56475 
358 5.09289 1.5728 4.75784 0.5 0 0 0 1.28536 -0.321771 1.65893 
359 3.01964 1.92093 4.29427 0.5 0 0 0 -1.64713 -1.29443 -1.07773 
360 4.55823 0.294839 4.19705 0.5 0 0 0 -1.20755 0.680695 -0.31244 
361 5.0107 2.27456 4.16295 0.5 0 0 0 0.81542 -1.71613 1.74496 
362 4.17113 0.254776 4.2464 0.5 0 0 0 -3.31802 0.0156927 -0.205713 
363 3.9113 0.319091 4.53698 0.5 0 0 0 -4.12047 -0.22896 0.557665 
364 2.66473 1.94634 4.90104 0.5 0 0 0 -2.03354 -1.87524 0.775544 
365 3.1697 1.79581 4.59542 0.5 0 0 0 -1.63187 -1.52831 -0.429094 
366 4.61143 0.911567 4.1486 0.5 0 0 0 -0.161779 1.71036 0.501443 
367 3.81677 -0.0602511 3.84489 0.5 0 0 0 -4.38246 -2.21109 0.189223 
368 4.06429 1.84855 4.28442 0.5 0 0 0 -1.15826 -0.718829 -0.0177381 
369 3.4942 1.48242 4.35656 0.5 0 0 0 -1.88364 -0.953649 -0.468781 
370 2.82999 0.443282 4.66007 0.5 0 0 0 -3.54668 -1.08072 0.0899993 
371 4.72583 0.250738 4.64224 0.5 0 0 0 0.354007 0.645372 1.6131 
382 3.88419 0.944613 3.84084 0.5 0 0 0 -2.4541 0.362183 -0.0352691 
373 4.63289 0.300492 3.94053 0.5 0 0 0 -0.776881 0.734401 -1.37528 
374 4.53401 0.486202 4.04811 0.5 0 0 0 -1.13014 1.24202 -0.778768 
375 5.03448 0.010097 4.98313 0.5 0 0 0 3.59471 -1.1871 3.20931 
376 4.10392 1.60789 4.6828 0.5 0 0 0 -0.582518 -0.440847 0.453443 
377 4.01537 2.10371 5.10767 0.5 0 0 0 -0.109903 -0.494931 2.13388 
378 2.91759 1.64263 5.01092 0.5 0 0 0 -1.92862 -2.16826 1.57484 
379 3.53378 0.926494 5.07408 0.5 0 0 0 -2.38333 -0.425519 1.83412 
380 3.06476 2.29047 4.29765 0.5 0 0 0 -1.41921 -1.25234 -1.06823 
385 2.72743 3.16667 0.678625 0.5 0 0 0 -0.259402 0.0375872 0.477854 
386 4.46001 4.72631 0.0499712 0.5 0 0 0 0.670246 0.329341 -0.709572 
387 3.86554 3.94207 0.138871 0.5 0 0 0 0.119303 -0.411042 -0.427994 
388 4.32021 4.0172 1.07919 0.5 0 0 0 -0.817724 -0.172858 -1.10385 
389 3.81849 3.08829 0.794954 0.5 0 0 0 -0.593895 0.0886716 0.755408 
390 3.64731 4.11213 0.128382 0.5 0 0 0 0.0900846 -0.597319 0.0534271 
391 5.05323 4.32999 1.07581 0.5 0 0 0 2.14324 1.08718 -1.29531 
392 4.88878 2.67893 0.295458 0.5 0 0 0 1.32138 0.365163 -0.297513 
393 4.52615 4.58373 0.677721 0.5 0 0 0 -0.0148559 1.27501 -0.991611 
394 2.76375 2.92559 1.08836 0.5 0 0 0 0.0172055 -0.151016 1.30112 
395 4.91111 2.95983 0.998604 0.5 0 0 0 1.35502 -0.497228 1.14155 
396 4.08242 3.07659 0.0175112 0.5 0 0 0 -0.343924 0.450837 -1.52536 
397 5.07977 4.04744 0.825048 0.5 0 0 0 2.38247 -0.0624676 -1.63063 
398 2.92734 4.94157 0.00821817 0.5 0 0 0 -0.477098 2.03751 -1.50092 
399 3.38818 4.92148 0.588322 0.5 0 0 0 0.578034 1.09103 -0.330983 
400 3.33768 4.51274 0.419337 0.5 0 0 0 0.195514 -0.603884 0.275916 
401 3.37374 2.65717 0.0719896 0.5 0 0 0 -0.978816 -0.396985 -1.65032 
402 2.72655 3.11912 0.688007 0.5 0 0 0 -0.262872 0.00999416 0.537512 
403 4.76397 3.22272 0.182961 0.5 0 0 0 0.431376 0.481352 -1.34411 
404 4.20748 2.63552 0.14201 0.5 0 0 0 -0.164166 0.531434 -0.89402 
405 4.05945 4.87616 -0.0238893 0.5 0 0 0 0.282859 0.873247 -0.164248 
406 4.20553 3.58907 1.03062 0.5 0 0 0 -0.88742 -0.743128 -0.290761 
407 2.81353 4.21131 -0.0113314 0.5 0 0 0 -0.346716 -0.76931 -1.25041 
408 4.9935 3.11745 0.424443 0.5 0 0 0 1.24838 -0.0506798 -0.253493 
409 3.77205 3.30856 0.562627 0.5 0 0 0 -0.535932 0.0681086 0.0361957 
410 3.87007 2.62726 0.885774 0.5 0 0 0 -0.53257 0.714128 1.23167 
411 4.18383 2.65307 1.06402 0.5 0 0 0 -0.135387 0.559427 1.46069 
412 3.09159 3.18162 0.446709 0.5 0 0 0 -0.480445 0.0500545 0.0615044 
413 2.9187 3.71694 0.925145 0.5 0 0 0 -0.225709 -0.363141 0.330762 
414 2.70955 4.48431 0.643286 0.5 0 0 0 -0.107206 -0.930286 0.142364 
415 2.6388 4.93667 1.11349 0.5 0 0 0 -1.07919 0.886345 -0.319921 
417 3.0858 3.60769 0.193226 0.5 0 0 0 -0.439153 -0.300428 -0.622332 
418 4.81607 4.17572 1.6567 0.5 0 0 0 0.591405 -0.344378 0.0452541 
419 2.97104 3.77731 2.20128 0.5 0 0 0 0.527166 -1.67746 0.597785 
420 4.87673 3.94973 2.41375 0.5 0 0 0 0.274867 -1.57637 0.677245 
421 4.8751 4.57039 1.80973 0.5 0 0 0 1.01156 1.67479 -0.455597 
422 4.26911 4.54909 1.75393 0.5 0 0 0 0.210624 0.978853 0.159592 
423 3.64883 4.60707 1.39654 0.5 0 0 0 0.361037 0.133714 -1.23184 
424 4.35686 3.80958 1.43822 0.5 0 0 0 -0.72921 -1.16537 0.524538 
425 2.78397 3.15329 1.33965 0.5 0 0 0 0.223679 -0.293641 1.28223 
426 3.24265 4.5535 2.11577 0.5 0 0 0 0.105234 -0.908426 1.66017 
427 3.29534 4.61706 1.65763 0.5 0 0 0 -0.180089 -0.610714 -0.144506 
428 4.92768 4.3107 2.00987 0.5 0 0 0 0.632418 -0.199124 0.0995185 
429 3.19584 4.83428 1.72876 0.5 0 0 0 -0.356616 0.283535 0.170775 
430 2.95764 4.84836 1.32106 0.5 0 0 0 -0.87596 0.354234 -0.984306 
431 3.50765 2.67592 2.37491 0.5 0 0 0 -0.874505 -0.138898 0.589053 
432 3.95776 2.50817 1.48 0.5 0 0 0 -0.674981 0.427682 1.94297 
433 2.74246 4.35531 2.39777 0.5 0 0 0 -0.216762 -1.01735 0.873582 
434 3.13473 4.5078 1.94043 0.5 0 0 0 -0.332034 -1.07924 0.870709 
435 3.61635 4.6595 1.62657 0.5 0 0 0 0.532137 0.0850848 -0.176542 
436 3.34108 3.27577 2.05506 0.5 0 0 0 -0.141776 -0.940362 0.961163 
437 3.80656 3.98331 1.78453 0.5 0 0 0 -0.714616 -1.51624 0.940794 
438 5.00234 3.52831 1.86043 0.5 0 0 0 1.73065 -1.93277 0.236772 
439 4.48504 4.48045 2.45637 0.5 0 0 0 -0.699923 0.100589 1.4469 
440 2.64624 3.87469 2.23009 0.5 0 0 0 0.374714 -1.16793 0.247912 
441 2.92967 4.74914 2.12021 0.5 0 0 0 -0.681673 -0.00188531 1.10789 
442 3.06368 4.58908 1.38181 0.5 0 0 0 -0.702518 -0.753025 -1.05748 
443 3.87393 4.1195 1.96441 0.5 0 0 0 -0.426193 -1.36557 1.44373 
444 2.67807 4.3564 1.89243 0.5 0 0 0 -0.768882 -0.933523 -0.157709 
445 4.42925 3.75366 1.23855 0.5 0 0 0 -0.571473 -1.0345 -0.0131119 
446 4.16136 3.88015 2.29142 0.5 0 0 0 -0.971863 -1.56509 1.40264 
447 3.98414 3.83381 1.7099 0.5 0 0 0 -1.00348 -1.50694 1.02252 
448 4.54614 2.8292 2.22811 0.5 0 0 0 -0.167325 0.272981 -0.265143 
449 3.08114 3.86142 1.29596 0.5 0 0 0 -0.376898 -0.892176 0.015994 
450 3.48301 3.36566 1.39671 0.5 0 0 0 -0.555952 -0.723559 1.08943 
416 4.4394 3.86706 1.2623 0.5 0 0 0 -0.553523 -0.823863 -0.162323 
203 2.54257 2.99444 1.48494 0.5 0 0 0 0.543088 -0.349894 1.11906 
322 2.8968 2.52125 1.8635 0.5 0 0 0 0.201443 -0.0968875 1.34304 
314 4.95153 2.49957 1.43986 0.5 0 0 0 2.18032 0.0170282 0.881082 
479 2.67201 3.66334 3.67497 0.5 0 0 0 -0.203288 -1.64079 -0.627275 
453 4.81672 2.73412 3.2535 0.5 0 0 0 0.831724 0.571475 -0.423169 
454 3.96861 3.31053 2.81272 0.5 0 0 0 -1.0452 -0.0947033 0.106194 
455 2.9786 4.28332 3.66019 0.5 0 0 0 -0.726499 -0.931992 -1.02448 
456 2.78681 4.65171 3.10914 0.5 0 0 0 -0.203218 -0.442473 0.326358 
457 3.04669 4.89391 2.94079 0.5 0 0 0 0.553133 0.687045 0.706062 
458 3.38148 3.15475 2.90913 0.5 0 0 0 -0.53657 -0.877622 0.204815 
459 4.79833 4.06689 2.63941 0.5 0 0 0 -0.128118 -1.05998 1.14752 
460 4.33881 2.93316 3.14829 0.5 0 0 0 -1.28469 1.05581 -0.479643 
461 4.46961 4.44766 2.57146 0.5 0 0 0 -0.804007 -0.0312908 1.5733 
462 4.70144 4.99918 2.54255 0.5 0 0 0 0.45688 4.6025 1.38142 
463 4.41338 2.63817 2.73774 0.5 0 0 0 -1.22616 -0.0023979 -0.778363 
464 3.08229 3.82563 3.12878 0.5 0 0 0 0.299007 -1.73465 -0.110336 
465 3.57021 3.93289 3.56067 0.5 0 0 0 0.454609 -1.22725 -1.19879 
466 4.19208 2.57746 3.01757 0.5 0 0 0 -2.12599 -0.251435 -0.640531 
467 3.47467 4.4369 3.46202 0.5 0 0 0 0.871077 -0.333502 -0.87252 
468 4.83204 2.71881 2.53955 0.5 0 0 0 1.39737 0.238174 -0.966775 
344 4.1894 2.52632 3.41191 0.5 0 0 0 -2.05251 -0.494541 0.00248563 
470 4.4847 2.5291 3.64937 0.5 0 0 0 -1.05988 -0.473933 0.538402 
471 3.84037 4.76542 3.03905 0.5 0 0 0 0.428611 1.218 0.489398 
451 2.79986 3.79809 2.4996 0.5 0 0 0 0.67316 -1.50342 0.668462 
473 2.91846 5.08609 3.74857 0.5 0 0 0 -0.149582 2.67786 0.232572 
474 4.50733 2.85756 3.6255 0.5 0 0 0 -0.710915 1.04258 0.308582 
478 3.98902 2.61315 3.41298 0.5 0 0 0 -2.49936 -0.216007 -0.0580557 
476 4.67836 3.70549 3.01079 0.5 0 0 0 0.0893637 -0.00659612 0.817215 
477 2.80107 4.25512 2.56629 0.5 0 0 0 0.0882449 -1.26939 0.940748 
337 4.00855 2.47712 3.28526 0.5 0 0 0 -2.56716 -0.587891 -0.210866 
475 4.80452 4.05407 3.78608 0.5 0 0 0 0.939246 -0.050497 -0.155893 
480 3.58953 3.80889 4.79313 0.5 0 0 0 1.28074 -1.32207 0.955257 
481 4.13979 3.02608 4.95778 0.5 0 0 0 -0.268018 -1.47019 2.14234 
482 3.77861 3.59844 4.0078 0.5 0 0 0 0.420691 -0.998553 -1.09702 
483 4.4053 4.8875 4.10612 0.5 0 0 0 0.262977 0.500342 -1.75146 
484 3.17257 4.00242 3.9681 0.5 0 0 0 -0.44687 -1.44899 -1.51121 
485 3.66542 3.93623 4.40886 0.5 0 0 0 1.30967 -0.836009 -0.600781 
486 4.72062 4.70312 4.34976 0.5 0 0 0 -0.0982319 -0.899059 -1.36615 
487 3.2799 3.12529 4.27903 0.5 0 0 0 -0.664687 -1.98185 -0.831761 
488 4.67013 3.1766 4.66622 0.5 0 0 0 0.0223338 0.0686271 0.971262 
489 3.35019 4.83711 5.08971 0.5 0 0 0 -0.173237 3.09056 3.98353 
490 3.58041 3.44622 4.24509 0.5 0 0 0 -0.0363179 -1.73961 -0.884354 
491 3.71318 4.11091 4.82948 0.5 0 0 0 2.05153 -0.117139 1.33697 
492 2.66401 3.19064 4.79124 0.5 0 0 0 -1.28709 -2.59105 0.923015 
493 4.51494 3.66925 4.72374 0.5 0 0 0 1.18587 0.523252 0.678209 
494 3.42613 3.64515 5.12502 0.5 0 0 0 0.777776 -2.09056 3.3119 
495 2.6833 4.06724 4.41671 0.5 0 0 0 -1.05383 -0.90842 -1.15866 
496 2.62238 3.80936 4.95756 0.5 0 0 0 -1.37842 -1.77675 1.45777 
497 3.38169 4.37698 3.94441 0.5 0 0 0 0.44671 -0.250724 -1.31612 
357 3.44985 2.4954 4.63855 0.5 0 0 0 -0.880717 -1.29877 0.13507 
499 3.95608 2.50646 4.05608 0.5 0 0 0 -1.53385 -0.749098 0.251146 
500 4.65468 4.93223 4.97399 0.5 0 0 0 -0.72507 -0.119521 1.69276 
501 4.62616 4.81561 4.90394 0.5 0 0 0 -0.283517 -0.293761 1.2927 
502 2.68187 3.97567 4.77886 0.5 0 0 0 -0.998973 -1.1685 0.287559 
503 2.93975 4.25916 4.55901 0.5 0 0 0 -0.375689 -0.128652 -0.685934 
504 3.55114 3.30536 4.29101 0.5 0 0 0 -0.234618 -1.87484 -0.698638 
505 3.69576 4.82259 4.28552 0.5 0 0 0 1.42024 1.77456 -0.194306 
506 4.09435 4.02173 3.97424 0.5 0 0 0 1.82451 0.0293997 -0.947316 
507 4.9127 2.81898 3.94309 0.5 0 0 0 0.48322 0.990056 0.55734 
508 2.87514 3.92811 4.68636 0.5 0 0 0 -0.391805 -1.40773 -0.269406 
509 3.30514 4.7555 4.40391 0.5 0 0 0 0.178874 1.78591 -0.100213 
510 3.08449 4.49512 4.06087 0.5 0 0 0 -0.596042 0.201673 -1.22214 
511 2.64438 3.03166 4.50455 0.5 0 0 0 -1.03001 -2.2083 -0.126206 
512 2.666 2.8248 4.36838 0.5 0 0 0 -0.847061 -1.88599 -0.442516 
513 4.86973 3.02687 4.29851 0.5 0 0 0 0.304352 1.03368 0.591152 
ITEM: TIMESTEP
60060
ITEM: NUMBER OF ATOMS
512
ITEM: BOX BOUNDS ss ss ss
-2.1589663964569298e-02 5.0933846546203574e+00
-1.7364439631764822e-01 5.0865807164741392e+00
-1.8176655292622759e-01 5.1255068607205727e+00
ITEM: ATOMS id x y z width_SPH x_COM y_COM z_COM vx vy vz 
2 0.301062 0.775934 0.24686 0.5 0 0 0 -1.37928 -0.579504 0.0688119 
3 0.259438 1.29101 0.605721 0.5 0 0 0 -2.08437 -0.964659 0.287753 
4 0.78748 1.24764 1.03676 0.5 0 0 0 -0.386228 -0.340104 0.749197 
5 1.73538 1.8934 0.823938 0.5 0 0 0 0.95854 0.352098 0.221133 
6 0.274198 2.07866 0.848531 0.5 0 0 0 -2.11844 0.860422 1.16651 
7 0.546656 1.58453 0.342547 0.5 0 0 0 -0.68867 -0.372075 -0.682089 
8 1.33606 0.225899 0.773363 0.5 0 0 0 0.0500286 -0.685418 1.1841 
9 1.53469 0.986431 0.331379 0.5 0 0 0 0.774059 0.260705 -0.747349 
10 1.11158 1.53603 -0.0685535 0.5 0 0 0 0.983785 -0.388494 -2.84956 
11 1.39605 1.22774 0.796169 0.5 0 0 0 0.782308 0.130032 0.282644 
38 1.08307 2.32881 0.776649 0.5 0 0 0 0.516849 0.421779 0.862946 
41 2.23084 2.37931 1.02289 0.5 0 0 0 0.351366 -0.202258 0.556564 
14 1.26049 2.06321 0.329271 0.5 0 0 0 1.32264 0.117814 -0.380258 
15 1.54694 0.0394763 0.976122 0.5 0 0 0 1.23301 -1.50688 2.12372 
37 0.636906 0.390265 0.353983 0.5 0 0 0 -1.4773 -0.586533 0.379716 
17 1.08139 0.119435 0.519716 0.5 0 0 0 -1.29666 -0.687386 0.538475 
18 1.50826 -0.0164877 0.0458979 0.5 0 0 0 0.0210368 -0.949743 -1.15226 
40 1.99513 0.669574 0.604463 0.5 0 0 0 1.39262 -0.197961 0.904841 
20 0.36982 1.75927 1.04789 0.5 0 0 0 -1.73134 0.350022 1.28565 
21 1.878 1.79469 0.745542 0.5 0 0 0 1.08071 0.226354 -0.00310974 
22 0.552787 2.4223 0.409938 0.5 0 0 0 -0.558246 0.212977 0.657486 
39 0.791151 1.5785 0.8102 0.5 0 0 0 0.140691 0.22759 0.408952 
24 0.00340998 0.598286 0.0816949 0.5 0 0 0 -2.72798 -0.779895 -0.133732 
25 1.95436 0.2606 0.581881 0.5 0 0 0 1.68405 -0.755032 1.36423 
26 1.35581 0.890949 0.584786 0.5 0 0 0 0.399593 0.0193398 -0.00984385 
27 0.864668 1.8141 0.900153 0.5 0 0 0 0.377407 0.670897 0.691818 
28 2.15664 0.959746 0.359459 0.5 0 0 0 0.883553 0.501581 -0.229977 
29 2.42448 1.35996 0.269409 0.5 0 0 0 0.107995 1.01777 -1.19045 
30 1.3992 0.242432 0.884061 0.5 0 0 0 0.488743 -0.82178 1.45702 
31 1.65838 1.51848 0.685685 0.5 0 0 0 1.20238 0.362144 0.0102036 
32 1.30153 2.09592 0.250956 0.5 0 0 0 1.47635 0.00634706 -0.708894 
33 1.46276 1.14326 0.721758 0.5 0 0 0 0.856813 0.0701376 0.199779 
34 0.622255 2.08924 -0.0271234 0.5 0 0 0 -0.447981 -0.575375 -2.02294 
35 1.77116 0.0448084 -0.128818 0.5 0 0 0 1.17616 -0.864635 -2.25458 
36 0.968307 0.88323 0.0786171 0.5 0 0 0 0.0955991 0.0328227 -1.47964 
144 0.0212027 2.45507 0.114572 0.5 0 0 0 -3.16818 -0.780051 -1.09894 
43 1.54524 0.067727 1.95231 0.5 0 0 0 1.54679 -2.05894 2.27934 
44 1.36472 2.35713 1.90941 0.5 0 0 0 0.773308 -0.347976 0.538694 
45 1.3338 1.11988 1.48552 0.5 0 0 0 0.476509 -0.198915 1.55749 
46 1.38771 2.23672 2.32625 0.5 0 0 0 0.773079 -0.849671 1.17322 
47 1.3959 1.26088 1.91896 0.5 0 0 0 -0.0998406 -0.503566 2.36785 
48 1.18006 0.812492 1.47865 0.5 0 0 0 0.16985 -0.426953 1.76228 
49 2.47935 2.34211 1.69817 0.5 0 0 0 0.558031 -0.173279 1.19153 
50 0.89125 0.608881 1.67019 0.5 0 0 0 -1.07941 -0.542185 2.5108 
51 1.96893 0.939587 1.80624 0.5 0 0 0 0.474678 -1.0968 1.64682 
52 0.671608 1.64139 1.3334 0.5 0 0 0 -0.669193 0.0976865 1.61564 
53 2.1247 1.44177 1.71791 0.5 0 0 0 0.456207 0.123607 0.952322 
54 0.390185 0.0429181 2.20343 0.5 0 0 0 -1.5532 -1.25144 0.557954 
55 1.73185 1.84185 1.70753 0.5 0 0 0 0.650527 0.164905 0.906614 
16 2.25736 2.0163 1.1787 0.5 0 0 0 0.457641 -0.071923 0.552916 
57 2.38803 1.07707 1.62868 0.5 0 0 0 0.472627 -0.693353 0.755426 
58 1.78528 0.149193 2.2391 0.5 0 0 0 1.03271 -2.02275 2.71637 
59 1.24236 0.5826 2.37879 0.5 0 0 0 0.26056 -0.272345 3.9214 
60 0.669151 1.69642 1.57452 0.5 0 0 0 -0.979971 -0.221871 2.09609 
61 1.33412 0.300398 1.71432 0.5 0 0 0 0.887247 -1.21204 2.26359 
78 1.05745 1.89882 1.61753 0.5 0 0 0 0.14724 0.000543514 1.16134 
63 2.01583 1.57785 2.03482 0.5 0 0 0 0.30078 -0.0541755 1.40504 
64 0.517036 0.357617 2.37908 0.5 0 0 0 -0.565321 0.530371 2.62103 
65 1.06184 1.77544 2.19873 0.5 0 0 0 -0.468629 -1.4053 2.12136 
66 2.34198 0.861944 2.01783 0.5 0 0 0 0.026504 -1.35148 1.67451 
67 1.10298 0.688532 2.02628 0.5 0 0 0 -0.327944 -0.221872 3.45709 
68 2.05806 1.47707 1.72367 0.5 0 0 0 0.443884 0.165841 1.00094 
69 1.40306 0.742945 2.26942 0.5 0 0 0 -0.0127608 -0.601978 3.56706 
77 0.387395 1.54418 1.42855 0.5 0 0 0 -2.22894 -0.477389 2.42532 
71 0.737606 0.532105 1.43848 0.5 0 0 0 -1.94546 -0.91122 1.66724 
72 1.00639 2.24107 2.44178 0.5 0 0 0 0.00219157 -1.25806 1.46172 
73 2.05738 1.03319 1.69108 0.5 0 0 0 0.568067 -0.882772 1.23015 
74 2.23184 1.01521 2.36173 0.5 0 0 0 -0.38427 -1.45769 2.51909 
75 0.0297708 2.3112 2.22173 0.5 0 0 0 -2.35309 -1.61492 0.705454 
76 0.971335 1.10815 1.45355 0.5 0 0 0 -0.3826 -0.281275 1.81094 
12 1.34529 1.51116 1.24545 0.5 0 0 0 0.683755 0.377332 0.874134 
13 1.86621 1.32627 1.25809 0.5 0 0 0 0.997039 -0.056042 0.662315 
312 2.49224 -0.0785445 1.66922 0.5 0 0 0 -0.146808 -2.94603 1.29967 
42 1.22906 0.726341 1.23555 0.5 0 0 0 0.353158 -0.502418 1.15911 
79 1.43519 2.24237 3.26306 0.5 0 0 0 0.0223936 -2.28936 1.21439 
80 0.722436 0.183723 2.71177 0.5 0 0 0 1.47955 0.523547 2.97283 
81 1.07277 0.414989 2.9058 0.5 0 0 0 1.6268 0.318618 4.42178 
82 1.30862 1.94324 2.75296 0.5 0 0 0 -0.307579 -2.04018 1.91004 
83 1.70365 2.04278 2.87994 0.5 0 0 0 0.281038 -1.52932 1.5193 
84 1.24767 0.840093 3.7174 0.5 0 0 0 1.33463 -3.7797 4.56285 
85 2.02471 1.84019 2.82634 0.5 0 0 0 0.38064 -1.35917 1.64399 
106 1.36418 1.31962 2.61107 0.5 0 0 0 -0.890044 -2.18679 3.25933 
87 0.898792 2.29175 3.34264 0.5 0 0 0 -0.293884 -2.93016 0.78529 
88 1.94612 1.3812 2.97942 0.5 0 0 0 -0.745026 -2.92611 2.85487 
89 1.47552 0.23648 3.78194 0.5 0 0 0 0.219601 1.79092 4.58132 
100 0.580246 2.16471 2.54007 0.5 0 0 0 -0.48654 -1.98831 1.7544 
91 1.72849 1.44583 2.74127 0.5 0 0 0 -0.619521 -2.43812 2.67731 
92 0.12777 2.0969 2.8373 0.5 0 0 0 -1.2946 -2.82376 1.55058 
93 0.715281 0.310071 2.792 0.5 0 0 0 1.35814 0.930445 3.27145 
94 1.45135 1.94301 2.62581 0.5 0 0 0 0.0977452 -1.59541 1.72402 
95 2.18937 2.14759 3.16346 0.5 0 0 0 0.868286 -1.23578 1.36449 
96 0.949791 1.87738 2.59393 0.5 0 0 0 -0.661393 -2.26225 2.27309 
97 1.79656 0.470847 3.60667 0.5 0 0 0 -2.34273 -1.28829 5.2752 
98 0.273039 1.57184 2.88924 0.5 0 0 0 -0.472661 -2.69573 1.99019 
99 2.15148 1.76573 3.33725 0.5 0 0 0 -0.062362 -2.4303 1.94139 
105 0.748304 0.11409 3.1335 0.5 0 0 0 2.42399 0.805895 3.07573 
186 0.405524 2.44494 2.60322 0.5 0 0 0 -0.466362 -1.47823 1.20445 
102 1.84309 1.71236 3.01665 0.5 0 0 0 -0.358364 -2.45647 2.17473 
103 0.42859 1.0381 3.21399 0.5 0 0 0 1.28693 -1.21719 2.32733 
231 1.26226 2.35115 3.50858 0.5 0 0 0 0.16654 -2.64012 0.961331 
62 2.18333 1.76448 2.56415 0.5 0 0 0 0.450554 -0.647147 1.47221 
131 1.85477 1.65839 3.7735 0.5 0 0 0 -0.993886 -4.30603 2.03121 
56 2.44014 0.522579 2.48151 0.5 0 0 0 -0.939968 -1.83361 2.602 
107 1.79924 0.179191 4.53985 0.5 0 0 0 -2.45816 2.41507 -3.09047 
108 1.07474 1.5009 4.4532 0.5 0 0 0 2.22994 -3.92926 -0.410833 
109 1.80421 0.539855 4.27431 0.5 0 0 0 -4.08372 -0.270156 -1.06232 
110 1.90997 0.686716 4.17965 0.5 0 0 0 -4.68689 -2.33696 0.535287 
139 1.01 0.534252 4.84211 0.5 0 0 0 4.18371 -0.55754 -2.80626 
112 1.75817 0.698006 4.66542 0.5 0 0 0 -1.94922 -1.78471 -4.66973 
113 1.92756 1.25305 4.43647 0.5 0 0 0 -2.16248 -4.87593 -0.595468 
114 0.872997 0.925236 4.48012 0.5 0 0 0 4.97039 -2.01787 -2.19319 
115 1.84021 0.570506 4.4682 0.5 0 0 0 -3.72997 -0.563663 -3.3806 
116 0.780056 0.159623 4.3033 0.5 0 0 0 4.86724 0.454728 -1.14697 
117 0.976216 0.936278 4.21247 0.5 0 0 0 4.88957 -3.28011 -0.842663 
138 0.0273678 1.19267 4.38545 0.5 0 0 0 0.0333261 -1.92572 0.36978 
119 0.767837 1.80937 4.39848 0.5 0 0 0 1.5562 -2.82259 0.538751 
120 1.48918 0.684119 4.13282 0.5 0 0 0 0.291239 -2.81549 1.224 
121 1.88097 0.771571 3.94801 0.5 0 0 0 -3.89009 -3.61021 3.38595 
122 0.203653 -0.136028 4.07609 0.5 0 0 0 1.17964 -1.13951 0.140425 
123 1.22008 0.0988013 4.57304 0.5 0 0 0 3.27575 1.89725 -2.95648 
124 0.694221 0.489421 4.10319 0.5 0 0 0 4.98939 -0.112366 -0.715261 
125 1.57983 0.388107 4.1862 0.5 0 0 0 -1.13389 2.13359 0.184394 
126 1.3239 0.547611 4.31048 0.5 0 0 0 3.62908 -0.260681 -2.29483 
127 1.22247 2.04543 4.70511 0.5 0 0 0 0.529145 -2.49875 0.73864 
128 1.13273 0.893323 4.24917 0.5 0 0 0 4.63148 -3.84396 -1.04821 
129 0.157209 1.59083 4.15841 0.5 0 0 0 1.00234 -2.69924 -0.130491 
130 0.546436 0.828481 4.34959 0.5 0 0 0 3.60319 -1.03142 -1.40432 
137 0.139755 2.14504 3.86316 0.5 0 0 0 -0.174303 -3.34827 -0.349422 
132 2.24816 1.87939 3.83284 0.5 0 0 0 -0.36986 -2.65508 1.08223 
133 1.36568 0.564186 4.27385 0.5 0 0 0 2.91108 -0.547882 -1.67095 
134 1.70918 2.16355 4.92569 0.5 0 0 0 -0.345937 -2.30074 0.356004 
135 2.26419 0.167801 4.66814 0.5 0 0 0 -2.70259 -0.457161 -0.978041 
136 1.59585 1.61782 4.25902 0.5 0 0 0 -0.174902 -5.05049 0.59823 
86 1.99544 1.44377 3.89322 0.5 0 0 0 -1.5818 -4.76345 2.016 
252 1.97124 2.33461 4.62375 0.5 0 0 0 -0.380425 -2.50464 -0.187746 
372 2.44557 0.703627 4.33782 0.5 0 0 0 -4.58179 -1.31109 -0.49032 
111 1.47988 2.39443 3.94322 0.5 0 0 0 0.573436 -2.60436 1.12604 
90 1.33534 1.25022 3.83517 0.5 0 0 0 0.0442118 -5.92797 2.69814 
104 1.86758 1.04362 3.82195 0.5 0 0 0 -2.65242 -5.3035 3.62855 
118 2.5096 1.67311 4.55116 0.5 0 0 0 -2.00911 -2.35966 -0.414625 
101 1.63832 0.949609 3.80757 0.5 0 0 0 -1.76198 -5.38811 4.48016 
140 2.46899 2.49535 0.521337 0.5 0 0 0 -0.128919 -0.497126 0.0925405 
141 0.969152 3.25075 0.881212 0.5 0 0 0 -0.687557 -0.0542328 0.763202 
142 1.05819 3.61895 0.280844 0.5 0 0 0 0.0762448 0.567466 -0.305148 
143 0.613291 3.01274 0.597912 0.5 0 0 0 -0.779392 -0.0736871 1.18856 
167 1.34249 2.79902 0.683509 0.5 0 0 0 0.862634 -0.285238 0.459337 
168 1.60813 2.59703 0.915715 0.5 0 0 0 0.694643 -0.0649743 0.373868 
146 1.06775 3.21913 0.367263 0.5 0 0 0 0.565019 -0.40709 0.137541 
147 0.573212 4.49282 0.517004 0.5 0 0 0 1.15793 -0.171601 0.30373 
148 1.97431 3.78988 0.43388 0.5 0 0 0 0.68305 -0.368953 -0.379238 
149 0.683853 3.59681 0.0907911 0.5 0 0 0 -0.320025 1.05827 -0.716982 
150 1.89594 4.42723 0.806371 0.5 0 0 0 -0.262456 0.0303793 0.357106 
151 0.0449957 3.44437 0.106179 0.5 0 0 0 -1.64542 0.617917 -0.0464867 
152 1.35725 3.63101 1.14384 0.5 0 0 0 0.113065 -0.00935065 0.199487 
153 2.20121 4.40131 0.258872 0.5 0 0 0 -0.252422 -0.133621 -0.978007 
154 2.33911 4.58275 0.684233 0.5 0 0 0 -0.385038 -0.355661 0.255402 
155 1.29543 3.739 0.711871 0.5 0 0 0 -0.0563016 0.396037 0.295766 
156 0.448864 4.37762 1.05829 0.5 0 0 0 -0.637553 -0.993299 1.12882 
157 2.28878 2.65211 1.12402 0.5 0 0 0 0.333607 -0.230739 0.723509 
158 1.97601 4.15404 0.97527 0.5 0 0 0 0.404545 -0.540376 0.510202 
159 1.30202 3.80287 0.707774 0.5 0 0 0 -0.132022 0.5163 0.258978 
160 2.25978 2.64393 -0.0732867 0.5 0 0 0 -0.478504 -0.501451 -2.67303 
23 0.962131 2.54199 0.248238 0.5 0 0 0 0.775297 -0.195284 -0.0476458 
162 1.69243 3.28376 0.688211 0.5 0 0 0 1.10817 -0.41202 0.186954 
163 0.0413282 4.44313 0.0101788 0.5 0 0 0 0.227748 -0.443033 -0.609393 
164 2.14712 2.84689 0.191514 0.5 0 0 0 -0.0992087 -0.121554 -1.10246 
165 0.0909546 3.27534 0.313755 0.5 0 0 0 -1.79347 0.168378 0.889036 
166 2.19765 3.29178 0.984013 0.5 0 0 0 0.426654 -0.0728721 0.437585 
169 0.46345 3.13038 2.39827 0.5 0 0 0 -0.761669 0.716238 0.0716855 
170 1.91534 3.15615 2.11444 0.5 0 0 0 0.850032 -0.609245 0.276101 
171 0.0731351 4.12224 2.28628 0.5 0 0 0 -2.32468 -0.638981 -1.31691 
172 1.10385 2.49108 1.83479 0.5 0 0 0 0.113742 -0.0897849 0.287127 
173 1.82174 3.36308 1.88122 0.5 0 0 0 0.624497 -0.353045 -0.192815 
174 1.26914 2.64237 1.45142 0.5 0 0 0 0.152482 0.0686185 0.0522225 
175 1.5165 4.31087 1.98113 0.5 0 0 0 0.608816 -0.492252 -0.249139 
176 1.55214 2.54248 1.97066 0.5 0 0 0 1.07778 -0.388535 0.455813 
177 -0.000859831 2.86161 2.38797 0.5 0 0 0 -2.34373 0.446064 0.184767 
178 1.44946 3.12326 1.43829 0.5 0 0 0 0.262685 -0.115134 -0.044737 
179 2.14586 3.0696 2.45798 0.5 0 0 0 1.21851 -1.04111 0.798676 
180 1.15673 3.75587 1.50516 0.5 0 0 0 -0.81997 -0.0253679 -0.17535 
181 1.90675 4.8254 1.69836 0.5 0 0 0 -0.110064 0.569154 -0.338502 
182 1.13562 4.0265 1.86656 0.5 0 0 0 -0.897767 -0.269054 -0.176392 
183 1.54777 4.578 2.2453 0.5 0 0 0 0.407824 -0.184486 0.382005 
184 0.375314 2.61523 1.7266 0.5 0 0 0 -1.252 0.288705 -0.281896 
185 1.31385 4.74035 2.2815 0.5 0 0 0 -0.397763 0.234676 0.573759 
204 1.32468 2.72488 2.02243 0.5 0 0 0 0.411376 -0.151387 0.337875 
187 1.38995 2.59811 2.25108 0.5 0 0 0 0.729185 -0.475094 0.785659 
188 1.50496 3.99844 2.40064 0.5 0 0 0 0.211209 -0.474672 0.650982 
189 1.72033 3.51607 2.26762 0.5 0 0 0 0.268711 -0.402699 0.325114 
202 0.972529 3.69504 1.79271 0.5 0 0 0 -1.44568 -0.0254421 -0.100589 
191 2.16536 2.9869 2.46313 0.5 0 0 0 1.31931 -1.07886 0.82975 
192 1.889 3.66891 2.05625 0.5 0 0 0 0.648575 -0.477181 -0.120462 
193 0.89135 3.87886 2.43149 0.5 0 0 0 -1.18052 -0.075298 0.529391 
194 0.584986 3.06103 2.1515 0.5 0 0 0 -0.561671 0.719697 -0.131421 
195 1.99793 2.84629 1.96781 0.5 0 0 0 1.27024 -0.681299 0.435251 
196 1.34713 4.40977 1.55938 0.5 0 0 0 -0.112907 0.0288066 -0.882942 
190 1.78496 4.93381 1.1726 0.5 0 0 0 -1.13942 1.85128 -0.304662 
198 0.86472 4.5435 2.00967 0.5 0 0 0 -2.11477 0.135871 -0.143089 
199 1.34387 3.07488 2.36975 0.5 0 0 0 -0.0317939 -0.265253 0.531315 
200 2.34844 5.02928 2.31953 0.5 0 0 0 -0.796919 1.59989 0.324423 
201 0.447628 2.72568 2.13465 0.5 0 0 0 -0.558454 0.0893885 0.113405 
70 0.869077 2.53772 2.15016 0.5 0 0 0 -0.00743946 -0.379527 0.682901 
145 2.0849 2.5666 1.35062 0.5 0 0 0 0.613524 -0.220207 0.593893 
161 0.304216 3.15922 1.21596 0.5 0 0 0 -2.20418 0.586649 0.685964 
205 1.20045 3.53231 3.03398 0.5 0 0 0 0.0678489 -0.333995 0.264399 
206 1.96354 4.32896 3.03559 0.5 0 0 0 -0.110277 -0.374463 0.795716 
207 0.125251 4.09144 3.71369 0.5 0 0 0 -0.808896 -0.464157 0.10916 
208 0.843591 2.50924 3.69924 0.5 0 0 0 0.234165 -2.55702 0.728917 
209 1.51896 3.92171 3.16325 0.5 0 0 0 0.19641 -0.117565 0.840627 
210 1.84193 3.57401 3.51447 0.5 0 0 0 0.186012 -0.797555 0.527506 
211 1.88265 3.75203 2.61168 0.5 0 0 0 0.452317 -0.5603 0.722453 
212 1.26728 4.95011 2.96344 0.5 0 0 0 -0.263374 0.344964 0.888428 
213 2.05997 3.14168 2.58517 0.5 0 0 0 0.926636 -0.952234 0.886783 
214 1.2445 3.27321 3.65914 0.5 0 0 0 0.794286 -0.802982 0.932504 
215 0.723582 3.1322 3.31571 0.5 0 0 0 -0.405279 -0.703708 -0.116967 
216 0.445431 3.1858 3.33118 0.5 0 0 0 -1.0858 -0.462256 -0.477958 
217 2.4775 2.71685 2.75587 0.5 0 0 0 1.39742 -1.2061 0.862044 
218 2.3856 5.03042 3.71336 0.5 0 0 0 -0.964731 1.53909 0.410963 
219 1.09024 2.6149 3.18492 0.5 0 0 0 0.202243 -1.69435 0.472067 
220 2.32371 4.8339 2.95769 0.5 0 0 0 -0.618053 0.361601 0.828801 
221 1.05556 3.48504 3.60298 0.5 0 0 0 0.438446 -0.233098 0.805254 
222 2.43947 3.20194 3.06529 0.5 0 0 0 0.899449 -1.47823 0.585511 
223 1.90844 2.58351 3.33421 0.5 0 0 0 1.00393 -1.39158 0.908066 
224 0.518844 4.9229 3.11834 0.5 0 0 0 -0.680187 1.04935 -0.188435 
225 0.511127 3.84252 3.64451 0.5 0 0 0 -0.152891 0.0961913 0.347045 
226 0.947701 4.03003 2.86601 0.5 0 0 0 -0.664881 0.111376 0.686506 
227 1.10353 3.04117 3.11188 0.5 0 0 0 0.29188 -0.946488 0.1359 
228 0.260915 4.35829 2.60106 0.5 0 0 0 -1.13175 -0.263863 -0.406458 
229 0.262293 4.30495 3.51799 0.5 0 0 0 -0.219813 -0.16607 -0.264814 
230 1.60813 2.9128 3.13403 0.5 0 0 0 0.859941 -1.11713 0.637786 
234 1.25336 3.65657 3.14787 0.5 0 0 0 0.170564 -0.177634 0.462586 
232 2.45704 3.29094 3.07976 0.5 0 0 0 0.789151 -1.45301 0.514953 
233 1.25657 4.7676 3.4016 0.5 0 0 0 0.262827 -0.270121 0.631756 
472 2.51545 4.84304 2.81896 0.5 0 0 0 -0.522619 0.376645 0.860443 
251 1.85861 2.53246 3.78308 0.5 0 0 0 0.796315 -1.97065 0.861903 
452 2.41994 3.93784 3.55703 0.5 0 0 0 -0.618561 -0.767741 -0.227206 
254 1.67058 4.93834 3.76207 0.5 0 0 0 -0.108504 -0.00650395 -0.126817 
197 1.56002 4.63702 2.4755 0.5 0 0 0 0.194487 -0.0431717 0.939217 
235 1.25867 4.88886 4.11647 0.5 0 0 0 -0.0651279 -0.422466 -0.500032 
236 2.01963 3.92687 3.99277 0.5 0 0 0 -1.36749 -0.449661 -0.153225 
237 0.594822 2.54956 3.92612 0.5 0 0 0 0.437815 -2.27663 0.911912 
238 0.923658 4.7717 4.37611 0.5 0 0 0 0.150079 -0.396482 -0.108952 
239 0.871879 3.75292 3.98212 0.5 0 0 0 0.547492 0.0329502 1.33282 
240 2.06139 4.5736 4.57908 0.5 0 0 0 -2.31856 1.31118 0.100653 
241 2.18404 4.38619 4.75142 0.5 0 0 0 -2.57599 0.697011 0.68099 
242 0.0972806 3.19401 4.41599 0.5 0 0 0 0.712098 -0.022652 0.530368 
243 -0.0210873 2.72652 4.80955 0.5 0 0 0 0.47852 -2.54414 1.8516 
244 0.523832 4.91629 4.8473 0.5 0 0 0 -0.89256 0.13673 1.01534 
245 1.52927 3.07 4.9543 0.5 0 0 0 -1.28628 -1.12746 1.45296 
246 1.24538 3.71929 4.41729 0.5 0 0 0 -0.181745 -0.942083 1.03635 
247 2.42627 3.35711 3.82755 0.5 0 0 0 -0.0792566 -1.80326 -0.263736 
248 1.72736 2.6764 4.86734 0.5 0 0 0 -0.717045 -1.99976 0.514694 
249 1.67259 3.00147 4.12672 0.5 0 0 0 0.268956 -1.74657 0.717859 
250 1.29946 2.62047 3.95289 0.5 0 0 0 0.753721 -2.08433 1.28442 
259 0.587313 2.8217 3.88904 0.5 0 0 0 0.414861 -1.32142 0.940615 
258 0.037292 2.95954 4.02069 0.5 0 0 0 -0.31262 -0.790851 -0.239207 
253 0.163214 2.67726 3.94064 0.5 0 0 0 -0.222687 -1.89762 0.00969151 
498 2.47241 3.56394 4.29258 0.5 0 0 0 -1.20943 -2.02101 -0.680365 
255 0.213922 3.66474 4.84726 0.5 0 0 0 0.696257 0.260004 1.04156 
256 2.32357 4.09436 4.60624 0.5 0 0 0 -2.25481 -0.685988 -0.152646 
257 1.27313 4.24124 4.86156 0.5 0 0 0 -0.926723 -1.02028 1.44442 
260 4.00548 -0.156987 0.919828 0.5 0 0 0 -0.224135 -2.77552 0.556825 
261 3.19555 2.28939 1.1298 0.5 0 0 0 -0.766277 0.092079 1.34744 
262 4.78767 2.0216 0.404293 0.5 0 0 0 1.76567 0.433261 -1.08042 
263 4.86349 0.626844 0.989592 0.5 0 0 0 1.13941 -1.77794 0.856593 
264 3.25884 0.915976 0.201988 0.5 0 0 0 -0.77319 0.955009 -0.970796 
265 4.90555 1.41686 1.11291 0.5 0 0 0 1.84986 0.293399 1.42062 
266 4.83436 0.647197 -0.0129359 0.5 0 0 0 0.867838 -0.263221 -3.22895 
267 3.45728 1.79731 0.886208 0.5 0 0 0 -1.61341 -0.356155 0.380716 
268 2.89322 0.522864 0.844908 0.5 0 0 0 -0.153668 -0.397536 1.6946 
269 3.96982 1.81192 0.224048 0.5 0 0 0 -1.04671 -0.483308 -2.2533 
270 3.93633 1.90246 1.01936 0.5 0 0 0 -0.96772 0.532174 1.32243 
293 3.0209 2.402 0.572196 0.5 0 0 0 -0.796753 -0.433158 0.208562 
272 4.42309 1.79277 0.741691 0.5 0 0 0 0.0471656 0.718744 0.202827 
273 4.85214 1.36363 0.800134 0.5 0 0 0 1.45534 -0.322724 -0.105098 
274 2.68345 0.714079 0.824471 0.5 0 0 0 0.231238 -0.0903767 1.49873 
275 2.53788 2.34774 0.0564451 0.5 0 0 0 -0.496792 -1.07392 -2.05811 
276 5.08107 0.0669157 0.787805 0.5 0 0 0 1.14262 -1.66561 0.654502 
294 3.1399 0.0914905 0.349254 0.5 0 0 0 0.150624 -2.31542 -0.195662 
278 3.60827 1.88445 0.935528 0.5 0 0 0 -1.47459 -0.0204898 0.739788 
279 3.71217 0.457464 0.171545 0.5 0 0 0 0.354197 -1.32189 -1.49391 
295 2.73142 1.13214 0.898666 0.5 0 0 0 -0.159651 0.170693 0.868986 
281 3.0564 0.1512 0.970873 0.5 0 0 0 -0.451416 -1.93758 1.77539 
282 3.8744 1.69556 1.09783 0.5 0 0 0 -1.31079 0.0497771 1.41504 
283 3.80612 2.33927 -0.181285 0.5 0 0 0 -1.10119 -0.928741 -3.77633 
284 4.16863 2.09977 0.500957 0.5 0 0 0 -0.298058 0.731232 -0.333591 
285 3.41145 2.33265 0.439946 0.5 0 0 0 -1.11923 -0.145078 -0.370694 
286 3.72183 0.963263 0.427496 0.5 0 0 0 -1.14006 -0.231035 -0.451764 
287 4.34117 1.03841 0.421518 0.5 0 0 0 -0.486925 -1.23543 -1.49505 
288 4.07944 1.6191 1.03376 0.5 0 0 0 -1.10335 0.123638 1.24635 
289 4.36668 1.05293 0.596492 0.5 0 0 0 -0.637156 -1.3241 -0.787522 
290 3.33103 0.992293 0.623106 0.5 0 0 0 -1.22176 0.31195 0.681981 
291 2.90505 1.0038 0.0831365 0.5 0 0 0 -0.432345 1.5279 -1.78158 
297 3.1628 0.422643 1.81526 0.5 0 0 0 -1.29627 -1.55318 0.777131 
298 3.83873 2.08749 2.17162 0.5 0 0 0 -1.14483 -0.1428 1.04439 
299 3.06608 0.732191 2.23274 0.5 0 0 0 -0.806989 -0.563649 1.53063 
323 3.16958 1.7184 1.55879 0.5 0 0 0 -0.674002 -0.158869 1.15614 
301 3.32709 1.70196 2.15388 0.5 0 0 0 -0.572199 0.0774259 1.2787 
302 3.70478 0.970469 1.80799 0.5 0 0 0 -0.872623 0.195381 1.52379 
303 3.80395 0.847812 1.9442 0.5 0 0 0 -0.641839 0.0391919 1.64932 
292 4.33293 1.2853 1.247 0.5 0 0 0 -0.639701 -0.24934 1.7752 
305 4.06196 1.45734 1.37117 0.5 0 0 0 -1.02098 0.152808 2.08155 
306 4.61121 1.24738 1.92466 0.5 0 0 0 0.78765 -0.0452662 1.55534 
307 4.02806 0.00290295 2.16168 0.5 0 0 0 -1.98921 -2.04563 -0.125276 
308 4.72506 0.104429 2.27495 0.5 0 0 0 0.0573689 -0.24706 0.0162153 
309 3.95474 0.747127 1.92069 0.5 0 0 0 -0.468737 -0.276004 1.65563 
310 4.61075 2.32872 1.97826 0.5 0 0 0 0.484473 -0.142863 0.410056 
311 3.53785 2.25908 2.09172 0.5 0 0 0 -0.893458 0.158249 1.12887 
321 4.85074 -0.0225694 2.20582 0.5 0 0 0 0.482382 -0.650841 -0.309896 
313 2.56726 1.50595 2.20377 0.5 0 0 0 0.109488 0.00597548 1.31397 
320 2.69246 1.31431 1.87261 0.5 0 0 0 0.0635716 -0.0689301 0.908771 
315 3.26739 0.871674 1.95479 0.5 0 0 0 -0.804991 -0.121814 1.16741 
316 4.50044 1.00423 2.30411 0.5 0 0 0 0.307756 0.0216567 0.921419 
317 4.42454 1.96834 2.33396 0.5 0 0 0 -0.42608 -0.75756 0.429068 
318 3.62757 0.6471 1.4244 0.5 0 0 0 -1.29707 -0.894218 0.717599 
319 3.17122 2.16817 1.97116 0.5 0 0 0 -0.361797 0.250627 1.24402 
271 4.89445 1.59838 1.20694 0.5 0 0 0 1.99256 1.05744 1.86762 
19 2.58919 1.86325 1.1735 0.5 0 0 0 0.0130806 -0.264312 0.539885 
280 3.82517 0.808422 1.18765 0.5 0 0 0 -1.36634 -0.816547 0.795754 
300 4.20682 2.38482 1.22812 0.5 0 0 0 -0.0437676 0.850123 1.85775 
296 4.29953 0.620869 1.1735 0.5 0 0 0 -0.391189 -1.69164 0.799816 
277 3.47973 2.13585 1.17679 0.5 0 0 0 -1.08777 0.311784 1.56495 
324 4.2005 1.07209 3.60419 0.5 0 0 0 -1.49448 0.447585 -0.557444 
325 3.13526 0.346656 3.34054 0.5 0 0 0 -3.12537 -1.26459 1.3376 
326 3.6674 1.472 3.67458 0.5 0 0 0 -1.9433 -0.405527 -0.054716 
327 4.15864 1.37272 2.56514 0.5 0 0 0 -0.879733 -0.248779 0.532214 
328 3.56054 0.746071 2.82266 0.5 0 0 0 -1.23031 0.197364 0.970865 
329 4.6547 1.8582 2.76121 0.5 0 0 0 0.287436 -1.60683 -0.422602 
330 3.37921 1.61927 3.26274 0.5 0 0 0 -1.49017 -0.393448 0.612961 
331 4.42014 1.68675 3.2659 0.5 0 0 0 -1.11423 -1.26889 -0.407873 
332 4.72992 0.335376 2.57276 0.5 0 0 0 0.295622 0.868835 -0.287318 
333 2.6687 0.745659 3.45056 0.5 0 0 0 -3.12682 -1.52281 2.19031 
334 4.39709 0.492246 3.23253 0.5 0 0 0 -0.533104 0.856186 -1.84107 
335 5.05887 2.33764 2.86349 0.5 0 0 0 3.04184 -1.00716 -0.903837 
336 4.05519 0.349996 3.25553 0.5 0 0 0 -1.75578 0.276348 -0.96591 
350 2.94785 1.6205 2.671 0.5 0 0 0 -0.331923 -0.231872 1.44435 
338 2.75765 1.04702 3.7024 0.5 0 0 0 -3.05276 -1.44822 1.35405 
339 2.70521 0.895145 2.70661 0.5 0 0 0 -1.0301 -1.1582 2.4386 
340 2.93398 1.02899 3.59673 0.5 0 0 0 -2.76061 -1.00176 1.23852 
341 4.47472 1.99479 3.43292 0.5 0 0 0 -1.11103 -1.62632 0.0347187 
342 4.92134 1.88469 3.61398 0.5 0 0 0 1.08785 -1.75807 0.255079 
343 3.24144 1.5906 2.6238 0.5 0 0 0 -0.676343 -0.187421 1.25355 
349 4.1968 -0.0384092 3.21981 0.5 0 0 0 -1.68687 -1.34802 -1.61059 
345 3.47823 0.0426605 3.05535 0.5 0 0 0 -2.73638 -2.21435 0.525284 
346 3.69694 0.812519 3.53319 0.5 0 0 0 -2.44884 0.196054 0.133087 
347 2.80181 1.66491 2.63693 0.5 0 0 0 -0.102897 -0.190703 1.44764 
348 2.63913 1.65882 2.67643 0.5 0 0 0 0.0402902 -0.424351 1.55994 
352 4.94759 1.25163 3.70679 0.5 0 0 0 1.53043 -0.0804354 -0.468111 
469 4.12804 2.45323 2.60915 0.5 0 0 0 -1.94935 -0.327565 -0.220496 
304 2.73537 0.148578 2.52863 0.5 0 0 0 -1.73137 -2.67703 1.93467 
384 4.55124 0.313803 3.78158 0.5 0 0 0 -1.08602 0.71441 -1.93758 
351 4.81681 0.433179 4.13216 0.5 0 0 0 0.535574 1.28441 -0.255502 
381 3.28514 1.873 4.23842 0.5 0 0 0 -1.69194 -1.05931 -1.04761 
353 3.42786 1.25797 4.13506 0.5 0 0 0 -2.41252 -0.741747 -0.231648 
354 3.93464 1.93868 4.94642 0.5 0 0 0 -0.469361 -0.731158 1.15883 
355 4.89446 2.33384 4.0075 0.5 0 0 0 0.313402 -1.36287 1.33108 
356 4.4518 -0.173158 4.76969 0.5 0 0 0 -1.85995 -2.81267 1.58577 
383 4.13179 0.484746 4.99291 0.5 0 0 0 -2.19931 0.864386 2.56473 
358 5.09289 1.5728 4.75784 0.5 0 0 0 1.28535 -0.321772 1.65892 
359 3.01964 1.92093 4.29427 0.5 0 0 0 -1.64712 -1.29443 -1.07773 
360 4.55823 0.29484 4.19705 0.5 0 0 0 -1.20756 0.680692 -0.312429 
361 5.0107 2.27456 4.16295 0.5 0 0 0 0.81541 -1.71612 1.74494 
362 4.17113 0.254776 4.2464 0.5 0 0 0 -3.31802 0.0156863 -0.205707 
363 3.91129 0.319091 4.53698 0.5 0 0 0 -4.12045 -0.228967 0.557659 
364 2.66473 1.94634 4.90104 0.5 0 0 0 -2.03354 -1.87524 0.775543 
365 3.1697 1.79581 4.59542 0.5 0 0 0 -1.63186 -1.5283 -0.42909 
366 4.61143 0.911568 4.1486 0.5 0 0 0 -0.161776 1.71035 0.50145 
367 3.81677 -0.0602522 3.84489 0.5 0 0 0 -4.38245 -2.21109 0.189232 
368 4.06429 1.84855 4.28442 0.5 0 0 0 -1.15826 -0.718825 -0.0177383 
369 3.4942 1.48242 4.35656 0.5 0 0 0 -1.88364 -0.95365 -0.468776 
370 2.82999 0.443281 4.66007 0.5 0 0 0 -3.54666 -1.08072 0.090004 
371 4.72583 0.250738 4.64225 0.5 0 0 0 0.354004 0.645378 1.6131 
382 3.88419 0.944613 3.84084 0.5 0 0 0 -2.45409 0.362177 -0.0352672 
373 4.63289 0.300492 3.94053 0.5 0 0 0 -0.776884 0.734399 -1.37527 
374 4.53401 0.486202 4.04811 0.5 0 0 0 -1.13014 1.24202 -0.778759 
375 5.03448 0.0100964 4.98313 0.5 0 0 0 3.5947 -1.18708 3.20928 
376 4.10392 1.60789 4.6828 0.5 0 0 0 -0.582519 -0.440849 0.453441 
377 4.01537 2.10371 5.10767 0.5 0 0 0 -0.109911 -0.494931 2.13387 
378 2.91759 1.64263 5.01092 0.5 0 0 0 -1.92861 -2.16826 1.57484 
379 3.53378 0.926494 5.07409 0.5 0 0 0 -2.38332 -0.425519 1.83411 
380 3.06476 2.29047 4.29765 0.5 0 0 0 -1.41921 -1.25234 -1.06822 
385 2.72743 3.16667 0.678626 0.5 0 0 0 -0.259401 0.0375863 0.477851 
386 4.46001 4.72631 0.0499708 0.5 0 0 0 0.670241 0.329333 -0.709566 
387 3.86554 3.94207 0.138871 0.5 0 0 0 0.119304 -0.41104 -0.427992 
388 4.3202 4.0172 1.07919 0.5 0 0 0 -0.817719 -0.172855 -1.10385 
389 3.81849 3.08829 0.794954 0.5 0 0 0 -0.593891 0.088669 0.755402 
390 3.64731 4.11213 0.128382 0.5 0 0 0 0.0900844 -0.597316 0.0534272 
391 5.05323 4.32999 1.07581 0.5 0 0 0 2.14323 1.08717 -1.2953 
392 4.88878 2.67893 0.295458 0.5 0 0 0 1.32137 0.365159 -0.297504 
393 4.52615 4.58373 0.67772 0.5 0 0 0 -0.014859 1.275 -0.991597 
394 2.76375 2.92559 1.08837 0.5 0 0 0 0.0172056 -0.151016 1.30111 
395 4.91111 2.95983 0.998605 0.5 0 0 0 1.35502 -0.497226 1.14154 
396 4.08242 3.07659 0.0175104 0.5 0 0 0 -0.343923 0.450833 -1.52535 
397 5.07977 4.04744 0.825047 0.5 0 0 0 2.38246 -0.0624735 -1.63062 
398 2.92734 4.94157 0.00821742 0.5 0 0 0 -0.477102 2.03752 -1.50092 
399 3.38818 4.92148 0.588322 0.5 0 0 0 0.578032 1.09103 -0.33098 
400 3.33768 4.51274 0.419337 0.5 0 0 0 0.195513 -0.603883 0.275917 
401 3.37374 2.65717 0.0719887 0.5 0 0 0 -0.978812 -0.396986 -1.65031 
402 2.72655 3.11912 0.688008 0.5 0 0 0 -0.262871 0.00999323 0.537508 
403 4.76397 3.22272 0.18296 0.5 0 0 0 0.43137 0.481352 -1.3441 
404 4.20748 2.63552 0.14201 0.5 0 0 0 -0.164167 0.53143 -0.89401 
405 4.05945 4.87616 -0.0238894 0.5 0 0 0 0.282852 0.873244 -0.164247 
406 4.20553 3.58907 1.03062 0.5 0 0 0 -0.887413 -0.743124 -0.290762 
407 2.81353 4.21131 -0.011332 0.5 0 0 0 -0.346716 -0.769309 -1.25042 
408 4.9935 3.11745 0.424442 0.5 0 0 0 1.24837 -0.0506792 -0.253486 
409 3.77205 3.30856 0.562627 0.5 0 0 0 -0.535928 0.0681065 0.0361938 
410 3.87007 2.62726 0.885774 0.5 0 0 0 -0.532566 0.714122 1.23166 
411 4.18383 2.65307 1.06402 0.5 0 0 0 -0.135384 0.559421 1.46068 
412 3.09159 3.18162 0.446709 0.5 0 0 0 -0.480443 0.0500522 0.0615029 
413 2.9187 3.71694 0.925145 0.5 0 0 0 -0.225709 -0.363138 0.330761 
414 2.70955 4.48431 0.643286 0.5 0 0 0 -0.107203 -0.930284 0.142364 
415 2.6388 4.93667 1.11349 0.5 0 0 0 -1.07918 0.886345 -0.319917 
417 3.0858 3.60769 0.193226 0.5 0 0 0 -0.439153 -0.300428 -0.622332 
418 4.81607 4.17572 1.6567 0.5 0 0 0 0.591403 -0.34438 0.0452548 
419 2.97104 3.77731 2.20128 0.5 0 0 0 0.527161 -1.67745 0.597783 
420 4.87673 3.94973 2.41375 0.5 0 0 0 0.274863 -1.57637 0.677239 
421 4.8751 4.57039 1.80973 0.5 0 0 0 1.01155 1.67479 -0.455595 
422 4.26911 4.54909 1.75393 0.5 0 0 0 0.210626 0.978853 0.159594 
423 3.64883 4.60708 1.39654 0.5 0 0 0 0.361039 0.133715 -1.23184 
424 4.35686 3.80958 1.43822 0.5 0 0 0 -0.729204 -1.16537 0.524538 
425 2.78397 3.15329 1.33965 0.5 0 0 0 0.223677 -0.29364 1.28222 
426 3.24265 4.5535 2.11577 0.5 0 0 0 0.105235 -0.908424 1.66016 
427 3.29534 4.61706 1.65763 0.5 0 0 0 -0.180089 -0.610713 -0.144505 
428 4.92768 4.3107 2.00987 0.5 0 0 0 0.632413 -0.199127 0.0995196 
429 3.19584 4.83428 1.72876 0.5 0 0 0 -0.356616 0.283536 0.170776 
430 2.95764 4.84836 1.32106 0.5 0 0 0 -0.875957 0.354233 -0.9843 
431 3.50765 2.67592 2.37492 0.5 0 0 0 -0.874502 -0.1389 0.589053 
432 3.95776 2.50817 1.48 0.5 0 0 0 -0.674977 0.427678 1.94296 
433 2.74246 4.35531 2.39777 0.5 0 0 0 -0.216763 -1.01734 0.873578 
434 3.13473 4.50779 1.94043 0.5 0 0 0 -0.332034 -1.07923 0.870706 
435 3.61635 4.6595 1.62657 0.5 0 0 0 0.532138 0.0850858 -0.17654 
436 3.34108 3.27577 2.05506 0.5 0 0 0 -0.141776 -0.940359 0.961159 
437 3.80656 3.98331 1.78453 0.5 0 0 0 -0.714611 -1.51623 0.940793 
438 5.00234 3.52831 1.86043 0.5 0 0 0 1.73065 -1.93276 0.236766 
439 4.48504 4.48045 2.45637 0.5 0 0 0 -0.699922 0.100584 1.44689 
440 2.64624 3.87469 2.23009 0.5 0 0 0 0.37471 -1.16793 0.247912 
441 2.92967 4.74914 2.12021 0.5 0 0 0 -0.681672 -0.00188429 1.10788 
442 3.06368 4.58908 1.38181 0.5 0 0 0 -0.702516 -0.753025 -1.05747 
443 3.87393 4.1195 1.96441 0.5 0 0 0 -0.426189 -1.36557 1.44373 
444 2.67807 4.3564 1.89243 0.5 0 0 0 -0.768882 -0.93352 -0.15771 
445 4.42925 3.75366 1.23855 0.5 0 0 0 -0.571467 -1.0345 -0.0131118 
446 4.16136 3.88015 2.29142 0.5 0 0 0 -0.971856 -1.56508 1.40264 
447 3.98413 3.83381 1.7099 0.5 0 0 0 -1.00347 -1.50693 1.02252 
448 4.54614 2.8292 2.22811 0.5 0 0 0 -0.167326 0.272977 -0.265138 
449 3.08114 3.86142 1.29596 0.5 0 0 0 -0.376898 -0.892173 0.0159947 
450 3.48301 3.36566 1.39671 0.5 0 0 0 -0.555951 -0.723558 1.08943 
416 4.43939 3.86705 1.2623 0.5 0 0 0 -0.553517 -0.823859 -0.162323 
203 2.54257 2.99444 1.48494 0.5 0 0 0 0.543085 -0.349893 1.11906 
322 2.8968 2.52125 1.8635 0.5 0 0 0 0.20144 -0.0968886 1.34303 
314 4.95153 2.49957 1.43986 0.5 0 0 0 2.18031 0.0170283 0.881078 
479 2.67201 3.66334 3.67497 0.5 0 0 0 -0.203287 -1.64078 -0.627271 
453 4.81672 2.73412 3.2535 0.5 0 0 0 0.831726 0.57147 -0.423168 
454 3.96861 3.31053 2.81272 0.5 0 0 0 -1.0452 -0.094704 0.106194 
455 2.9786 4.28332 3.66019 0.5 0 0 0 -0.726496 -0.931989 -1.02447 
456 2.78681 4.65171 3.10914 0.5 0 0 0 -0.203219 -0.442475 0.326357 
457 3.04669 4.89391 2.94079 0.5 0 0 0 0.553133 0.687044 0.706059 
458 3.38148 3.15475 2.90913 0.5 0 0 0 -0.53657 -0.87762 0.204815 
459 4.79833 4.06689 2.63942 0.5 0 0 0 -0.128121 -1.05998 1.14751 
460 4.33881 2.93316 3.14829 0.5 0 0 0 -1.28468 1.0558 -0.479639 
461 4.46961 4.44766 2.57146 0.5 0 0 0 -0.804006 -0.0312948 1.57329 
462 4.70144 4.99919 2.54255 0.5 0 0 0 0.456883 4.60249 1.38141 
463 4.41338 2.63817 2.73774 0.5 0 0 0 -1.22615 -0.00240187 -0.778355 
464 3.08229 3.82563 3.12878 0.5 0 0 0 0.299003 -1.73464 -0.110334 
465 3.57021 3.93289 3.56067 0.5 0 0 0 0.454604 -1.22725 -1.19878 
466 4.19207 2.57746 3.01757 0.5 0 0 0 -2.12598 -0.251439 -0.640524 
467 3.47467 4.4369 3.46201 0.5 0 0 0 0.871072 -0.333502 -0.872514 
468 4.83204 2.71881 2.53955 0.5 0 0 0 1.39737 0.23817 -0.966767 
344 4.1894 2.52632 3.41191 0.5 0 0 0 -2.05251 -0.494544 0.00248768 
470 4.4847 2.5291 3.64937 0.5 0 0 0 -1.05987 -0.473934 0.5384 
471 3.84038 4.76542 3.03905 0.5 0 0 0 0.428609 1.218 0.489394 
451 2.79986 3.79809 2.4996 0.5 0 0 0 0.673155 -1.50342 0.66846 
473 2.91846 5.08609 3.74857 0.5 0 0 0 -0.149577 2.67785 0.232575 
474 4.50733 2.85757 3.6255 0.5 0 0 0 -0.71091 1.04257 0.30858 
478 3.98902 2.61315 3.41298 0.5 0 0 0 -2.49935 -0.216011 -0.0580528 
476 4.67836 3.70549 3.01079 0.5 0 0 0 0.0893628 -0.00659742 0.817209 
477 2.80107 4.25512 2.56629 0.5 0 0 0 0.0882429 -1.26939 0.940744 
337 4.00855 2.47712 3.28526 0.5 0 0 0 -2.56715 -0.587893 -0.210862 
475 4.80452 4.05407 3.78608 0.5 0 0 0 0.939245 -0.0504967 -0.155894 
480 3.58953 3.80889 4.79313 0.5 0 0 0 1.28073 -1.32206 0.955252 
481 4.13979 3.02608 4.95778 0.5 0 0 0 -0.268022 -1.47019 2.14233 
482 3.77861 3.59844 4.0078 0.5 0 0 0 0.420684 -0.998548 -1.09701 
483 4.4053 4.8875 4.10612 0.5 0 0 0 0.262974 0.500341 -1.75146 
484 3.17257 4.00242 3.9681 0.5 0 0 0 -0.446867 -1.44899 -1.5112 
485 3.66542 3.93623 4.40886 0.5 0 0 0 1.30966 -0.836003 -0.600779 
486 4.72062 4.70312 4.34976 0.5 0 0 0 -0.0982267 -0.899054 -1.36615 
487 3.2799 3.12528 4.27903 0.5 0 0 0 -0.664687 -1.98184 -0.831759 
488 4.67013 3.1766 4.66622 0.5 0 0 0 0.0223268 0.068621 0.971254 
489 3.35019 4.83712 5.08972 0.5 0 0 0 -0.173261 3.09053 3.98351 
490 3.58041 3.44622 4.24509 0.5 0 0 0 -0.0363219 -1.73961 -0.88435 
491 3.71318 4.11091 4.82948 0.5 0 0 0 2.05151 -0.117134 1.33697 
492 2.66401 3.19064 4.79124 0.5 0 0 0 -1.28709 -2.59104 0.923013 
493 4.51494 3.66926 4.72374 0.5 0 0 0 1.18586 0.523248 0.678202 
494 3.42613 3.64515 5.12502 0.5 0 0 0 0.777765 -2.09055 3.3119 
495 2.6833 4.06724 4.41671 0.5 0 0 0 -1.05382 -0.908415 -1.15866 
496 2.62238 3.80936 4.95756 0.5 0 0 0 -1.37841 -1.77674 1.45777 
497 3.38169 4.37698 3.94441 0.5 0 0 0 0.446709 -0.250725 -1.31611 
357 3.44985 2.4954 4.63855 0.5 0 0 0 -0.880717 -1.29877 0.13507 
499 3.95608 2.50646 4.05608 0.5 0 0 0 -1.53384 -0.749097 0.251146 
500 4.65468 4.93223 4.97399 0.5 0 0 0 -0.725065 -0.119521 1.69275 
501 4.62616 4.81561 4.90394 0.5 0 0 0 -0.283516 -0.293762 1.29269 
502 2.68187 3.97566 4.77886 0.5 0 0 0 -0.998963 -1.1685 0.287559 
503 2.93975 4.25916 4.55901 0.5 0 0 0 -0.37568 -0.128647 -0.68593 
504 3.55114 3.30536 4.29101 0.5 0 0 0 -0.234621 -1.87484 -0.698635 
505 3.69576 4.8226 4.28552 0.5 0 0 0 1.42023 1.77455 -0.194306 
506 4.09436 4.02173 3.97424 0.5 0 0 0 1.82449 0.0294003 -0.947309 
507 4.9127 2.81898 3.94309 0.5 0 0 0 0.483217 0.99005 0.557331 
508 2.87514 3.92811 4.68636 0.5 0 0 0 -0.391796 -1.40773 -0.269405 
509 3.30514 4.75551 4.40391 0.5 0 0 0 0.17887 1.7859 -0.100211 
510 3.08449 4.49512 4.06087 0.5 0 0 0 -0.596039 0.201673 -1.22213 
511 2.64438 3.03166 4.50455 0.5 0 0 0 -1.03 -2.20829 -0.126208 
512 2.666 2.8248 4.36838 0.5 0 0 0 -0.847057 -1.88598 -0.442516 
513 4.86973 3.02687 4.29851 0.5 0 0 0 0.304346 1.03367 0.591142 
ITEM: TIMESTEP
60061
ITEM: NUMBER OF ATOMS
512
ITEM: BOX BOUNDS ss ss ss
-2.1589663964569298e-02 5.0933846546203574e+00
-1.7364439631764822e-01 5.0865807164741392e+00
-1.8176655292622759e-01 5.1255068607205727e+00
ITEM: ATOMS id x y z width_SPH x_COM y_COM z_COM vx vy vz 
2 0.301062 0.775934 0.24686 0.5 0 0 0 -1.37927 -0.579499 0.0688171 
3 0.259437 1.29101 0.605721 0.5 0 0 0 -2.08436 -0.964655 0.287756 
4 0.78748 1.24764 1.03676 0.5 0 0 0 -0.386226 -0.340103 0.749194 
5 1.73538 1.8934 0.823938 0.5 0 0 0 0.958533 0.352096 0.221135 
6 0.274197 2.07866 0.848532 0.5 0 0 0 -2.11844 0.860421 1.16651 
7 0.546656 1.58453 0.342547 0.5 0 0 0 -0.688667 -0.372072 -0.682084 
8 1.33606 0.225898 0.773364 0.5 0 0 0 0.0500282 -0.685417 1.18409 
9 1.53469 0.986431 0.331379 0.5 0 0 0 0.774054 0.2607 -0.74735 
10 1.11158 1.53603 -0.0685549 0.5 0 0 0 0.983784 -0.388492 -2.84956 
11 1.39605 1.22774 0.796169 0.5 0 0 0 0.782301 0.13003 0.282645 
38 1.08307 2.32881 0.776649 0.5 0 0 0 0.516843 0.421776 0.862944 
41 2.23084 2.37931 1.02289 0.5 0 0 0 0.351364 -0.202258 0.556562 
14 1.26049 2.06321 0.329271 0.5 0 0 0 1.32263 0.117813 -0.380256 
15 1.54694 0.0394756 0.976123 0.5 0 0 0 1.23301 -1.50688 2.12372 
37 0.636905 0.390265 0.353984 0.5 0 0 0 -1.47729 -0.58653 0.37972 
17 1.08139 0.119435 0.519716 0.5 0 0 0 -1.29665 -0.687382 0.538474 
18 1.50826 -0.0164882 0.0458973 0.5 0 0 0 0.0210352 -0.949733 -1.15225 
40 1.99513 0.669574 0.604464 0.5 0 0 0 1.39261 -0.197966 0.904839 
20 0.369819 1.75927 1.04789 0.5 0 0 0 -1.73134 0.350021 1.28564 
21 1.878 1.79469 0.745542 0.5 0 0 0 1.0807 0.226353 -0.00310782 
22 0.552786 2.4223 0.409938 0.5 0 0 0 -0.558245 0.212977 0.657486 
39 0.791151 1.5785 0.8102 0.5 0 0 0 0.140691 0.227589 0.408951 
24 0.00340861 0.598286 0.0816949 0.5 0 0 0 -2.72796 -0.77989 -0.133726 
25 1.95436 0.2606 0.581881 0.5 0 0 0 1.68404 -0.755034 1.36423 
26 1.35581 0.890949 0.584786 0.5 0 0 0 0.399588 0.0193364 -0.00984415 
27 0.864668 1.8141 0.900154 0.5 0 0 0 0.377405 0.670895 0.691816 
28 2.15664 0.959747 0.359459 0.5 0 0 0 0.883548 0.501576 -0.229978 
29 2.42448 1.35996 0.269409 0.5 0 0 0 0.107995 1.01776 -1.19045 
30 1.3992 0.242431 0.884062 0.5 0 0 0 0.488742 -0.821779 1.45702 
31 1.65838 1.51848 0.685685 0.5 0 0 0 1.20237 0.362142 0.0102058 
32 1.30153 2.09592 0.250956 0.5 0 0 0 1.47634 0.00634666 -0.708892 
33 1.46276 1.14326 0.721759 0.5 0 0 0 0.856807 0.0701351 0.199781 
34 0.622255 2.08924 -0.0271244 0.5 0 0 0 -0.447979 -0.575372 -2.02294 
35 1.77116 0.044808 -0.12882 0.5 0 0 0 1.17615 -0.864623 -2.25456 
36 0.968307 0.88323 0.0786164 0.5 0 0 0 0.095601 0.0328215 -1.47963 
144 0.0212011 2.45507 0.114571 0.5 0 0 0 -3.16817 -0.780053 -1.09894 
43 1.54524 0.067726 1.95232 0.5 0 0 0 1.54679 -2.05893 2.27933 
44 1.36472 2.35713 1.90941 0.5 0 0 0 0.773304 -0.347978 0.538696 
45 1.3338 1.11988 1.48552 0.5 0 0 0 0.476509 -0.198916 1.55749 
46 1.38771 2.23672 2.32626 0.5 0 0 0 0.773076 -0.849671 1.17322 
47 1.3959 1.26087 1.91896 0.5 0 0 0 -0.0998391 -0.503566 2.36785 
48 1.18006 0.812492 1.47866 0.5 0 0 0 0.169853 -0.426952 1.76228 
49 2.47935 2.34211 1.69817 0.5 0 0 0 0.558028 -0.17328 1.19153 
50 0.891249 0.60888 1.67019 0.5 0 0 0 -1.07941 -0.542182 2.5108 
51 1.96893 0.939586 1.80624 0.5 0 0 0 0.474675 -1.0968 1.64682 
52 0.671608 1.64139 1.3334 0.5 0 0 0 -0.669189 0.0976853 1.61564 
53 2.1247 1.44177 1.71791 0.5 0 0 0 0.456204 0.123605 0.952324 
54 0.390184 0.0429174 2.20343 0.5 0 0 0 -1.5532 -1.25144 0.557963 
55 1.73185 1.84185 1.70753 0.5 0 0 0 0.650523 0.164901 0.906616 
16 2.25736 2.0163 1.1787 0.5 0 0 0 0.457638 -0.0719239 0.552916 
57 2.38803 1.07707 1.62868 0.5 0 0 0 0.472624 -0.693354 0.755427 
58 1.78528 0.149192 2.23911 0.5 0 0 0 1.03271 -2.02274 2.71636 
59 1.24236 0.5826 2.37879 0.5 0 0 0 0.260568 -0.27234 3.92139 
60 0.66915 1.69642 1.57452 0.5 0 0 0 -0.979967 -0.221873 2.09609 
61 1.33412 0.300398 1.71432 0.5 0 0 0 0.887249 -1.21203 2.26359 
78 1.05745 1.89882 1.61753 0.5 0 0 0 0.14724 0.000541796 1.16134 
63 2.01583 1.57785 2.03482 0.5 0 0 0 0.300778 -0.0541778 1.40504 
64 0.517036 0.357617 2.37908 0.5 0 0 0 -0.565315 0.530374 2.62104 
65 1.06184 1.77544 2.19873 0.5 0 0 0 -0.468628 -1.40529 2.12135 
66 2.34198 0.861943 2.01783 0.5 0 0 0 0.0265016 -1.35148 1.67451 
67 1.10298 0.688532 2.02628 0.5 0 0 0 -0.327936 -0.221868 3.45709 
68 2.05806 1.47707 1.72367 0.5 0 0 0 0.44388 0.165838 1.00094 
69 1.40306 0.742944 2.26943 0.5 0 0 0 -0.012755 -0.601973 3.56705 
77 0.387394 1.54418 1.42855 0.5 0 0 0 -2.22894 -0.47739 2.42531 
71 0.737605 0.532104 1.43848 0.5 0 0 0 -1.94546 -0.911218 1.66724 
72 1.00639 2.24107 2.44178 0.5 0 0 0 0.00219045 -1.25806 1.46172 
73 2.05738 1.03318 1.69108 0.5 0 0 0 0.568063 -0.882772 1.23015 
74 2.23184 1.01521 2.36173 0.5 0 0 0 -0.38427 -1.45768 2.51909 
75 0.0297697 2.3112 2.22173 0.5 0 0 0 -2.35308 -1.61492 0.705453 
76 0.971335 1.10815 1.45355 0.5 0 0 0 -0.382597 -0.281274 1.81094 
12 1.34529 1.51116 1.24545 0.5 0 0 0 0.683751 0.37733 0.874134 
13 1.86621 1.32627 1.25809 0.5 0 0 0 0.997033 -0.0560443 0.662317 
312 2.49224 -0.0785459 1.66922 0.5 0 0 0 -0.146806 -2.94601 1.29967 
42 1.22906 0.726341 1.23555 0.5 0 0 0 0.353158 -0.502418 1.15911 
79 1.43519 2.24237 3.26306 0.5 0 0 0 0.0223935 -2.28935 1.21439 
80 0.722437 0.183724 2.71177 0.5 0 0 0 1.47955 0.523545 2.97283 
81 1.07277 0.414989 2.9058 0.5 0 0 0 1.6268 0.318616 4.42177 
82 1.30862 1.94324 2.75296 0.5 0 0 0 -0.307579 -2.04018 1.91003 
83 1.70365 2.04278 2.87994 0.5 0 0 0 0.281037 -1.52931 1.51929 
84 1.24767 0.840092 3.7174 0.5 0 0 0 1.33463 -3.77967 4.56282 
85 2.02471 1.84019 2.82634 0.5 0 0 0 0.380638 -1.35917 1.64399 
106 1.36418 1.31962 2.61107 0.5 0 0 0 -0.890038 -2.18678 3.25931 
87 0.898792 2.29175 3.34264 0.5 0 0 0 -0.293883 -2.93015 0.785287 
88 1.94612 1.3812 2.97942 0.5 0 0 0 -0.745025 -2.9261 2.85486 
89 1.47552 0.23648 3.78194 0.5 0 0 0 0.219597 1.79092 4.58129 
100 0.580246 2.16471 2.54007 0.5 0 0 0 -0.486538 -1.9883 1.75439 
91 1.72849 1.44583 2.74128 0.5 0 0 0 -0.619519 -2.43811 2.67731 
92 0.127769 2.0969 2.8373 0.5 0 0 0 -1.29459 -2.82375 1.55057 
93 0.715282 0.310071 2.792 0.5 0 0 0 1.35814 0.930442 3.27145 
94 1.45135 1.94301 2.62581 0.5 0 0 0 0.0977446 -1.59541 1.72402 
95 2.18938 2.14758 3.16346 0.5 0 0 0 0.868281 -1.23577 1.36449 
96 0.94979 1.87738 2.59393 0.5 0 0 0 -0.661392 -2.26224 2.27309 
97 1.79655 0.470847 3.60667 0.5 0 0 0 -2.34272 -1.28827 5.27517 
98 0.273038 1.57184 2.88924 0.5 0 0 0 -0.472654 -2.69571 1.99018 
99 2.15148 1.76573 3.33725 0.5 0 0 0 -0.0623638 -2.43029 1.94138 
105 0.748305 0.114091 3.1335 0.5 0 0 0 2.42398 0.805888 3.07573 
186 0.405524 2.44494 2.60322 0.5 0 0 0 -0.466358 -1.47823 1.20444 
102 1.84309 1.71236 3.01666 0.5 0 0 0 -0.358364 -2.45646 2.17472 
103 0.428591 1.0381 3.21399 0.5 0 0 0 1.28693 -1.21718 2.32733 
231 1.26226 2.35115 3.50858 0.5 0 0 0 0.166539 -2.64011 0.961326 
62 2.18333 1.76448 2.56415 0.5 0 0 0 0.45055 -0.647148 1.47221 
131 1.85477 1.65839 3.7735 0.5 0 0 0 -0.993884 -4.30602 2.03121 
56 2.44014 0.522578 2.48151 0.5 0 0 0 -0.939966 -1.8336 2.60199 
107 1.79924 0.179192 4.53985 0.5 0 0 0 -2.45813 2.41506 -3.09045 
108 1.07474 1.5009 4.4532 0.5 0 0 0 2.22992 -3.92925 -0.410832 
109 1.80421 0.539855 4.27431 0.5 0 0 0 -4.08365 -0.270161 -1.0623 
110 1.90997 0.686715 4.17965 0.5 0 0 0 -4.68684 -2.33695 0.535288 
139 1.01 0.534252 4.84211 0.5 0 0 0 4.18367 -0.557547 -2.80626 
112 1.75816 0.698005 4.66542 0.5 0 0 0 -1.94919 -1.78471 -4.66971 
113 1.92756 1.25304 4.43647 0.5 0 0 0 -2.16246 -4.87592 -0.595467 
114 0.873 0.925235 4.48012 0.5 0 0 0 4.97035 -2.01787 -2.19319 
115 1.84021 0.570506 4.4682 0.5 0 0 0 -3.72992 -0.563669 -3.38057 
116 0.780058 0.159623 4.3033 0.5 0 0 0 4.8672 0.454721 -1.14697 
117 0.976218 0.936276 4.21247 0.5 0 0 0 4.88953 -3.28011 -0.842655 
138 0.0273678 1.19267 4.38545 0.5 0 0 0 0.0333258 -1.92574 0.369793 
119 0.767837 1.80937 4.39848 0.5 0 0 0 1.55619 -2.82259 0.53875 
120 1.48918 0.684118 4.13282 0.5 0 0 0 0.29124 -2.81546 1.22399 
121 1.88097 0.771569 3.94801 0.5 0 0 0 -3.89005 -3.61019 3.38593 
122 0.203654 -0.136029 4.07609 0.5 0 0 0 1.17964 -1.1395 0.140444 
123 1.22008 0.0988023 4.57303 0.5 0 0 0 3.27571 1.89724 -2.95646 
124 0.694224 0.489421 4.10319 0.5 0 0 0 4.98934 -0.112372 -0.715251 
125 1.57983 0.388108 4.1862 0.5 0 0 0 -1.13386 2.13356 0.184401 
126 1.3239 0.547611 4.31048 0.5 0 0 0 3.62902 -0.260688 -2.29479 
127 1.22247 2.04543 4.70511 0.5 0 0 0 0.529138 -2.49874 0.73864 
128 1.13274 0.893321 4.24917 0.5 0 0 0 4.63143 -3.84395 -1.0482 
129 0.157209 1.59083 4.15841 0.5 0 0 0 1.00235 -2.69924 -0.130487 
130 0.546438 0.828481 4.34959 0.5 0 0 0 3.60315 -1.03142 -1.40432 
137 0.139754 2.14504 3.86316 0.5 0 0 0 -0.174296 -3.34826 -0.349418 
132 2.24816 1.87939 3.83284 0.5 0 0 0 -0.369861 -2.65508 1.08223 
133 1.36568 0.564186 4.27385 0.5 0 0 0 2.91103 -0.547886 -1.67092 
134 1.70918 2.16355 4.92569 0.5 0 0 0 -0.345935 -2.30073 0.356005 
135 2.26418 0.167801 4.66814 0.5 0 0 0 -2.70256 -0.457168 -0.978027 
136 1.59585 1.61782 4.25902 0.5 0 0 0 -0.174899 -5.05048 0.598227 
86 1.99544 1.44377 3.89322 0.5 0 0 0 -1.58179 -4.76345 2.01599 
252 1.97124 2.3346 4.62375 0.5 0 0 0 -0.380421 -2.50464 -0.187747 
372 2.44557 0.703627 4.33782 0.5 0 0 0 -4.58176 -1.31109 -0.490313 
111 1.47988 2.39443 3.94322 0.5 0 0 0 0.573435 -2.60435 1.12603 
90 1.33534 1.25022 3.83517 0.5 0 0 0 0.0442159 -5.92795 2.69812 
104 1.86758 1.04362 3.82195 0.5 0 0 0 -2.6524 -5.30348 3.62853 
118 2.5096 1.67311 4.55116 0.5 0 0 0 -2.0091 -2.35966 -0.414623 
101 1.63831 0.949606 3.80757 0.5 0 0 0 -1.76196 -5.38808 4.48013 
140 2.46899 2.49535 0.521337 0.5 0 0 0 -0.128918 -0.497124 0.0925406 
141 0.969152 3.25075 0.881212 0.5 0 0 0 -0.68756 -0.0542336 0.763201 
142 1.05819 3.61895 0.280844 0.5 0 0 0 0.0762444 0.567462 -0.30515 
143 0.61329 3.01274 0.597913 0.5 0 0 0 -0.779394 -0.0736877 1.18855 
167 1.34249 2.79902 0.683509 0.5 0 0 0 0.862629 -0.285237 0.459336 
168 1.60813 2.59703 0.915715 0.5 0 0 0 0.694638 -0.0649746 0.373868 
146 1.06775 3.21913 0.367263 0.5 0 0 0 0.565015 -0.407091 0.137538 
147 0.573213 4.49282 0.517004 0.5 0 0 0 1.15793 -0.171593 0.303727 
148 1.97431 3.78988 0.43388 0.5 0 0 0 0.683048 -0.368953 -0.379239 
149 0.683853 3.59681 0.0907908 0.5 0 0 0 -0.320022 1.05826 -0.716984 
150 1.89594 4.42723 0.806371 0.5 0 0 0 -0.262454 0.0303782 0.357107 
151 0.0449948 3.44437 0.106179 0.5 0 0 0 -1.6454 0.617909 -0.0464827 
152 1.35725 3.63101 1.14384 0.5 0 0 0 0.113065 -0.00935144 0.19949 
153 2.20121 4.40131 0.258871 0.5 0 0 0 -0.25242 -0.133621 -0.97801 
154 2.33911 4.58275 0.684233 0.5 0 0 0 -0.385034 -0.355661 0.255402 
155 1.29543 3.739 0.711871 0.5 0 0 0 -0.0563013 0.396035 0.295767 
156 0.448864 4.37762 1.05829 0.5 0 0 0 -0.637558 -0.993292 1.12881 
157 2.28878 2.65211 1.12402 0.5 0 0 0 0.333605 -0.230739 0.723507 
158 1.97601 4.15404 0.97527 0.5 0 0 0 0.404544 -0.540375 0.510203 
159 1.30202 3.80287 0.707774 0.5 0 0 0 -0.132022 0.516297 0.258979 
160 2.25978 2.64393 -0.0732881 0.5 0 0 0 -0.478502 -0.501447 -2.67303 
23 0.962131 2.54199 0.248238 0.5 0 0 0 0.775292 -0.195283 -0.0476464 
162 1.69243 3.28376 0.688211 0.5 0 0 0 1.10817 -0.412019 0.186953 
163 0.0413283 4.44313 0.0101785 0.5 0 0 0 0.227746 -0.443024 -0.609392 
164 2.14712 2.84689 0.191514 0.5 0 0 0 -0.0992079 -0.121552 -1.10245 
165 0.0909537 3.27534 0.313756 0.5 0 0 0 -1.79346 0.168372 0.889038 
166 2.19765 3.29178 0.984013 0.5 0 0 0 0.426651 -0.0728709 0.437585 
169 0.46345 3.13038 2.39827 0.5 0 0 0 -0.761664 0.716231 0.0716878 
170 1.91534 3.15615 2.11444 0.5 0 0 0 0.850027 -0.609243 0.276103 
171 0.073134 4.12224 2.28628 0.5 0 0 0 -2.32468 -0.63898 -1.3169 
172 1.10385 2.49108 1.83479 0.5 0 0 0 0.113738 -0.0897871 0.287129 
173 1.82174 3.36308 1.88122 0.5 0 0 0 0.624494 -0.353043 -0.192813 
174 1.26914 2.64237 1.45142 0.5 0 0 0 0.152478 0.0686163 0.0522252 
175 1.5165 4.31087 1.98113 0.5 0 0 0 0.608817 -0.492251 -0.249138 
176 1.55214 2.54248 1.97066 0.5 0 0 0 1.07777 -0.388537 0.455816 
177 -0.000861003 2.86161 2.38797 0.5 0 0 0 -2.34373 0.446061 0.184769 
178 1.44946 3.12326 1.43829 0.5 0 0 0 0.262682 -0.115134 -0.0447338 
179 2.14586 3.0696 2.45798 0.5 0 0 0 1.21851 -1.0411 0.798676 
180 1.15673 3.75587 1.50516 0.5 0 0 0 -0.819967 -0.025369 -0.175346 
181 1.90675 4.8254 1.69836 0.5 0 0 0 -0.110063 0.569153 -0.338499 
182 1.13562 4.0265 1.86656 0.5 0 0 0 -0.897763 -0.269054 -0.176389 
183 1.54777 4.578 2.2453 0.5 0 0 0 0.407825 -0.184487 0.382002 
184 0.375313 2.61523 1.7266 0.5 0 0 0 -1.252 0.288701 -0.281892 
185 1.31385 4.74035 2.2815 0.5 0 0 0 -0.397761 0.234674 0.573756 
204 1.32468 2.72488 2.02243 0.5 0 0 0 0.411372 -0.151389 0.337877 
187 1.38995 2.59811 2.25108 0.5 0 0 0 0.729181 -0.475095 0.785661 
188 1.50496 3.99844 2.40064 0.5 0 0 0 0.211208 -0.474672 0.650979 
189 1.72033 3.51607 2.26762 0.5 0 0 0 0.268709 -0.402698 0.325114 
202 0.972528 3.69504 1.79271 0.5 0 0 0 -1.44568 -0.0254438 -0.100586 
191 2.16536 2.9869 2.46313 0.5 0 0 0 1.3193 -1.07886 0.829751 
192 1.889 3.66891 2.05625 0.5 0 0 0 0.648571 -0.477178 -0.120461 
193 0.89135 3.87886 2.43149 0.5 0 0 0 -1.18051 -0.0752997 0.52939 
194 0.584986 3.06103 2.1515 0.5 0 0 0 -0.561668 0.71969 -0.131418 
195 1.99793 2.84629 1.96781 0.5 0 0 0 1.27023 -0.681297 0.435253 
196 1.34713 4.40977 1.55938 0.5 0 0 0 -0.112904 0.0288065 -0.882936 
190 1.78496 4.93381 1.1726 0.5 0 0 0 -1.13941 1.85128 -0.304662 
198 0.864719 4.5435 2.00967 0.5 0 0 0 -2.11476 0.135872 -0.143089 
199 1.34387 3.07488 2.36975 0.5 0 0 0 -0.031795 -0.265254 0.531316 
200 2.34844 5.02929 2.31953 0.5 0 0 0 -0.796915 1.59989 0.324419 
201 0.447628 2.72568 2.13465 0.5 0 0 0 -0.558449 0.0893848 0.113407 
70 0.869077 2.53772 2.15016 0.5 0 0 0 -0.00744074 -0.379527 0.682901 
145 2.08491 2.5666 1.35062 0.5 0 0 0 0.61352 -0.220207 0.593893 
161 0.304215 3.15922 1.21596 0.5 0 0 0 -2.20417 0.586645 0.685962 
205 1.20045 3.53231 3.03398 0.5 0 0 0 0.0678489 -0.333998 0.264399 
206 1.96354 4.32896 3.03559 0.5 0 0 0 -0.110276 -0.374464 0.795713 
207 0.125251 4.09144 3.71369 0.5 0 0 0 -0.808894 -0.464158 0.10916 
208 0.843591 2.50924 3.69924 0.5 0 0 0 0.234165 -2.55701 0.728913 
209 1.51896 3.92171 3.16325 0.5 0 0 0 0.19641 -0.117567 0.840623 
210 1.84193 3.57401 3.51447 0.5 0 0 0 0.186012 -0.797556 0.527504 
211 1.88265 3.75203 2.61168 0.5 0 0 0 0.452314 -0.560299 0.72245 
212 1.26728 4.95011 2.96344 0.5 0 0 0 -0.263374 0.344961 0.888422 
213 2.05997 3.14168 2.58517 0.5 0 0 0 0.926631 -0.952233 0.886782 
214 1.2445 3.27321 3.65914 0.5 0 0 0 0.794283 -0.802985 0.932502 
215 0.723582 3.1322 3.31571 0.5 0 0 0 -0.405277 -0.70371 -0.116966 
216 0.44543 3.1858 3.33118 0.5 0 0 0 -1.08579 -0.462258 -0.477957 
217 2.4775 2.71685 2.75587 0.5 0 0 0 1.3974 -1.2061 0.862044 
218 2.3856 5.03042 3.71336 0.5 0 0 0 -0.964721 1.53908 0.410961 
219 1.09024 2.6149 3.18493 0.5 0 0 0 0.202243 -1.69435 0.472066 
220 2.32371 4.8339 2.95769 0.5 0 0 0 -0.618049 0.361596 0.828797 
221 1.05556 3.48504 3.60298 0.5 0 0 0 0.438445 -0.233102 0.805253 
222 2.43947 3.20194 3.06529 0.5 0 0 0 0.899442 -1.47823 0.585511 
223 1.90844 2.58351 3.33421 0.5 0 0 0 1.00393 -1.39158 0.908065 
224 0.518843 4.9229 3.11834 0.5 0 0 0 -0.680188 1.04935 -0.188436 
225 0.511127 3.84252 3.64451 0.5 0 0 0 -0.152889 0.0961871 0.347045 
226 0.947701 4.03003 2.86601 0.5 0 0 0 -0.664879 0.111374 0.686503 
227 1.10353 3.04117 3.11188 0.5 0 0 0 0.291879 -0.946489 0.135901 
228 0.260914 4.35829 2.60106 0.5 0 0 0 -1.13175 -0.263862 -0.406454 
229 0.262293 4.30495 3.51799 0.5 0 0 0 -0.219812 -0.166071 -0.264814 
230 1.60813 2.9128 3.13403 0.5 0 0 0 0.859938 -1.11713 0.637786 
234 1.25336 3.65657 3.14787 0.5 0 0 0 0.170564 -0.177638 0.462585 
232 2.45704 3.29094 3.07976 0.5 0 0 0 0.789145 -1.45301 0.514952 
233 1.25657 4.7676 3.4016 0.5 0 0 0 0.262824 -0.270124 0.631752 
472 2.51545 4.84304 2.81896 0.5 0 0 0 -0.522617 0.376641 0.860439 
251 1.85861 2.53246 3.78308 0.5 0 0 0 0.796312 -1.97065 0.861898 
452 2.41994 3.93784 3.55703 0.5 0 0 0 -0.618559 -0.767739 -0.227205 
254 1.67058 4.93834 3.76207 0.5 0 0 0 -0.108501 -0.00650808 -0.126818 
197 1.56002 4.63702 2.47551 0.5 0 0 0 0.194487 -0.0431734 0.939213 
235 1.25867 4.88886 4.11647 0.5 0 0 0 -0.0651291 -0.422467 -0.500029 
236 2.01963 3.92687 3.99277 0.5 0 0 0 -1.36749 -0.449662 -0.153225 
237 0.594823 2.54956 3.92612 0.5 0 0 0 0.437815 -2.27662 0.91191 
238 0.923658 4.7717 4.37611 0.5 0 0 0 0.150073 -0.396481 -0.10895 
239 0.871879 3.75292 3.98212 0.5 0 0 0 0.547489 0.0329451 1.33282 
240 2.06139 4.5736 4.57908 0.5 0 0 0 -2.31854 1.31117 0.10065 
241 2.18404 4.38619 4.75142 0.5 0 0 0 -2.57597 0.697006 0.680987 
242 0.0972809 3.19401 4.41599 0.5 0 0 0 0.7121 -0.0226533 0.530367 
243 -0.021087 2.72652 4.80955 0.5 0 0 0 0.47852 -2.54414 1.85159 
244 0.523832 4.91629 4.8473 0.5 0 0 0 -0.892557 0.13673 1.01533 
245 1.52927 3.07 4.9543 0.5 0 0 0 -1.28628 -1.12746 1.45295 
246 1.24538 3.71929 4.41729 0.5 0 0 0 -0.181745 -0.942085 1.03635 
247 2.42627 3.35711 3.82755 0.5 0 0 0 -0.0792566 -1.80325 -0.263735 
248 1.72736 2.6764 4.86734 0.5 0 0 0 -0.717043 -1.99976 0.514692 
249 1.67259 3.00147 4.12672 0.5 0 0 0 0.268955 -1.74657 0.717855 
250 1.29946 2.62047 3.95289 0.5 0 0 0 0.753718 -2.08432 1.28441 
259 0.587313 2.8217 3.88904 0.5 0 0 0 0.414863 -1.32141 0.940614 
258 0.0372919 2.95954 4.02069 0.5 0 0 0 -0.312618 -0.79085 -0.239206 
253 0.163214 2.67726 3.94064 0.5 0 0 0 -0.222684 -1.89762 0.00969244 
498 2.47241 3.56394 4.29258 0.5 0 0 0 -1.20942 -2.021 -0.680362 
255 0.213922 3.66474 4.84726 0.5 0 0 0 0.696254 0.259997 1.04155 
256 2.32356 4.09436 4.60624 0.5 0 0 0 -2.25479 -0.685987 -0.152647 
257 1.27312 4.24124 4.86156 0.5 0 0 0 -0.926721 -1.02028 1.44442 
260 4.00548 -0.156988 0.919829 0.5 0 0 0 -0.224138 -2.7755 0.556825 
261 3.19555 2.28939 1.1298 0.5 0 0 0 -0.766274 0.0920788 1.34744 
262 4.78767 2.0216 0.404293 0.5 0 0 0 1.76566 0.433253 -1.08042 
263 4.86349 0.626843 0.989593 0.5 0 0 0 1.1394 -1.77793 0.856588 
264 3.25883 0.915977 0.201988 0.5 0 0 0 -0.773187 0.955004 -0.970791 
265 4.90555 1.41686 1.11292 0.5 0 0 0 1.84985 0.293398 1.42062 
266 4.83436 0.647197 -0.0129375 0.5 0 0 0 0.867827 -0.26321 -3.22892 
267 3.45728 1.79731 0.886208 0.5 0 0 0 -1.6134 -0.356154 0.380712 
268 2.89322 0.522864 0.844909 0.5 0 0 0 -0.153668 -0.397536 1.6946 
269 3.96982 1.81192 0.224047 0.5 0 0 0 -1.04671 -0.483308 -2.2533 
270 3.93633 1.90246 1.01936 0.5 0 0 0 -0.967713 0.532171 1.32242 
293 3.0209 2.402 0.572196 0.5 0 0 0 -0.796748 -0.433157 0.208561 
272 4.42309 1.79277 0.741691 0.5 0 0 0 0.0471664 0.71874 0.202826 
273 4.85214 1.36363 0.800134 0.5 0 0 0 1.45534 -0.322726 -0.105101 
274 2.68345 0.714079 0.824472 0.5 0 0 0 0.231236 -0.0903787 1.49873 
275 2.53788 2.34774 0.0564441 0.5 0 0 0 -0.496787 -1.07391 -2.0581 
276 5.08107 0.0669149 0.787805 0.5 0 0 0 1.14261 -1.6656 0.654498 
294 3.1399 0.0914893 0.349254 0.5 0 0 0 0.150621 -2.31542 -0.195664 
278 3.60827 1.88445 0.935529 0.5 0 0 0 -1.47459 -0.0204903 0.739783 
279 3.71217 0.457463 0.171545 0.5 0 0 0 0.354198 -1.32189 -1.4939 
295 2.73142 1.13214 0.898666 0.5 0 0 0 -0.15965 0.17069 0.868985 
281 3.0564 0.151199 0.970873 0.5 0 0 0 -0.451415 -1.93758 1.77538 
282 3.8744 1.69556 1.09783 0.5 0 0 0 -1.31078 0.0497755 1.41503 
283 3.80612 2.33927 -0.181287 0.5 0 0 0 -1.10119 -0.928744 -3.77632 
284 4.16863 2.09977 0.500957 0.5 0 0 0 -0.298056 0.731228 -0.333588 
285 3.41145 2.33265 0.439946 0.5 0 0 0 -1.11922 -0.145078 -0.370693 
286 3.72183 0.963262 0.427496 0.5 0 0 0 -1.14006 -0.231033 -0.451757 
287 4.34117 1.03841 0.421518 0.5 0 0 0 -0.486918 -1.23543 -1.49504 
288 4.07944 1.6191 1.03376 0.5 0 0 0 -1.10334 0.123636 1.24635 
289 4.36668 1.05293 0.596491 0.5 0 0 0 -0.63715 -1.32409 -0.787518 
290 3.33103 0.992293 0.623106 0.5 0 0 0 -1.22175 0.311947 0.681982 
291 2.90505 1.0038 0.0831356 0.5 0 0 0 -0.432344 1.52789 -1.78158 
297 3.1628 0.422642 1.81526 0.5 0 0 0 -1.29627 -1.55318 0.777132 
298 3.83872 2.08749 2.17162 0.5 0 0 0 -1.14483 -0.142801 1.04439 
299 3.06608 0.73219 2.23274 0.5 0 0 0 -0.806989 -0.563649 1.53063 
323 3.16958 1.7184 1.55879 0.5 0 0 0 -0.673999 -0.158869 1.15613 
301 3.32709 1.70196 2.15388 0.5 0 0 0 -0.572198 0.0774236 1.2787 
302 3.70478 0.970469 1.80799 0.5 0 0 0 -0.87262 0.19538 1.52379 
303 3.80395 0.847812 1.94421 0.5 0 0 0 -0.641838 0.0391912 1.64932 
292 4.33293 1.2853 1.247 0.5 0 0 0 -0.639696 -0.24934 1.77519 
305 4.06195 1.45734 1.37117 0.5 0 0 0 -1.02097 0.152807 2.08154 
306 4.61121 1.24738 1.92466 0.5 0 0 0 0.787645 -0.0452664 1.55533 
307 4.02806 0.00290193 2.16168 0.5 0 0 0 -1.98921 -2.04562 -0.125277 
308 4.72506 0.104429 2.27495 0.5 0 0 0 0.0573667 -0.247057 0.0162145 
309 3.95474 0.747127 1.92069 0.5 0 0 0 -0.468736 -0.276003 1.65562 
310 4.61075 2.32872 1.97826 0.5 0 0 0 0.484471 -0.142863 0.410056 
311 3.53785 2.25908 2.09172 0.5 0 0 0 -0.893454 0.158246 1.12887 
321 4.85074 -0.0225697 2.20582 0.5 0 0 0 0.48238 -0.650838 -0.309897 
313 2.56726 1.50595 2.20377 0.5 0 0 0 0.109484 0.00597266 1.31397 
320 2.69246 1.31431 1.87261 0.5 0 0 0 0.0635695 -0.0689324 0.908773 
315 3.26739 0.871674 1.95479 0.5 0 0 0 -0.804989 -0.121816 1.16741 
316 4.50045 1.00423 2.30411 0.5 0 0 0 0.307753 0.0216568 0.921415 
317 4.42454 1.96834 2.33396 0.5 0 0 0 -0.42608 -0.757555 0.429068 
318 3.62757 0.6471 1.4244 0.5 0 0 0 -1.29707 -0.894217 0.717596 
319 3.17122 2.16817 1.97116 0.5 0 0 0 -0.361797 0.250624 1.24401 
271 4.89445 1.59838 1.20694 0.5 0 0 0 1.99255 1.05744 1.86761 
19 2.58919 1.86325 1.1735 0.5 0 0 0 0.013081 -0.264312 0.539884 
280 3.82517 0.808421 1.18765 0.5 0 0 0 -1.36634 -0.816545 0.795749 
300 4.20682 2.38482 1.22812 0.5 0 0 0 -0.0437646 0.850116 1.85774 
296 4.29953 0.620869 1.1735 0.5 0 0 0 -0.391185 -1.69163 0.799809 
277 3.47973 2.13585 1.1768 0.5 0 0 0 -1.08776 0.311783 1.56494 
324 4.20049 1.07209 3.60419 0.5 0 0 0 -1.49448 0.447584 -0.557443 
325 3.13525 0.346655 3.34054 0.5 0 0 0 -3.12535 -1.26458 1.3376 
326 3.66739 1.472 3.67458 0.5 0 0 0 -1.94329 -0.405526 -0.0547147 
327 4.15864 1.37272 2.56514 0.5 0 0 0 -0.879733 -0.248777 0.532214 
328 3.56054 0.746071 2.82266 0.5 0 0 0 -1.23031 0.197361 0.970864 
329 4.6547 1.8582 2.76121 0.5 0 0 0 0.287433 -1.60682 -0.422598 
330 3.37921 1.61927 3.26274 0.5 0 0 0 -1.49017 -0.393448 0.61296 
331 4.42014 1.68675 3.2659 0.5 0 0 0 -1.11423 -1.26888 -0.407871 
332 4.72992 0.335377 2.57276 0.5 0 0 0 0.29562 0.868834 -0.287314 
333 2.6687 0.745658 3.45056 0.5 0 0 0 -3.12681 -1.52281 2.1903 
334 4.39709 0.492246 3.23252 0.5 0 0 0 -0.533107 0.856186 -1.84106 
335 5.05887 2.33764 2.86349 0.5 0 0 0 3.04184 -1.00715 -0.903831 
336 4.05519 0.349996 3.25553 0.5 0 0 0 -1.75578 0.276348 -0.965902 
350 2.94785 1.6205 2.671 0.5 0 0 0 -0.331925 -0.231874 1.44435 
338 2.75765 1.04702 3.70241 0.5 0 0 0 -3.05275 -1.44822 1.35404 
339 2.70521 0.895145 2.70662 0.5 0 0 0 -1.0301 -1.1582 2.43859 
340 2.93398 1.02899 3.59673 0.5 0 0 0 -2.76061 -1.00176 1.23852 
341 4.47472 1.99479 3.43292 0.5 0 0 0 -1.11103 -1.6263 0.0347181 
342 4.92134 1.88469 3.61398 0.5 0 0 0 1.08785 -1.75806 0.255073 
343 3.24144 1.5906 2.6238 0.5 0 0 0 -0.676343 -0.187423 1.25355 
349 4.1968 -0.0384098 3.21981 0.5 0 0 0 -1.68687 -1.34802 -1.61058 
345 3.47823 0.0426594 3.05535 0.5 0 0 0 -2.73638 -2.21435 0.525286 
346 3.69694 0.812519 3.53319 0.5 0 0 0 -2.44884 0.19605 0.133089 
347 2.80181 1.66491 2.63693 0.5 0 0 0 -0.1029 -0.190705 1.44764 
348 2.63913 1.65882 2.67643 0.5 0 0 0 0.0402867 -0.424352 1.55994 
352 4.94759 1.25163 3.70679 0.5 0 0 0 1.53043 -0.0804322 -0.468112 
469 4.12804 2.45323 2.60915 0.5 0 0 0 -1.94934 -0.327566 -0.22049 
304 2.73537 0.148577 2.52863 0.5 0 0 0 -1.73136 -2.67702 1.93466 
384 4.55124 0.313803 3.78158 0.5 0 0 0 -1.08603 0.714409 -1.93757 
351 4.81681 0.433179 4.13216 0.5 0 0 0 0.535575 1.28441 -0.255491 
381 3.28514 1.873 4.23842 0.5 0 0 0 -1.69194 -1.05931 -1.0476 
353 3.42786 1.25797 4.13506 0.5 0 0 0 -2.41251 -0.741749 -0.231643 
354 3.93464 1.93868 4.94642 0.5 0 0 0 -0.469367 -0.731158 1.15882 
355 4.89446 2.33384 4.0075 0.5 0 0 0 0.313396 -1.36286 1.33107 
356 4.4518 -0.17316 4.76969 0.5 0 0 0 -1.85996 -2.81268 1.58575 
383 4.13179 0.484747 4.99291 0.5 0 0 0 -2.19929 0.864384 2.56472 
358 5.09289 1.5728 4.75784 0.5 0 0 0 1.28533 -0.321774 1.65891 
359 3.01964 1.92093 4.29427 0.5 0 0 0 -1.64712 -1.29442 -1.07773 
360 4.55823 0.29484 4.19705 0.5 0 0 0 -1.20756 0.680689 -0.312419 
361 5.0107 2.27456 4.16295 0.5 0 0 0 0.815401 -1.71611 1.74493 
362 4.17113 0.254776 4.2464 0.5 0 0 0 -3.31801 0.0156799 -0.205702 
363 3.91129 0.319091 4.53698 0.5 0 0 0 -4.12044 -0.228974 0.557654 
364 2.66473 1.94634 4.90104 0.5 0 0 0 -2.03353 -1.87523 0.775542 
365 3.1697 1.79581 4.59542 0.5 0 0 0 -1.63186 -1.5283 -0.429087 
366 4.61143 0.911569 4.1486 0.5 0 0 0 -0.161773 1.71035 0.501457 
367 3.81677 -0.0602533 3.84489 0.5 0 0 0 -4.38244 -2.2111 0.18924 
368 4.06429 1.84855 4.28442 0.5 0 0 0 -1.15825 -0.718822 -0.0177385 
369 3.4942 1.48242 4.35656 0.5 0 0 0 -1.88363 -0.95365 -0.46877 
370 2.82999 0.443281 4.66007 0.5 0 0 0 -3.54665 -1.08073 0.0900087 
371 4.72583 0.250739 4.64225 0.5 0 0 0 0.354 0.645385 1.6131 
382 3.88418 0.944613 3.84084 0.5 0 0 0 -2.45409 0.362171 -0.0352654 
373 4.63289 0.300492 3.94053 0.5 0 0 0 -0.776887 0.734397 -1.37526 
374 4.53401 0.486203 4.04811 0.5 0 0 0 -1.13014 1.24201 -0.77875 
375 5.03448 0.0100958 4.98313 0.5 0 0 0 3.59469 -1.18706 3.20925 
376 4.10392 1.60789 4.6828 0.5 0 0 0 -0.58252 -0.44085 0.453438 
377 4.01537 2.10371 5.10767 0.5 0 0 0 -0.109919 -0.494931 2.13386 
378 2.91759 1.64263 5.01092 0.5 0 0 0 -1.92861 -2.16826 1.57484 
379 3.53378 0.926494 5.07409 0.5 0 0 0 -2.38331 -0.425518 1.8341 
380 3.06476 2.29047 4.29765 0.5 0 0 0 -1.41921 -1.25233 -1.06822 
385 2.72743 3.16667 0.678626 0.5 0 0 0 -0.2594 0.0375854 0.477847 
386 4.46001 4.72631 0.0499705 0.5 0 0 0 0.670235 0.329326 -0.70956 
387 3.86554 3.94207 0.138871 0.5 0 0 0 0.119306 -0.411038 -0.42799 
388 4.3202 4.0172 1.07919 0.5 0 0 0 -0.817713 -0.172851 -1.10385 
389 3.81849 3.08829 0.794955 0.5 0 0 0 -0.593887 0.0886663 0.755396 
390 3.64731 4.11213 0.128382 0.5 0 0 0 0.0900842 -0.597313 0.0534273 
391 5.05323 4.32999 1.0758 0.5 0 0 0 2.14322 1.08716 -1.29529 
392 4.88878 2.67893 0.295458 0.5 0 0 0 1.32135 0.365154 -0.297496 
393 4.52615 4.58373 0.67772 0.5 0 0 0 -0.014862 1.27499 -0.991584 
394 2.76375 2.92559 1.08837 0.5 0 0 0 0.0172057 -0.151016 1.30111 
395 4.91111 2.95983 0.998605 0.5 0 0 0 1.35501 -0.497224 1.14154 
396 4.08242 3.07659 0.0175097 0.5 0 0 0 -0.343922 0.45083 -1.52534 
397 5.07977 4.04744 0.825046 0.5 0 0 0 2.38245 -0.0624794 -1.63061 
398 2.92734 4.94157 0.00821667 0.5 0 0 0 -0.477106 2.03752 -1.50092 
399 3.38818 4.92148 0.588321 0.5 0 0 0 0.57803 1.09103 -0.330977 
400 3.33768 4.51274 0.419337 0.5 0 0 0 0.195513 -0.603882 0.275917 
401 3.37374 2.65717 0.0719879 0.5 0 0 0 -0.978808 -0.396987 -1.65031 
402 2.72655 3.11912 0.688008 0.5 0 0 0 -0.26287 0.0099923 0.537504 
403 4.76397 3.22272 0.18296 0.5 0 0 0 0.431363 0.481352 -1.34409 
404 4.20748 2.63552 0.142009 0.5 0 0 0 -0.164168 0.531425 -0.893999 
405 4.05946 4.87616 -0.0238895 0.5 0 0 0 0.282844 0.873241 -0.164246 
406 4.20552 3.58907 1.03062 0.5 0 0 0 -0.887407 -0.74312 -0.290762 
407 2.81353 4.2113 -0.0113327 0.5 0 0 0 -0.346716 -0.769308 -1.25042 
408 4.9935 3.11745 0.424442 0.5 0 0 0 1.24836 -0.0506787 -0.253478 
409 3.77205 3.30856 0.562627 0.5 0 0 0 -0.535924 0.0681044 0.036192 
410 3.87007 2.62726 0.885775 0.5 0 0 0 -0.532562 0.714116 1.23166 
411 4.18383 2.65307 1.06402 0.5 0 0 0 -0.135381 0.559415 1.46067 
412 3.09159 3.18162 0.446709 0.5 0 0 0 -0.48044 0.05005 0.0615014 
413 2.9187 3.71694 0.925145 0.5 0 0 0 -0.225709 -0.363136 0.33076 
414 2.70955 4.48431 0.643286 0.5 0 0 0 -0.1072 -0.930283 0.142364 
415 2.6388 4.93667 1.11349 0.5 0 0 0 -1.07918 0.886346 -0.319913 
417 3.0858 3.60768 0.193225 0.5 0 0 0 -0.439152 -0.300429 -0.622331 
418 4.81607 4.17572 1.6567 0.5 0 0 0 0.591401 -0.344383 0.0452556 
419 2.97104 3.77731 2.20128 0.5 0 0 0 0.527157 -1.67745 0.597781 
420 4.87673 3.94973 2.41375 0.5 0 0 0 0.27486 -1.57636 0.677233 
421 4.8751 4.57039 1.80973 0.5 0 0 0 1.01155 1.67479 -0.455593 
422 4.26911 4.54909 1.75393 0.5 0 0 0 0.210628 0.978853 0.159596 
423 3.64883 4.60708 1.39654 0.5 0 0 0 0.36104 0.133716 -1.23183 
424 4.35686 3.80958 1.43822 0.5 0 0 0 -0.729198 -1.16536 0.524539 
425 2.78397 3.15329 1.33965 0.5 0 0 0 0.223675 -0.293639 1.28222 
426 3.24265 4.5535 2.11577 0.5 0 0 0 0.105237 -0.908421 1.66016 
427 3.29534 4.61706 1.65763 0.5 0 0 0 -0.180088 -0.610712 -0.144505 
428 4.92768 4.3107 2.00987 0.5 0 0 0 0.632407 -0.19913 0.0995206 
429 3.19584 4.83428 1.72876 0.5 0 0 0 -0.356615 0.283536 0.170777 
430 2.95764 4.84836 1.32106 0.5 0 0 0 -0.875955 0.354233 -0.984294 
431 3.50765 2.67592 2.37492 0.5 0 0 0 -0.8745 -0.138902 0.589053 
432 3.95776 2.50817 1.48 0.5 0 0 0 -0.674973 0.427674 1.94295 
433 2.74246 4.35531 2.39777 0.5 0 0 0 -0.216764 -1.01734 0.873574 
434 3.13473 4.50779 1.94043 0.5 0 0 0 -0.332033 -1.07923 0.870703 
435 3.61635 4.6595 1.62657 0.5 0 0 0 0.53214 0.0850867 -0.176539 
436 3.34108 3.27577 2.05506 0.5 0 0 0 -0.141777 -0.940357 0.961156 
437 3.80655 3.98331 1.78453 0.5 0 0 0 -0.714607 -1.51623 0.940791 
438 5.00234 3.52831 1.86043 0.5 0 0 0 1.73065 -1.93275 0.23676 
439 4.48504 4.48045 2.45637 0.5 0 0 0 -0.699922 0.10058 1.44688 
440 2.64624 3.87468 2.23009 0.5 0 0 0 0.374706 -1.16792 0.247911 
441 2.92967 4.74914 2.12021 0.5 0 0 0 -0.681672 -0.00188327 1.10788 
442 3.06368 4.58908 1.38181 0.5 0 0 0 -0.702514 -0.753024 -1.05747 
443 3.87393 4.1195 1.96441 0.5 0 0 0 -0.426184 -1.36556 1.44372 
444 2.67807 4.3564 1.89243 0.5 0 0 0 -0.768882 -0.933517 -0.15771 
445 4.42925 3.75366 1.23855 0.5 0 0 0 -0.571461 -1.0345 -0.0131116 
446 4.16136 3.88015 2.29142 0.5 0 0 0 -0.971848 -1.56507 1.40263 
447 3.98413 3.83381 1.7099 0.5 0 0 0 -1.00347 -1.50692 1.02252 
448 4.54614 2.8292 2.22811 0.5 0 0 0 -0.167327 0.272973 -0.265133 
449 3.08114 3.86142 1.29596 0.5 0 0 0 -0.376897 -0.892169 0.0159954 
450 3.48301 3.36566 1.39671 0.5 0 0 0 -0.555949 -0.723556 1.08943 
416 4.43939 3.86705 1.2623 0.5 0 0 0 -0.553512 -0.823855 -0.162322 
203 2.54257 2.99444 1.48494 0.5 0 0 0 0.543081 -0.349892 1.11905 
322 2.8968 2.52125 1.8635 0.5 0 0 0 0.201438 -0.0968898 1.34303 
314 4.95153 2.49957 1.43986 0.5 0 0 0 2.1803 0.0170283 0.881075 
479 2.67201 3.66333 3.67497 0.5 0 0 0 -0.203287 -1.64078 -0.627267 
453 4.81672 2.73412 3.2535 0.5 0 0 0 0.831729 0.571466 -0.423167 
454 3.96861 3.31053 2.81272 0.5 0 0 0 -1.04519 -0.0947047 0.106194 
455 2.9786 4.28332 3.66018 0.5 0 0 0 -0.726493 -0.931987 -1.02447 
456 2.78681 4.65171 3.10914 0.5 0 0 0 -0.203219 -0.442476 0.326357 
457 3.04669 4.89391 2.94079 0.5 0 0 0 0.553132 0.687043 0.706057 
458 3.38148 3.15475 2.90913 0.5 0 0 0 -0.53657 -0.877618 0.204816 
459 4.79833 4.06689 2.63942 0.5 0 0 0 -0.128125 -1.05997 1.14751 
460 4.33881 2.93316 3.14829 0.5 0 0 0 -1.28467 1.05579 -0.479635 
461 4.46961 4.44766 2.57146 0.5 0 0 0 -0.804005 -0.0312988 1.57328 
462 4.70144 4.99919 2.54255 0.5 0 0 0 0.456886 4.60249 1.3814 
463 4.41338 2.63817 2.73773 0.5 0 0 0 -1.22615 -0.00240585 -0.778347 
464 3.08229 3.82562 3.12878 0.5 0 0 0 0.298999 -1.73463 -0.110332 
465 3.57021 3.93289 3.56067 0.5 0 0 0 0.454599 -1.22724 -1.19877 
466 4.19207 2.57746 3.01757 0.5 0 0 0 -2.12597 -0.251442 -0.640518 
467 3.47467 4.4369 3.46201 0.5 0 0 0 0.871068 -0.333502 -0.872507 
468 4.83204 2.71881 2.53955 0.5 0 0 0 1.39737 0.238166 -0.966759 
344 4.1894 2.52632 3.41191 0.5 0 0 0 -2.0525 -0.494546 0.00248972 
470 4.4847 2.5291 3.64937 0.5 0 0 0 -1.05987 -0.473936 0.538398 
471 3.84038 4.76542 3.03905 0.5 0 0 0 0.428607 1.218 0.489391 
451 2.79986 3.79809 2.4996 0.5 0 0 0 0.67315 -1.50341 0.668458 
473 2.91846 5.0861 3.74857 0.5 0 0 0 -0.149573 2.67785 0.232578 
474 4.50733 2.85757 3.6255 0.5 0 0 0 -0.710905 1.04256 0.308579 
478 3.98902 2.61315 3.41298 0.5 0 0 0 -2.49934 -0.216016 -0.05805 
476 4.67836 3.70549 3.01079 0.5 0 0 0 0.0893619 -0.00659872 0.817204 
477 2.80107 4.25512 2.56629 0.5 0 0 0 0.0882408 -1.26939 0.94074 
337 4.00855 2.47712 3.28526 0.5 0 0 0 -2.56714 -0.587895 -0.210857 
475 4.80452 4.05407 3.78608 0.5 0 0 0 0.939243 -0.0504964 -0.155895 
480 3.58953 3.80889 4.79313 0.5 0 0 0 1.28072 -1.32206 0.955247 
481 4.13979 3.02608 4.95778 0.5 0 0 0 -0.268026 -1.47018 2.14232 
482 3.77861 3.59844 4.0078 0.5 0 0 0 0.420677 -0.998543 -1.097 
483 4.4053 4.8875 4.10611 0.5 0 0 0 0.262971 0.50034 -1.75145 
484 3.17257 4.00242 3.9681 0.5 0 0 0 -0.446863 -1.44898 -1.51119 
485 3.66542 3.93623 4.40886 0.5 0 0 0 1.30966 -0.835997 -0.600777 
486 4.72062 4.70312 4.34976 0.5 0 0 0 -0.0982215 -0.899049 -1.36614 
487 3.2799 3.12528 4.27903 0.5 0 0 0 -0.664686 -1.98184 -0.831756 
488 4.67013 3.1766 4.66622 0.5 0 0 0 0.0223198 0.0686148 0.971246 
489 3.35019 4.83712 5.08972 0.5 0 0 0 -0.173285 3.0905 3.98349 
490 3.58041 3.44622 4.24509 0.5 0 0 0 -0.0363259 -1.7396 -0.884346 
491 3.71318 4.11091 4.82948 0.5 0 0 0 2.0515 -0.117129 1.33696 
492 2.66401 3.19064 4.79124 0.5 0 0 0 -1.28708 -2.59103 0.923012 
493 4.51494 3.66926 4.72374 0.5 0 0 0 1.18585 0.523245 0.678195 
494 3.42613 3.64515 5.12503 0.5 0 0 0 0.777754 -2.09054 3.3119 
495 2.6833 4.06724 4.41671 0.5 0 0 0 -1.05381 -0.90841 -1.15865 
496 2.62238 3.80936 4.95756 0.5 0 0 0 -1.3784 -1.77674 1.45777 
497 3.38169 4.37698 3.94441 0.5 0 0 0 0.446708 -0.250725 -1.3161 
357 3.44985 2.4954 4.63855 0.5 0 0 0 -0.880718 -1.29876 0.135071 
499 3.95608 2.50646 4.05608 0.5 0 0 0 -1.53384 -0.749097 0.251146 
500 4.65467 4.93223 4.97399 0.5 0 0 0 -0.725059 -0.119522 1.69274 
501 4.62616 4.8156 4.90394 0.5 0 0 0 -0.283515 -0.293762 1.29268 
502 2.68187 3.97566 4.77886 0.5 0 0 0 -0.998952 -1.16849 0.287558 
503 2.93975 4.25916 4.55901 0.5 0 0 0 -0.375671 -0.128642 -0.685927 
504 3.55114 3.30536 4.29101 0.5 0 0 0 -0.234624 -1.87483 -0.698632 
505 3.69576 4.8226 4.28552 0.5 0 0 0 1.42021 1.77453 -0.194307 
506 4.09436 4.02173 3.97424 0.5 0 0 0 1.82448 0.0294009 -0.947302 
507 4.9127 2.81898 3.94309 0.5 0 0 0 0.483213 0.990045 0.557321 
508 2.87514 3.92811 4.68635 0.5 0 0 0 -0.391787 -1.40772 -0.269404 
509 3.30514 4.75551 4.40391 0.5 0 0 0 0.178866 1.78589 -0.100209 
510 3.08449 4.49512 4.06087 0.5 0 0 0 -0.596035 0.201673 -1.22212 
511 2.64438 3.03166 4.50455 0.5 0 0 0 -1.03 -2.20828 -0.126209 
512 2.66599 2.8248 4.36838 0.5 0 0 0 -0.847053 -1.88598 -0.442517 
513 4.86973 3.02687 4.29851 0.5 0 0 0 0.30434 1.03366 0.591132 
ITEM: TIMESTEP
60062
ITEM: NUMBER OF ATOMS
512
ITEM: BOX BOUNDS ss ss ss
-2.1589663964569298e-02 5.0933846546203574e+00
-1.7364439631764822e-01 5.0865807164741392e+00
-1.8176655292622759e-01 5.1255068607205727e+00
ITEM: ATOMS id x y z width_SPH x_COM y_COM z_COM vx vy vz 
2 0.301061 0.775934 0.24686 0.5 0 0 0 -1.37926 -0.579495 0.0688222 
3 0.259436 1.29101 0.605721 0.5 0 0 0 -2.08435 -0.964651 0.28776 
4 0.787479 1.24764 1.03676 0.5 0 0 0 -0.386224 -0.340102 0.749191 
5 1.73539 1.8934 0.823938 0.5 0 0 0 0.958527 0.352094 0.221136 
6 0.274196 2.07866 0.848533 0.5 0 0 0 -2.11843 0.860419 1.16651 
7 0.546656 1.58453 0.342546 0.5 0 0 0 -0.688663 -0.372069 -0.68208 
8 1.33606 0.225898 0.773364 0.5 0 0 0 0.0500277 -0.685415 1.18409 
9 1.53469 0.986431 0.331378 0.5 0 0 0 0.774048 0.260696 -0.74735 
10 1.11158 1.53603 -0.0685563 0.5 0 0 0 0.983782 -0.388491 -2.84956 
11 1.39605 1.22774 0.796169 0.5 0 0 0 0.782295 0.130028 0.282647 
38 1.08307 2.32881 0.77665 0.5 0 0 0 0.516837 0.421773 0.862942 
41 2.23084 2.37931 1.0229 0.5 0 0 0 0.351362 -0.202258 0.55656 
14 1.26049 2.06321 0.329271 0.5 0 0 0 1.32262 0.117812 -0.380254 
15 1.54694 0.0394748 0.976125 0.5 0 0 0 1.23301 -1.50688 2.12371 
37 0.636905 0.390265 0.353984 0.5 0 0 0 -1.47728 -0.586528 0.379724 
17 1.08138 0.119434 0.519717 0.5 0 0 0 -1.29665 -0.687379 0.538472 
18 1.50826 -0.0164887 0.0458967 0.5 0 0 0 0.0210337 -0.949723 -1.15224 
40 1.99513 0.669574 0.604464 0.5 0 0 0 1.3926 -0.19797 0.904836 
20 0.369819 1.75927 1.04789 0.5 0 0 0 -1.73133 0.350021 1.28564 
21 1.878 1.79469 0.745542 0.5 0 0 0 1.0807 0.226351 -0.00310591 
22 0.552786 2.4223 0.409938 0.5 0 0 0 -0.558244 0.212977 0.657486 
39 0.791152 1.5785 0.8102 0.5 0 0 0 0.140691 0.227589 0.40895 
24 0.00340725 0.598285 0.0816948 0.5 0 0 0 -2.72795 -0.779885 -0.133721 
25 1.95436 0.2606 0.581882 0.5 0 0 0 1.68404 -0.755035 1.36422 
26 1.35581 0.890949 0.584786 0.5 0 0 0 0.399583 0.019333 -0.00984445 
27 0.864668 1.8141 0.900154 0.5 0 0 0 0.377403 0.670892 0.691814 
28 2.15664 0.959747 0.359459 0.5 0 0 0 0.883542 0.50157 -0.229978 
29 2.42448 1.35996 0.269408 0.5 0 0 0 0.107995 1.01775 -1.19045 
30 1.3992 0.242431 0.884063 0.5 0 0 0 0.488741 -0.821777 1.45701 
31 1.65838 1.51848 0.685685 0.5 0 0 0 1.20236 0.36214 0.0102079 
32 1.30153 2.09592 0.250956 0.5 0 0 0 1.47634 0.00634626 -0.708891 
33 1.46276 1.14326 0.721759 0.5 0 0 0 0.8568 0.0701326 0.199782 
34 0.622255 2.08924 -0.0271254 0.5 0 0 0 -0.447978 -0.575369 -2.02294 
35 1.77116 0.0448075 -0.128821 0.5 0 0 0 1.17615 -0.864611 -2.25454 
36 0.968307 0.88323 0.0786156 0.5 0 0 0 0.0956028 0.0328204 -1.47963 
144 0.0211995 2.45507 0.114571 0.5 0 0 0 -3.16816 -0.780055 -1.09894 
43 1.54524 0.0677249 1.95232 0.5 0 0 0 1.54678 -2.05892 2.27933 
44 1.36472 2.35713 1.90941 0.5 0 0 0 0.773299 -0.347979 0.538699 
45 1.3338 1.11988 1.48552 0.5 0 0 0 0.476508 -0.198916 1.55749 
46 1.38771 2.23672 2.32626 0.5 0 0 0 0.773074 -0.84967 1.17322 
47 1.3959 1.26087 1.91897 0.5 0 0 0 -0.0998376 -0.503566 2.36784 
48 1.18006 0.812492 1.47866 0.5 0 0 0 0.169855 -0.426952 1.76227 
49 2.47935 2.34211 1.69817 0.5 0 0 0 0.558024 -0.17328 1.19152 
50 0.891249 0.60888 1.67019 0.5 0 0 0 -1.0794 -0.542178 2.51079 
51 1.96893 0.939586 1.80624 0.5 0 0 0 0.474672 -1.0968 1.64682 
52 0.671607 1.64139 1.3334 0.5 0 0 0 -0.669185 0.0976841 1.61563 
53 2.1247 1.44177 1.71791 0.5 0 0 0 0.4562 0.123602 0.952326 
54 0.390183 0.0429168 2.20343 0.5 0 0 0 -1.5532 -1.25145 0.557972 
55 1.73185 1.84185 1.70753 0.5 0 0 0 0.650519 0.164898 0.906617 
16 2.25736 2.0163 1.1787 0.5 0 0 0 0.457636 -0.0719247 0.552916 
57 2.38803 1.07707 1.62868 0.5 0 0 0 0.47262 -0.693355 0.755429 
58 1.78528 0.149191 2.23911 0.5 0 0 0 1.0327 -2.02273 2.71635 
59 1.24236 0.5826 2.37879 0.5 0 0 0 0.260575 -0.272336 3.92138 
60 0.66915 1.69642 1.57452 0.5 0 0 0 -0.979963 -0.221874 2.09608 
61 1.33412 0.300397 1.71432 0.5 0 0 0 0.887252 -1.21203 2.26359 
78 1.05745 1.89882 1.61753 0.5 0 0 0 0.14724 0.000540078 1.16133 
63 2.01583 1.57785 2.03482 0.5 0 0 0 0.300775 -0.0541801 1.40504 
64 0.517036 0.357617 2.37908 0.5 0 0 0 -0.565309 0.530377 2.62105 
65 1.06184 1.77544 2.19874 0.5 0 0 0 -0.468627 -1.40529 2.12135 
66 2.34198 0.861942 2.01783 0.5 0 0 0 0.0264993 -1.35148 1.67451 
67 1.10297 0.688532 2.02628 0.5 0 0 0 -0.327928 -0.221864 3.45708 
68 2.05806 1.47707 1.72367 0.5 0 0 0 0.443877 0.165836 1.00095 
69 1.40306 0.742944 2.26943 0.5 0 0 0 -0.0127491 -0.601969 3.56704 
77 0.387393 1.54418 1.42855 0.5 0 0 0 -2.22894 -0.477392 2.42531 
71 0.737604 0.532104 1.43848 0.5 0 0 0 -1.94546 -0.911216 1.66724 
72 1.00639 2.24107 2.44178 0.5 0 0 0 0.00218933 -1.25806 1.46172 
73 2.05738 1.03318 1.69109 0.5 0 0 0 0.568059 -0.882773 1.23015 
74 2.23184 1.01521 2.36173 0.5 0 0 0 -0.38427 -1.45768 2.51908 
75 0.0297685 2.3112 2.22173 0.5 0 0 0 -2.35307 -1.61492 0.705452 
76 0.971334 1.10815 1.45356 0.5 0 0 0 -0.382595 -0.281273 1.81094 
12 1.34529 1.51116 1.24545 0.5 0 0 0 0.683747 0.377328 0.874134 
13 1.86621 1.32627 1.25809 0.5 0 0 0 0.997028 -0.0560466 0.662319 
312 2.49224 -0.0785474 1.66922 0.5 0 0 0 -0.146804 -2.946 1.29967 
42 1.22906 0.726341 1.23556 0.5 0 0 0 0.353158 -0.502418 1.15911 
79 1.43519 2.24237 3.26306 0.5 0 0 0 0.0223933 -2.28935 1.21439 
80 0.722437 0.183724 2.71177 0.5 0 0 0 1.47956 0.523544 2.97284 
81 1.07277 0.41499 2.90581 0.5 0 0 0 1.6268 0.318613 4.42175 
82 1.30862 1.94323 2.75296 0.5 0 0 0 -0.307579 -2.04017 1.91003 
83 1.70365 2.04278 2.87994 0.5 0 0 0 0.281036 -1.52931 1.51929 
84 1.24767 0.84009 3.7174 0.5 0 0 0 1.33463 -3.77965 4.56279 
85 2.02471 1.84019 2.82634 0.5 0 0 0 0.380635 -1.35916 1.64399 
106 1.36418 1.31962 2.61108 0.5 0 0 0 -0.890032 -2.18677 3.2593 
87 0.898792 2.29174 3.34264 0.5 0 0 0 -0.293883 -2.93014 0.785283 
88 1.94612 1.38119 2.97942 0.5 0 0 0 -0.745023 -2.92609 2.85485 
89 1.47552 0.236481 3.78195 0.5 0 0 0 0.219592 1.79092 4.58127 
100 0.580246 2.1647 2.54007 0.5 0 0 0 -0.486535 -1.98829 1.75439 
91 1.72849 1.44583 2.74128 0.5 0 0 0 -0.619517 -2.43811 2.6773 
92 0.127768 2.0969 2.8373 0.5 0 0 0 -1.29458 -2.82374 1.55057 
93 0.715283 0.310072 2.792 0.5 0 0 0 1.35814 0.930439 3.27145 
94 1.45135 1.94301 2.62581 0.5 0 0 0 0.097744 -1.5954 1.72401 
95 2.18938 2.14758 3.16346 0.5 0 0 0 0.868276 -1.23577 1.36449 
96 0.94979 1.87738 2.59393 0.5 0 0 0 -0.66139 -2.26223 2.27308 
97 1.79655 0.470846 3.60667 0.5 0 0 0 -2.3427 -1.28825 5.27515 
98 0.273038 1.57184 2.88924 0.5 0 0 0 -0.472646 -2.6957 1.99017 
99 2.15148 1.76573 3.33725 0.5 0 0 0 -0.0623656 -2.43029 1.94137 
105 0.748306 0.114091 3.13351 0.5 0 0 0 2.42397 0.805882 3.07572 
186 0.405524 2.44494 2.60323 0.5 0 0 0 -0.466354 -1.47822 1.20444 
102 1.84309 1.71236 3.01666 0.5 0 0 0 -0.358364 -2.45646 2.17471 
103 0.428591 1.0381 3.21399 0.5 0 0 0 1.28693 -1.21718 2.32733 
231 1.26226 2.35114 3.50858 0.5 0 0 0 0.166539 -2.6401 0.961322 
62 2.18333 1.76448 2.56415 0.5 0 0 0 0.450546 -0.647149 1.47222 
131 1.85477 1.65839 3.7735 0.5 0 0 0 -0.993882 -4.30602 2.0312 
56 2.44014 0.522577 2.48152 0.5 0 0 0 -0.939964 -1.83359 2.60198 
107 1.79924 0.179193 4.53985 0.5 0 0 0 -2.4581 2.41505 -3.09043 
108 1.07474 1.5009 4.4532 0.5 0 0 0 2.2299 -3.92924 -0.410831 
109 1.80421 0.539855 4.27431 0.5 0 0 0 -4.08359 -0.270165 -1.06228 
110 1.90997 0.686714 4.17965 0.5 0 0 0 -4.68678 -2.33694 0.535289 
139 1.01001 0.534252 4.84211 0.5 0 0 0 4.18364 -0.557554 -2.80627 
112 1.75816 0.698004 4.66542 0.5 0 0 0 -1.94917 -1.78471 -4.66969 
113 1.92756 1.25304 4.43647 0.5 0 0 0 -2.16244 -4.87591 -0.595467 
114 0.873002 0.925234 4.48012 0.5 0 0 0 4.97031 -2.01788 -2.19318 
115 1.84021 0.570506 4.4682 0.5 0 0 0 -3.72987 -0.563674 -3.38054 
116 0.78006 0.159624 4.3033 0.5 0 0 0 4.86715 0.454714 -1.14696 
117 0.976221 0.936274 4.21247 0.5 0 0 0 4.88948 -3.2801 -0.842647 
138 0.0273678 1.19267 4.38545 0.5 0 0 0 0.0333256 -1.92575 0.369805 
119 0.767838 1.80937 4.39848 0.5 0 0 0 1.55618 -2.82259 0.53875 
120 1.48918 0.684116 4.13282 0.5 0 0 0 0.291242 -2.81543 1.22397 
121 1.88097 0.771567 3.94801 0.5 0 0 0 -3.89002 -3.61016 3.38591 
122 0.203655 -0.136029 4.07609 0.5 0 0 0 1.17964 -1.13948 0.140462 
123 1.22008 0.0988032 4.57303 0.5 0 0 0 3.27568 1.89723 -2.95645 
124 0.694226 0.48942 4.10319 0.5 0 0 0 4.9893 -0.112379 -0.71524 
125 1.57983 0.388109 4.1862 0.5 0 0 0 -1.13383 2.13352 0.184408 
126 1.3239 0.547611 4.31048 0.5 0 0 0 3.62896 -0.260695 -2.29476 
127 1.22247 2.04543 4.70511 0.5 0 0 0 0.529131 -2.49874 0.73864 
128 1.13274 0.893319 4.24917 0.5 0 0 0 4.63138 -3.84393 -1.0482 
129 0.15721 1.59083 4.15841 0.5 0 0 0 1.00236 -2.69924 -0.130484 
130 0.54644 0.82848 4.34958 0.5 0 0 0 3.60311 -1.03142 -1.40431 
137 0.139754 2.14504 3.86316 0.5 0 0 0 -0.174289 -3.34825 -0.349415 
132 2.24816 1.87939 3.83284 0.5 0 0 0 -0.369863 -2.65507 1.08222 
133 1.36568 0.564186 4.27385 0.5 0 0 0 2.91098 -0.547889 -1.67089 
134 1.70918 2.16355 4.92569 0.5 0 0 0 -0.345933 -2.30073 0.356007 
135 2.26418 0.167801 4.66814 0.5 0 0 0 -2.70254 -0.457176 -0.978013 
136 1.59585 1.61782 4.25902 0.5 0 0 0 -0.174897 -5.05047 0.598223 
86 1.99543 1.44377 3.89322 0.5 0 0 0 -1.58179 -4.76344 2.01599 
252 1.97124 2.3346 4.62375 0.5 0 0 0 -0.380418 -2.50463 -0.187748 
372 2.44556 0.703626 4.33782 0.5 0 0 0 -4.58173 -1.3111 -0.490306 
111 1.47988 2.39443 3.94322 0.5 0 0 0 0.573433 -2.60434 1.12603 
90 1.33534 1.25021 3.83517 0.5 0 0 0 0.0442199 -5.92793 2.69811 
104 1.86757 1.04362 3.82195 0.5 0 0 0 -2.65239 -5.30346 3.62852 
118 2.5096 1.67311 4.55116 0.5 0 0 0 -2.00909 -2.35965 -0.414622 
101 1.63831 0.949603 3.80757 0.5 0 0 0 -1.76194 -5.38805 4.4801 
140 2.46899 2.49535 0.521337 0.5 0 0 0 -0.128916 -0.497122 0.0925408 
141 0.969151 3.25075 0.881213 0.5 0 0 0 -0.687562 -0.0542344 0.763201 
142 1.05819 3.61895 0.280844 0.5 0 0 0 0.0762441 0.567458 -0.305152 
143 0.61329 3.01274 0.597913 0.5 0 0 0 -0.779395 -0.0736883 1.18855 
167 1.34249 2.79902 0.683509 0.5 0 0 0 0.862624 -0.285237 0.459335 
168 1.60813 2.59703 0.915716 0.5 0 0 0 0.694634 -0.0649749 0.373867 
146 1.06775 3.21913 0.367263 0.5 0 0 0 0.565012 -0.407091 0.137535 
147 0.573213 4.49282 0.517004 0.5 0 0 0 1.15792 -0.171585 0.303725 
148 1.97431 3.78988 0.43388 0.5 0 0 0 0.683046 -0.368953 -0.37924 
149 0.683852 3.59681 0.0907904 0.5 0 0 0 -0.320019 1.05826 -0.716985 
150 1.89594 4.42723 0.806371 0.5 0 0 0 -0.262452 0.0303771 0.357108 
151 0.044994 3.44437 0.106179 0.5 0 0 0 -1.64539 0.6179 -0.0464787 
152 1.35725 3.63101 1.14384 0.5 0 0 0 0.113066 -0.00935223 0.199492 
153 2.20121 4.40131 0.258871 0.5 0 0 0 -0.252418 -0.133621 -0.978012 
154 2.33911 4.58275 0.684233 0.5 0 0 0 -0.385031 -0.355661 0.255403 
155 1.29543 3.739 0.711872 0.5 0 0 0 -0.056301 0.396032 0.295767 
156 0.448864 4.37762 1.05829 0.5 0 0 0 -0.637563 -0.993285 1.12881 
157 2.28878 2.65211 1.12402 0.5 0 0 0 0.333603 -0.230738 0.723504 
158 1.97601 4.15403 0.97527 0.5 0 0 0 0.404544 -0.540375 0.510205 
159 1.30202 3.80287 0.707774 0.5 0 0 0 -0.132021 0.516294 0.258979 
160 2.25978 2.64393 -0.0732894 0.5 0 0 0 -0.478499 -0.501443 -2.67302 
23 0.962131 2.54199 0.248238 0.5 0 0 0 0.775287 -0.195283 -0.047647 
162 1.69243 3.28376 0.688211 0.5 0 0 0 1.10816 -0.412017 0.186952 
163 0.0413285 4.44313 0.0101782 0.5 0 0 0 0.227744 -0.443014 -0.60939 
164 2.14712 2.84689 0.191513 0.5 0 0 0 -0.0992072 -0.121551 -1.10245 
165 0.0909529 3.27534 0.313756 0.5 0 0 0 -1.79345 0.168366 0.88904 
166 2.19765 3.29178 0.984013 0.5 0 0 0 0.426648 -0.0728697 0.437584 
169 0.463449 3.13038 2.39827 0.5 0 0 0 -0.76166 0.716223 0.0716902 
170 1.91534 3.15615 2.11444 0.5 0 0 0 0.850023 -0.609242 0.276105 
171 0.0731328 4.12224 2.28628 0.5 0 0 0 -2.32467 -0.638979 -1.31689 
172 1.10385 2.49108 1.83479 0.5 0 0 0 0.113735 -0.0897892 0.287131 
173 1.82174 3.36308 1.88122 0.5 0 0 0 0.62449 -0.353041 -0.19281 
174 1.26914 2.64237 1.45142 0.5 0 0 0 0.152474 0.0686142 0.0522279 
175 1.5165 4.31087 1.98113 0.5 0 0 0 0.608817 -0.492251 -0.249136 
176 1.55214 2.54248 1.97066 0.5 0 0 0 1.07777 -0.388538 0.455819 
177 -0.000862175 2.86161 2.38797 0.5 0 0 0 -2.34372 0.446057 0.18477 
178 1.44946 3.12326 1.43829 0.5 0 0 0 0.26268 -0.115135 -0.0447305 
179 2.14586 3.0696 2.45798 0.5 0 0 0 1.2185 -1.0411 0.798676 
180 1.15673 3.75587 1.50516 0.5 0 0 0 -0.819964 -0.0253701 -0.175342 
181 1.90675 4.8254 1.69836 0.5 0 0 0 -0.110063 0.569151 -0.338496 
182 1.13562 4.0265 1.86656 0.5 0 0 0 -0.89776 -0.269055 -0.176386 
183 1.54777 4.578 2.2453 0.5 0 0 0 0.407825 -0.184488 0.381999 
184 0.375312 2.61523 1.7266 0.5 0 0 0 -1.25199 0.288697 -0.281888 
185 1.31385 4.74035 2.2815 0.5 0 0 0 -0.397759 0.234673 0.573752 
204 1.32468 2.72488 2.02243 0.5 0 0 0 0.411368 -0.151391 0.33788 
187 1.38995 2.59811 2.25108 0.5 0 0 0 0.729177 -0.475097 0.785663 
188 1.50496 3.99844 2.40064 0.5 0 0 0 0.211208 -0.474671 0.650976 
189 1.72033 3.51607 2.26762 0.5 0 0 0 0.268707 -0.402697 0.325114 
202 0.972528 3.69504 1.79271 0.5 0 0 0 -1.44567 -0.0254455 -0.100583 
191 2.16536 2.98689 2.46313 0.5 0 0 0 1.31929 -1.07886 0.829751 
192 1.889 3.66891 2.05625 0.5 0 0 0 0.648567 -0.477175 -0.12046 
193 0.891349 3.87886 2.43149 0.5 0 0 0 -1.18051 -0.0753013 0.529389 
194 0.584986 3.06103 2.1515 0.5 0 0 0 -0.561664 0.719683 -0.131414 
195 1.99793 2.84629 1.96781 0.5 0 0 0 1.27023 -0.681296 0.435256 
196 1.34713 4.40977 1.55938 0.5 0 0 0 -0.112902 0.0288064 -0.882929 
190 1.78495 4.93381 1.1726 0.5 0 0 0 -1.13941 1.85128 -0.304661 
198 0.864718 4.5435 2.00967 0.5 0 0 0 -2.11476 0.135872 -0.143088 
199 1.34387 3.07488 2.36975 0.5 0 0 0 -0.0317961 -0.265256 0.531316 
200 2.34844 5.02929 2.31953 0.5 0 0 0 -0.796911 1.59989 0.324415 
201 0.447628 2.72568 2.13465 0.5 0 0 0 -0.558444 0.089381 0.113409 
70 0.869077 2.53772 2.15016 0.5 0 0 0 -0.00744203 -0.379528 0.682902 
145 2.08491 2.5666 1.35062 0.5 0 0 0 0.613517 -0.220207 0.593893 
161 0.304214 3.15922 1.21596 0.5 0 0 0 -2.20417 0.586642 0.685961 
205 1.20045 3.53231 3.03398 0.5 0 0 0 0.0678489 -0.334 0.264398 
206 1.96354 4.32896 3.03559 0.5 0 0 0 -0.110275 -0.374465 0.795709 
207 0.12525 4.09144 3.71369 0.5 0 0 0 -0.808892 -0.464159 0.10916 
208 0.843591 2.50924 3.69924 0.5 0 0 0 0.234165 -2.557 0.72891 
209 1.51896 3.92171 3.16325 0.5 0 0 0 0.19641 -0.117569 0.84062 
210 1.84193 3.57401 3.51447 0.5 0 0 0 0.186011 -0.797557 0.527503 
211 1.88266 3.75203 2.61168 0.5 0 0 0 0.452312 -0.560298 0.722448 
212 1.26728 4.95011 2.96344 0.5 0 0 0 -0.263374 0.344958 0.888415 
213 2.05997 3.14168 2.58517 0.5 0 0 0 0.926626 -0.952232 0.886781 
214 1.2445 3.27321 3.65914 0.5 0 0 0 0.794281 -0.802987 0.932501 
215 0.723582 3.1322 3.31571 0.5 0 0 0 -0.405275 -0.703711 -0.116965 
216 0.44543 3.1858 3.33118 0.5 0 0 0 -1.08579 -0.46226 -0.477956 
217 2.4775 2.71685 2.75587 0.5 0 0 0 1.39739 -1.2061 0.862044 
218 2.3856 5.03043 3.71336 0.5 0 0 0 -0.964711 1.53907 0.410959 
219 1.09024 2.6149 3.18493 0.5 0 0 0 0.202243 -1.69434 0.472066 
220 2.32371 4.8339 2.95769 0.5 0 0 0 -0.618046 0.361591 0.828794 
221 1.05556 3.48504 3.60298 0.5 0 0 0 0.438444 -0.233106 0.805252 
222 2.43947 3.20194 3.06529 0.5 0 0 0 0.899436 -1.47822 0.58551 
223 1.90844 2.5835 3.33421 0.5 0 0 0 1.00392 -1.39158 0.908063 
224 0.518843 4.9229 3.11834 0.5 0 0 0 -0.68019 1.04936 -0.188438 
225 0.511127 3.84252 3.64451 0.5 0 0 0 -0.152888 0.0961829 0.347045 
226 0.9477 4.03003 2.86601 0.5 0 0 0 -0.664877 0.111371 0.686499 
227 1.10353 3.04117 3.11188 0.5 0 0 0 0.291879 -0.94649 0.135903 
228 0.260914 4.35829 2.60106 0.5 0 0 0 -1.13174 -0.263862 -0.40645 
229 0.262292 4.30495 3.51799 0.5 0 0 0 -0.21981 -0.166071 -0.264814 
230 1.60813 2.9128 3.13403 0.5 0 0 0 0.859934 -1.11713 0.637786 
234 1.25336 3.65657 3.14787 0.5 0 0 0 0.170564 -0.177641 0.462584 
232 2.45704 3.29094 3.07976 0.5 0 0 0 0.789139 -1.453 0.514952 
233 1.25657 4.7676 3.4016 0.5 0 0 0 0.262822 -0.270126 0.631748 
472 2.51545 4.84304 2.81896 0.5 0 0 0 -0.522615 0.376638 0.860435 
251 1.85862 2.53246 3.78308 0.5 0 0 0 0.796308 -1.97064 0.861894 
452 2.41993 3.93784 3.55703 0.5 0 0 0 -0.618557 -0.767737 -0.227204 
254 1.67058 4.93834 3.76207 0.5 0 0 0 -0.108498 -0.0065122 -0.126818 
197 1.56002 4.63702 2.47551 0.5 0 0 0 0.194487 -0.0431751 0.939208 
235 1.25867 4.88886 4.11646 0.5 0 0 0 -0.0651303 -0.422468 -0.500026 
236 2.01963 3.92687 3.99277 0.5 0 0 0 -1.36748 -0.449663 -0.153226 
237 0.594823 2.54955 3.92612 0.5 0 0 0 0.437815 -2.27662 0.911908 
238 0.923658 4.7717 4.37611 0.5 0 0 0 0.150068 -0.396481 -0.108948 
239 0.87188 3.75292 3.98212 0.5 0 0 0 0.547486 0.0329399 1.33282 
240 2.06139 4.5736 4.57908 0.5 0 0 0 -2.31851 1.31116 0.100647 
241 2.18404 4.38619 4.75142 0.5 0 0 0 -2.57595 0.697002 0.680984 
242 0.0972813 3.19401 4.41599 0.5 0 0 0 0.712102 -0.0226546 0.530367 
243 -0.0210868 2.72652 4.80955 0.5 0 0 0 0.478521 -2.54414 1.85159 
244 0.523831 4.91629 4.8473 0.5 0 0 0 -0.892554 0.136731 1.01533 
245 1.52927 3.07 4.9543 0.5 0 0 0 -1.28627 -1.12746 1.45295 
246 1.24538 3.71929 4.41729 0.5 0 0 0 -0.181746 -0.942087 1.03635 
247 2.42627 3.35711 3.82755 0.5 0 0 0 -0.0792565 -1.80325 -0.263734 
248 1.72736 2.6764 4.86734 0.5 0 0 0 -0.71704 -1.99976 0.51469 
249 1.67259 3.00147 4.12672 0.5 0 0 0 0.268953 -1.74657 0.717852 
250 1.29946 2.62047 3.95289 0.5 0 0 0 0.753715 -2.08432 1.28441 
259 0.587313 2.8217 3.88904 0.5 0 0 0 0.414864 -1.32141 0.940613 
258 0.0372917 2.95954 4.02069 0.5 0 0 0 -0.312615 -0.790849 -0.239205 
253 0.163214 2.67726 3.94064 0.5 0 0 0 -0.222682 -1.89761 0.00969338 
498 2.47241 3.56393 4.29258 0.5 0 0 0 -1.20941 -2.021 -0.680359 
255 0.213922 3.66474 4.84726 0.5 0 0 0 0.69625 0.25999 1.04154 
256 2.32356 4.09436 4.60624 0.5 0 0 0 -2.25478 -0.685987 -0.152648 
257 1.27312 4.24124 4.86156 0.5 0 0 0 -0.926719 -1.02028 1.44442 
260 4.00548 -0.156989 0.919829 0.5 0 0 0 -0.224141 -2.77548 0.556825 
261 3.19555 2.28939 1.1298 0.5 0 0 0 -0.76627 0.0920785 1.34743 
262 4.78767 2.0216 0.404292 0.5 0 0 0 1.76565 0.433244 -1.08041 
263 4.86349 0.626842 0.989593 0.5 0 0 0 1.1394 -1.77792 0.856583 
264 3.25883 0.915977 0.201987 0.5 0 0 0 -0.773184 0.954999 -0.970785 
265 4.90555 1.41686 1.11292 0.5 0 0 0 1.84984 0.293396 1.42061 
266 4.83436 0.647197 -0.0129391 0.5 0 0 0 0.867816 -0.263198 -3.22889 
267 3.45728 1.79731 0.886209 0.5 0 0 0 -1.61339 -0.356153 0.380707 
268 2.89322 0.522864 0.84491 0.5 0 0 0 -0.153668 -0.397535 1.69459 
269 3.96982 1.81192 0.224046 0.5 0 0 0 -1.0467 -0.483308 -2.25329 
270 3.93633 1.90246 1.01936 0.5 0 0 0 -0.967705 0.532168 1.32241 
293 3.02089 2.402 0.572196 0.5 0 0 0 -0.796743 -0.433156 0.208559 
272 4.42309 1.79277 0.741691 0.5 0 0 0 0.0471671 0.718735 0.202826 
273 4.85214 1.36363 0.800134 0.5 0 0 0 1.45533 -0.322728 -0.105104 
274 2.68345 0.714079 0.824472 0.5 0 0 0 0.231234 -0.0903807 1.49872 
275 2.53788 2.34774 0.0564431 0.5 0 0 0 -0.496783 -1.07391 -2.0581 
276 5.08107 0.0669141 0.787806 0.5 0 0 0 1.14259 -1.66558 0.654494 
294 3.1399 0.0914882 0.349253 0.5 0 0 0 0.150617 -2.31541 -0.195667 
278 3.60827 1.88445 0.935529 0.5 0 0 0 -1.47458 -0.0204908 0.739777 
279 3.71217 0.457463 0.171544 0.5 0 0 0 0.3542 -1.32189 -1.49389 
295 2.73142 1.13214 0.898667 0.5 0 0 0 -0.159648 0.170687 0.868984 
281 3.0564 0.151198 0.970874 0.5 0 0 0 -0.451413 -1.93757 1.77538 
282 3.8744 1.69556 1.09783 0.5 0 0 0 -1.31078 0.0497739 1.41503 
283 3.80612 2.33927 -0.181289 0.5 0 0 0 -1.10119 -0.928747 -3.77631 
284 4.16863 2.09977 0.500957 0.5 0 0 0 -0.298054 0.731223 -0.333585 
285 3.41145 2.33265 0.439946 0.5 0 0 0 -1.11921 -0.145078 -0.370692 
286 3.72183 0.963262 0.427496 0.5 0 0 0 -1.14005 -0.231031 -0.451751 
287 4.34117 1.03841 0.421517 0.5 0 0 0 -0.486912 -1.23542 -1.49503 
288 4.07944 1.6191 1.03376 0.5 0 0 0 -1.10333 0.123634 1.24634 
289 4.36668 1.05293 0.596491 0.5 0 0 0 -0.637144 -1.32409 -0.787515 
290 3.33103 0.992294 0.623107 0.5 0 0 0 -1.22174 0.311944 0.681983 
291 2.90505 1.0038 0.0831347 0.5 0 0 0 -0.432344 1.52788 -1.78158 
297 3.1628 0.422641 1.81526 0.5 0 0 0 -1.29626 -1.55318 0.777134 
298 3.83872 2.08749 2.17162 0.5 0 0 0 -1.14482 -0.142802 1.04439 
299 3.06608 0.73219 2.23274 0.5 0 0 0 -0.806989 -0.56365 1.53063 
323 3.16958 1.7184 1.55879 0.5 0 0 0 -0.673997 -0.158869 1.15613 
301 3.32709 1.70196 2.15388 0.5 0 0 0 -0.572197 0.0774213 1.27869 
302 3.70478 0.97047 1.80799 0.5 0 0 0 -0.872616 0.195379 1.52378 
303 3.80395 0.847812 1.94421 0.5 0 0 0 -0.641836 0.0391906 1.64931 
292 4.33293 1.2853 1.247 0.5 0 0 0 -0.639691 -0.24934 1.77518 
305 4.06195 1.45734 1.37117 0.5 0 0 0 -1.02096 0.152806 2.08153 
306 4.61121 1.24738 1.92466 0.5 0 0 0 0.787641 -0.0452666 1.55532 
307 4.02806 0.00290091 2.16168 0.5 0 0 0 -1.98921 -2.04562 -0.125278 
308 4.72506 0.104429 2.27495 0.5 0 0 0 0.0573644 -0.247055 0.0162138 
309 3.95474 0.747126 1.92069 0.5 0 0 0 -0.468734 -0.276003 1.65562 
310 4.61075 2.32872 1.97826 0.5 0 0 0 0.484468 -0.142863 0.410056 
311 3.53785 2.25908 2.09172 0.5 0 0 0 -0.893451 0.158244 1.12886 
321 4.85074 -0.02257 2.20582 0.5 0 0 0 0.482378 -0.650834 -0.309898 
313 2.56726 1.50595 2.20377 0.5 0 0 0 0.109481 0.00596984 1.31397 
320 2.69246 1.31431 1.87261 0.5 0 0 0 0.0635675 -0.0689346 0.908774 
315 3.26739 0.871674 1.95479 0.5 0 0 0 -0.804988 -0.121818 1.16741 
316 4.50045 1.00423 2.30412 0.5 0 0 0 0.307749 0.0216569 0.921411 
317 4.42454 1.96834 2.33396 0.5 0 0 0 -0.426081 -0.75755 0.429069 
318 3.62757 0.6471 1.4244 0.5 0 0 0 -1.29706 -0.894217 0.717593 
319 3.17122 2.16817 1.97116 0.5 0 0 0 -0.361797 0.250621 1.24401 
271 4.89445 1.59839 1.20694 0.5 0 0 0 1.99255 1.05744 1.8676 
19 2.58919 1.86325 1.1735 0.5 0 0 0 0.0130815 -0.264312 0.539884 
280 3.82517 0.808421 1.18765 0.5 0 0 0 -1.36633 -0.816544 0.795744 
300 4.20682 2.38482 1.22812 0.5 0 0 0 -0.0437617 0.850109 1.85773 
296 4.29953 0.620868 1.1735 0.5 0 0 0 -0.391181 -1.69163 0.799802 
277 3.47973 2.13585 1.1768 0.5 0 0 0 -1.08776 0.311782 1.56493 
324 4.20049 1.07209 3.60419 0.5 0 0 0 -1.49448 0.447583 -0.557441 
325 3.13525 0.346654 3.34054 0.5 0 0 0 -3.12534 -1.26458 1.3376 
326 3.66739 1.472 3.67458 0.5 0 0 0 -1.94329 -0.405525 -0.0547133 
327 4.15864 1.37272 2.56514 0.5 0 0 0 -0.879733 -0.248774 0.532214 
328 3.56054 0.746071 2.82266 0.5 0 0 0 -1.23031 0.197359 0.970863 
329 4.6547 1.8582 2.76121 0.5 0 0 0 0.28743 -1.6068 -0.422594 
330 3.37921 1.61927 3.26274 0.5 0 0 0 -1.49016 -0.393447 0.61296 
331 4.42014 1.68675 3.2659 0.5 0 0 0 -1.11423 -1.26887 -0.407869 
332 4.72992 0.335377 2.57276 0.5 0 0 0 0.295618 0.868832 -0.287311 
333 2.66869 0.745657 3.45056 0.5 0 0 0 -3.12681 -1.52281 2.1903 
334 4.39709 0.492247 3.23252 0.5 0 0 0 -0.533109 0.856185 -1.84105 
335 5.05887 2.33764 2.86349 0.5 0 0 0 3.04185 -1.00715 -0.903826 
336 4.05519 0.349996 3.25553 0.5 0 0 0 -1.75578 0.276348 -0.965894 
350 2.94785 1.6205 2.671 0.5 0 0 0 -0.331927 -0.231875 1.44434 
338 2.75765 1.04701 3.70241 0.5 0 0 0 -3.05275 -1.44822 1.35404 
339 2.70521 0.895144 2.70662 0.5 0 0 0 -1.0301 -1.15819 2.43858 
340 2.93398 1.02899 3.59673 0.5 0 0 0 -2.76061 -1.00176 1.23852 
341 4.47472 1.99479 3.43292 0.5 0 0 0 -1.11103 -1.62629 0.0347175 
342 4.92134 1.88468 3.61398 0.5 0 0 0 1.08784 -1.75804 0.255068 
343 3.24144 1.5906 2.6238 0.5 0 0 0 -0.676343 -0.187424 1.25355 
349 4.1968 -0.0384105 3.21981 0.5 0 0 0 -1.68687 -1.34802 -1.61057 
345 3.47823 0.0426583 3.05536 0.5 0 0 0 -2.73637 -2.21434 0.525288 
346 3.69693 0.812519 3.53319 0.5 0 0 0 -2.44883 0.196045 0.133091 
347 2.80181 1.66491 2.63693 0.5 0 0 0 -0.102903 -0.190707 1.44764 
348 2.63913 1.65882 2.67644 0.5 0 0 0 0.0402831 -0.424353 1.55994 
352 4.94759 1.25163 3.70678 0.5 0 0 0 1.53043 -0.080429 -0.468114 
469 4.12804 2.45323 2.60915 0.5 0 0 0 -1.94933 -0.327567 -0.220484 
304 2.73537 0.148576 2.52863 0.5 0 0 0 -1.73135 -2.67701 1.93466 
384 4.55124 0.313804 3.78158 0.5 0 0 0 -1.08603 0.714407 -1.93757 
351 4.81681 0.43318 4.13216 0.5 0 0 0 0.535577 1.28441 -0.25548 
381 3.28514 1.873 4.23842 0.5 0 0 0 -1.69194 -1.05931 -1.0476 
353 3.42786 1.25797 4.13506 0.5 0 0 0 -2.4125 -0.74175 -0.231638 
354 3.93464 1.93868 4.94642 0.5 0 0 0 -0.469372 -0.731157 1.15881 
355 4.89446 2.33384 4.0075 0.5 0 0 0 0.31339 -1.36286 1.33106 
356 4.4518 -0.173161 4.76969 0.5 0 0 0 -1.85997 -2.81268 1.58573 
383 4.13179 0.484747 4.99291 0.5 0 0 0 -2.19928 0.864382 2.5647 
358 5.09289 1.5728 4.75784 0.5 0 0 0 1.28532 -0.321776 1.6589 
359 3.01964 1.92093 4.29427 0.5 0 0 0 -1.64711 -1.29442 -1.07772 
360 4.55823 0.29484 4.19705 0.5 0 0 0 -1.20756 0.680686 -0.312409 
361 5.0107 2.27456 4.16295 0.5 0 0 0 0.815391 -1.71611 1.74492 
362 4.17112 0.254776 4.2464 0.5 0 0 0 -3.31801 0.0156735 -0.205696 
363 3.91129 0.319091 4.53698 0.5 0 0 0 -4.12043 -0.228981 0.557649 
364 2.66473 1.94634 4.90104 0.5 0 0 0 -2.03352 -1.87523 0.775542 
365 3.16969 1.79581 4.59542 0.5 0 0 0 -1.63186 -1.5283 -0.429084 
366 4.61143 0.911569 4.1486 0.5 0 0 0 -0.161771 1.71034 0.501465 
367 3.81677 -0.0602544 3.84489 0.5 0 0 0 -4.38243 -2.2111 0.189249 
368 4.06429 1.84855 4.28442 0.5 0 0 0 -1.15825 -0.718818 -0.0177387 
369 3.4942 1.48242 4.35656 0.5 0 0 0 -1.88363 -0.95365 -0.468765 
370 2.82998 0.44328 4.66007 0.5 0 0 0 -3.54664 -1.08073 0.0900134 
371 4.72583 0.250739 4.64225 0.5 0 0 0 0.353997 0.645391 1.6131 
382 3.88418 0.944613 3.84084 0.5 0 0 0 -2.45408 0.362165 -0.0352635 
373 4.63289 0.300493 3.94053 0.5 0 0 0 -0.77689 0.734395 -1.37525 
374 4.53401 0.486204 4.04811 0.5 0 0 0 -1.13014 1.24201 -0.778741 
375 5.03448 0.0100952 4.98313 0.5 0 0 0 3.59468 -1.18704 3.20922 
376 4.10392 1.60789 4.6828 0.5 0 0 0 -0.582521 -0.440851 0.453435 
377 4.01537 2.10371 5.10767 0.5 0 0 0 -0.109927 -0.494931 2.13385 
378 2.91759 1.64263 5.01092 0.5 0 0 0 -1.9286 -2.16826 1.57485 
379 3.53377 0.926494 5.07409 0.5 0 0 0 -2.38331 -0.425518 1.83409 
380 3.06476 2.29047 4.29765 0.5 0 0 0 -1.41921 -1.25233 -1.06822 
385 2.72743 3.16667 0.678626 0.5 0 0 0 -0.259399 0.0375845 0.477844 
386 4.46001 4.72631 0.0499701 0.5 0 0 0 0.670229 0.329318 -0.709553 
387 3.86554 3.94207 0.138871 0.5 0 0 0 0.119307 -0.411036 -0.427988 
388 4.3202 4.0172 1.07919 0.5 0 0 0 -0.817708 -0.172848 -1.10385 
389 3.81849 3.08829 0.794955 0.5 0 0 0 -0.593883 0.0886637 0.75539 
390 3.64731 4.11213 0.128382 0.5 0 0 0 0.090084 -0.59731 0.0534274 
391 5.05323 4.32999 1.0758 0.5 0 0 0 2.14321 1.08716 -1.29528 
392 4.88878 2.67893 0.295458 0.5 0 0 0 1.32134 0.36515 -0.297488 
393 4.52615 4.58373 0.677719 0.5 0 0 0 -0.014865 1.27498 -0.99157 
394 2.76375 2.92559 1.08837 0.5 0 0 0 0.0172059 -0.151016 1.3011 
395 4.91111 2.95983 0.998606 0.5 0 0 0 1.35501 -0.497222 1.14153 
396 4.08242 3.07659 0.0175089 0.5 0 0 0 -0.343921 0.450826 -1.52533 
397 5.07977 4.04744 0.825045 0.5 0 0 0 2.38244 -0.0624853 -1.6306 
398 2.92734 4.94157 0.00821592 0.5 0 0 0 -0.47711 2.03752 -1.50092 
399 3.38818 4.92149 0.588321 0.5 0 0 0 0.578029 1.09103 -0.330974 
400 3.33768 4.51273 0.419337 0.5 0 0 0 0.195512 -0.603881 0.275917 
401 3.37373 2.65717 0.0719871 0.5 0 0 0 -0.978803 -0.396988 -1.6503 
402 2.72655 3.11912 0.688008 0.5 0 0 0 -0.262869 0.00999136 0.537501 
403 4.76397 3.22272 0.182959 0.5 0 0 0 0.431356 0.481352 -1.34408 
404 4.20748 2.63552 0.142009 0.5 0 0 0 -0.164169 0.531421 -0.893989 
405 4.05946 4.87616 -0.0238896 0.5 0 0 0 0.282837 0.873238 -0.164245 
406 4.20552 3.58907 1.03062 0.5 0 0 0 -0.8874 -0.743116 -0.290763 
407 2.81353 4.2113 -0.0113333 0.5 0 0 0 -0.346717 -0.769308 -1.25042 
408 4.9935 3.11745 0.424442 0.5 0 0 0 1.24835 -0.0506781 -0.253471 
409 3.77205 3.30856 0.562627 0.5 0 0 0 -0.53592 0.0681024 0.0361901 
410 3.87007 2.62726 0.885776 0.5 0 0 0 -0.532558 0.71411 1.23165 
411 4.18383 2.65307 1.06402 0.5 0 0 0 -0.135377 0.559409 1.46066 
412 3.09159 3.18162 0.446709 0.5 0 0 0 -0.480438 0.0500477 0.0614999 
413 2.9187 3.71694 0.925145 0.5 0 0 0 -0.225708 -0.363133 0.330759 
414 2.70955 4.48431 0.643286 0.5 0 0 0 -0.107197 -0.930281 0.142364 
415 2.6388 4.93667 1.11349 0.5 0 0 0 -1.07918 0.886346 -0.319909 
417 3.0858 3.60768 0.193225 0.5 0 0 0 -0.439152 -0.300429 -0.622331 
418 4.81607 4.17572 1.6567 0.5 0 0 0 0.591399 -0.344385 0.0452563 
419 2.97104 3.77731 2.20128 0.5 0 0 0 0.527153 -1.67744 0.597779 
420 4.87673 3.94973 2.41375 0.5 0 0 0 0.274856 -1.57636 0.677227 
421 4.8751 4.57039 1.80973 0.5 0 0 0 1.01155 1.67479 -0.455591 
422 4.26911 4.54909 1.75393 0.5 0 0 0 0.21063 0.978854 0.159597 
423 3.64883 4.60708 1.39654 0.5 0 0 0 0.361042 0.133717 -1.23183 
424 4.35686 3.80958 1.43822 0.5 0 0 0 -0.729192 -1.16536 0.524539 
425 2.78397 3.15329 1.33965 0.5 0 0 0 0.223673 -0.293638 1.28222 
426 3.24265 4.5535 2.11577 0.5 0 0 0 0.105238 -0.908419 1.66015 
427 3.29534 4.61706 1.65763 0.5 0 0 0 -0.180088 -0.610712 -0.144504 
428 4.92768 4.3107 2.00987 0.5 0 0 0 0.632401 -0.199133 0.0995217 
429 3.19584 4.83428 1.72876 0.5 0 0 0 -0.356615 0.283537 0.170777 
430 2.95764 4.84836 1.32106 0.5 0 0 0 -0.875953 0.354232 -0.984288 
431 3.50765 2.67592 2.37492 0.5 0 0 0 -0.874498 -0.138903 0.589053 
432 3.95776 2.50817 1.48 0.5 0 0 0 -0.67497 0.42767 1.94295 
433 2.74246 4.35531 2.39777 0.5 0 0 0 -0.216765 -1.01734 0.87357 
434 3.13473 4.50779 1.94043 0.5 0 0 0 -0.332032 -1.07923 0.870701 
435 3.61635 4.6595 1.62657 0.5 0 0 0 0.532141 0.0850876 -0.176538 
436 3.34107 3.27577 2.05506 0.5 0 0 0 -0.141778 -0.940354 0.961152 
437 3.80655 3.98331 1.78453 0.5 0 0 0 -0.714602 -1.51622 0.940789 
438 5.00234 3.5283 1.86043 0.5 0 0 0 1.73064 -1.93274 0.236754 
439 4.48504 4.48045 2.45637 0.5 0 0 0 -0.699921 0.100575 1.44688 
440 2.64624 3.87468 2.23009 0.5 0 0 0 0.374702 -1.16792 0.24791 
441 2.92967 4.74914 2.12021 0.5 0 0 0 -0.681671 -0.00188225 1.10788 
442 3.06368 4.58908 1.3818 0.5 0 0 0 -0.702513 -0.753024 -1.05747 
443 3.87393 4.1195 1.96441 0.5 0 0 0 -0.426179 -1.36556 1.44372 
444 2.67807 4.3564 1.89243 0.5 0 0 0 -0.768882 -0.933514 -0.15771 
445 4.42925 3.75366 1.23855 0.5 0 0 0 -0.571455 -1.03449 -0.0131115 
446 4.16136 3.88014 2.29142 0.5 0 0 0 -0.97184 -1.56506 1.40262 
447 3.98413 3.83381 1.70991 0.5 0 0 0 -1.00346 -1.50692 1.02252 
448 4.54614 2.8292 2.22811 0.5 0 0 0 -0.167328 0.272968 -0.265129 
449 3.08114 3.86142 1.29596 0.5 0 0 0 -0.376897 -0.892165 0.0159962 
450 3.48301 3.36566 1.39671 0.5 0 0 0 -0.555948 -0.723554 1.08942 
416 4.43939 3.86705 1.2623 0.5 0 0 0 -0.553506 -0.823851 -0.162322 
203 2.54257 2.99444 1.48494 0.5 0 0 0 0.543078 -0.34989 1.11905 
322 2.8968 2.52125 1.8635 0.5 0 0 0 0.201435 -0.0968909 1.34303 
314 4.95153 2.49957 1.43986 0.5 0 0 0 2.18029 0.0170283 0.881071 
479 2.67201 3.66333 3.67497 0.5 0 0 0 -0.203286 -1.64077 -0.627263 
453 4.81673 2.73412 3.2535 0.5 0 0 0 0.831731 0.571461 -0.423166 
454 3.96861 3.31053 2.81272 0.5 0 0 0 -1.04519 -0.0947054 0.106195 
455 2.9786 4.28332 3.66018 0.5 0 0 0 -0.726491 -0.931985 -1.02446 
456 2.78681 4.65171 3.10914 0.5 0 0 0 -0.20322 -0.442477 0.326356 
457 3.04669 4.89391 2.94079 0.5 0 0 0 0.553132 0.687041 0.706055 
458 3.38148 3.15475 2.90913 0.5 0 0 0 -0.53657 -0.877616 0.204817 
459 4.79833 4.06689 2.63942 0.5 0 0 0 -0.128128 -1.05997 1.1475 
460 4.3388 2.93316 3.14829 0.5 0 0 0 -1.28466 1.05578 -0.479631 
461 4.46961 4.44766 2.57146 0.5 0 0 0 -0.804003 -0.0313028 1.57328 
462 4.70144 4.99919 2.54255 0.5 0 0 0 0.456889 4.60249 1.38139 
463 4.41338 2.63817 2.73773 0.5 0 0 0 -1.22615 -0.00240982 -0.778339 
464 3.08229 3.82562 3.12878 0.5 0 0 0 0.298995 -1.73462 -0.11033 
465 3.57021 3.93289 3.56067 0.5 0 0 0 0.454595 -1.22724 -1.19876 
466 4.19207 2.57746 3.01757 0.5 0 0 0 -2.12596 -0.251446 -0.640511 
467 3.47467 4.4369 3.46201 0.5 0 0 0 0.871063 -0.333503 -0.872501 
468 4.83205 2.71881 2.53954 0.5 0 0 0 1.39737 0.238162 -0.966751 
344 4.1894 2.52632 3.41191 0.5 0 0 0 -2.05249 -0.494549 0.00249177 
470 4.4847 2.5291 3.64937 0.5 0 0 0 -1.05987 -0.473938 0.538396 
471 3.84038 4.76543 3.03905 0.5 0 0 0 0.428606 1.21799 0.489387 
451 2.79986 3.79809 2.4996 0.5 0 0 0 0.673144 -1.5034 0.668456 
473 2.91846 5.0861 3.74857 0.5 0 0 0 -0.149568 2.67784 0.232582 
474 4.50733 2.85757 3.6255 0.5 0 0 0 -0.7109 1.04256 0.308577 
478 3.98901 2.61315 3.41298 0.5 0 0 0 -2.49933 -0.21602 -0.0580472 
476 4.67836 3.70549 3.01079 0.5 0 0 0 0.0893609 -0.00660002 0.817198 
477 2.80107 4.25512 2.56629 0.5 0 0 0 0.0882388 -1.26938 0.940736 
337 4.00854 2.47712 3.28526 0.5 0 0 0 -2.56713 -0.587897 -0.210853 
475 4.80452 4.05407 3.78608 0.5 0 0 0 0.939242 -0.0504961 -0.155896 
480 3.58953 3.80889 4.79313 0.5 0 0 0 1.28071 -1.32205 0.955242 
481 4.13979 3.02608 4.95778 0.5 0 0 0 -0.26803 -1.47018 2.14231 
482 3.77861 3.59844 4.0078 0.5 0 0 0 0.42067 -0.998538 -1.09699 
483 4.4053 4.8875 4.10611 0.5 0 0 0 0.262969 0.500338 -1.75145 
484 3.17257 4.00242 3.9681 0.5 0 0 0 -0.446859 -1.44898 -1.51118 
485 3.66542 3.93623 4.40886 0.5 0 0 0 1.30965 -0.835991 -0.600775 
486 4.72062 4.70312 4.34975 0.5 0 0 0 -0.0982163 -0.899044 -1.36614 
487 3.2799 3.12528 4.27902 0.5 0 0 0 -0.664685 -1.98183 -0.831753 
488 4.67013 3.1766 4.66622 0.5 0 0 0 0.0223129 0.0686087 0.971237 
489 3.35019 4.83712 5.08972 0.5 0 0 0 -0.173309 3.09047 3.98347 
490 3.58041 3.44622 4.24509 0.5 0 0 0 -0.0363299 -1.73959 -0.884342 
491 3.71318 4.11091 4.82948 0.5 0 0 0 2.05148 -0.117124 1.33695 
492 2.66401 3.19063 4.79124 0.5 0 0 0 -1.28707 -2.59102 0.92301 
493 4.51494 3.66926 4.72374 0.5 0 0 0 1.18584 0.523241 0.678188 
494 3.42613 3.64515 5.12503 0.5 0 0 0 0.777744 -2.09054 3.3119 
495 2.6833 4.06724 4.41671 0.5 0 0 0 -1.0538 -0.908406 -1.15865 
496 2.62237 3.80936 4.95756 0.5 0 0 0 -1.37839 -1.77674 1.45777 
497 3.38169 4.37698 3.94441 0.5 0 0 0 0.446708 -0.250725 -1.31609 
357 3.44985 2.4954 4.63855 0.5 0 0 0 -0.880718 -1.29876 0.135071 
499 3.95608 2.50646 4.05608 0.5 0 0 0 -1.53383 -0.749096 0.251146 
500 4.65467 4.93223 4.97399 0.5 0 0 0 -0.725054 -0.119522 1.69273 
501 4.62616 4.8156 4.90394 0.5 0 0 0 -0.283514 -0.293763 1.29267 
502 2.68187 3.97566 4.77886 0.5 0 0 0 -0.998942 -1.16849 0.287558 
503 2.93975 4.25916 4.55901 0.5 0 0 0 -0.375662 -0.128637 -0.685923 
504 3.55114 3.30536 4.29101 0.5 0 0 0 -0.234627 -1.87482 -0.698629 
505 3.69577 4.8226 4.28552 0.5 0 0 0 1.42019 1.77452 -0.194307 
506 4.09436 4.02173 3.97424 0.5 0 0 0 1.82446 0.0294015 -0.947294 
507 4.9127 2.81898 3.94309 0.5 0 0 0 0.483209 0.990039 0.557312 
508 2.87514 3.92811 4.68635 0.5 0 0 0 -0.391778 -1.40771 -0.269403 
509 3.30514 4.75551 4.40391 0.5 0 0 0 0.178862 1.78588 -0.100206 
510 3.08449 4.49512 4.06087 0.5 0 0 0 -0.596031 0.201672 -1.22211 
511 2.64438 3.03166 4.50455 0.5 0 0 0 -1.02999 -2.20828 -0.12621 
512 2.66599 2.8248 4.36838 0.5 0 0 0 -0.84705 -1.88597 -0.442517 
513 4.86973 3.02688 4.29851 0.5 0 0 0 0.304334 1.03365 0.591122 
ITEM: TIMESTEP
60063
ITEM: NUMBER OF ATOMS
512
ITEM: BOX BOUNDS ss ss ss
-2.1589663964569298e-02 5.0933846546203574e+00
-1.7364439631764822e-01 5.0865807164741392e+00
-1.8176655292622759e-01 5.1255068607205727e+00
ITEM: ATOMS id x y z width_SPH x_COM y_COM z_COM vx vy vz 
2 0.30106 0.775933 0.24686 0.5 0 0 0 -1.37924 -0.57949 0.0688274 
3 0.259435 1.291 0.605721 0.5 0 0 0 -2.08434 -0.964646 0.287763 
4 0.787479 1.24764 1.03676 0.5 0 0 0 -0.386223 -0.340102 0.749189 
5 1.73539 1.8934 0.823938 0.5 0 0 0 0.95852 0.352092 0.221138 
6 0.274194 2.07866 0.848533 0.5 0 0 0 -2.11842 0.860417 1.1665 
7 0.546655 1.58453 0.342546 0.5 0 0 0 -0.688659 -0.372066 -0.682075 
8 1.33606 0.225897 0.773365 0.5 0 0 0 0.0500272 -0.685413 1.18408 
9 1.53469 0.986432 0.331378 0.5 0 0 0 0.774042 0.260692 -0.74735 
10 1.11158 1.53603 -0.0685578 0.5 0 0 0 0.983781 -0.388489 -2.84956 
11 1.39605 1.22774 0.796169 0.5 0 0 0 0.782288 0.130026 0.282648 
38 1.08307 2.32881 0.77665 0.5 0 0 0 0.516831 0.42177 0.86294 
41 2.23084 2.37931 1.0229 0.5 0 0 0 0.351361 -0.202258 0.556559 
14 1.26049 2.06321 0.329271 0.5 0 0 0 1.32262 0.117811 -0.380252 
15 1.54694 0.039474 0.976126 0.5 0 0 0 1.23301 -1.50687 2.12371 
37 0.636904 0.390264 0.353984 0.5 0 0 0 -1.47727 -0.586525 0.379728 
17 1.08138 0.119434 0.519717 0.5 0 0 0 -1.29665 -0.687375 0.538471 
18 1.50826 -0.0164892 0.0458961 0.5 0 0 0 0.0210321 -0.949713 -1.15223 
40 1.99513 0.669574 0.604465 0.5 0 0 0 1.39259 -0.197975 0.904834 
20 0.369818 1.75927 1.04789 0.5 0 0 0 -1.73133 0.35002 1.28563 
21 1.878 1.79469 0.745542 0.5 0 0 0 1.08069 0.226349 -0.00310399 
22 0.552786 2.4223 0.409939 0.5 0 0 0 -0.558242 0.212976 0.657487 
39 0.791152 1.5785 0.8102 0.5 0 0 0 0.140691 0.227589 0.408949 
24 0.00340588 0.598285 0.0816947 0.5 0 0 0 -2.72793 -0.779881 -0.133715 
25 1.95436 0.260599 0.581883 0.5 0 0 0 1.68403 -0.755037 1.36422 
26 1.35581 0.890949 0.584786 0.5 0 0 0 0.399578 0.0193295 -0.00984476 
27 0.864668 1.8141 0.900154 0.5 0 0 0 0.377402 0.67089 0.691813 
28 2.15664 0.959747 0.359459 0.5 0 0 0 0.883537 0.501565 -0.229978 
29 2.42448 1.35996 0.269407 0.5 0 0 0 0.107995 1.01775 -1.19044 
30 1.3992 0.24243 0.884064 0.5 0 0 0 0.488741 -0.821776 1.45701 
31 1.65838 1.51848 0.685685 0.5 0 0 0 1.20236 0.362138 0.01021 
32 1.30153 2.09592 0.250955 0.5 0 0 0 1.47633 0.00634585 -0.708889 
33 1.46276 1.14326 0.721759 0.5 0 0 0 0.856794 0.0701301 0.199783 
34 0.622255 2.08924 -0.0271264 0.5 0 0 0 -0.447976 -0.575367 -2.02293 
35 1.77116 0.0448071 -0.128822 0.5 0 0 0 1.17614 -0.864599 -2.25453 
36 0.968307 0.88323 0.0786149 0.5 0 0 0 0.0956047 0.0328193 -1.47963 
144 0.0211979 2.45507 0.11457 0.5 0 0 0 -3.16815 -0.780058 -1.09894 
43 1.54524 0.0677239 1.95232 0.5 0 0 0 1.54678 -2.05892 2.27932 
44 1.36472 2.35713 1.90941 0.5 0 0 0 0.773295 -0.347981 0.538701 
45 1.3338 1.11988 1.48553 0.5 0 0 0 0.476507 -0.198917 1.55749 
46 1.38771 2.23672 2.32626 0.5 0 0 0 0.773071 -0.84967 1.17322 
47 1.3959 1.26087 1.91897 0.5 0 0 0 -0.0998361 -0.503566 2.36784 
48 1.18006 0.812492 1.47866 0.5 0 0 0 0.169857 -0.426951 1.76227 
49 2.47935 2.34211 1.69817 0.5 0 0 0 0.558021 -0.173281 1.19152 
50 0.891248 0.60888 1.67019 0.5 0 0 0 -1.0794 -0.542175 2.51079 
51 1.96893 0.939585 1.80624 0.5 0 0 0 0.474669 -1.0968 1.64682 
52 0.671607 1.64139 1.3334 0.5 0 0 0 -0.669181 0.0976829 1.61563 
53 2.1247 1.44177 1.71791 0.5 0 0 0 0.456196 0.1236 0.952328 
54 0.390183 0.0429162 2.20343 0.5 0 0 0 -1.55321 -1.25146 0.557981 
55 1.73185 1.84185 1.70753 0.5 0 0 0 0.650515 0.164895 0.906619 
16 2.25736 2.0163 1.1787 0.5 0 0 0 0.457634 -0.0719256 0.552917 
57 2.38803 1.07706 1.62869 0.5 0 0 0 0.472617 -0.693356 0.755431 
58 1.78529 0.14919 2.23911 0.5 0 0 0 1.0327 -2.02272 2.71634 
59 1.24236 0.5826 2.3788 0.5 0 0 0 0.260583 -0.272332 3.92136 
60 0.669149 1.69642 1.57452 0.5 0 0 0 -0.979959 -0.221875 2.09608 
61 1.33412 0.300397 1.71432 0.5 0 0 0 0.887254 -1.21202 2.26359 
78 1.05745 1.89882 1.61753 0.5 0 0 0 0.147239 0.00053836 1.16133 
63 2.01583 1.57785 2.03482 0.5 0 0 0 0.300772 -0.0541824 1.40504 
64 0.517035 0.357618 2.37908 0.5 0 0 0 -0.565304 0.53038 2.62106 
65 1.06184 1.77544 2.19874 0.5 0 0 0 -0.468626 -1.40529 2.12134 
66 2.34198 0.861942 2.01783 0.5 0 0 0 0.026497 -1.35148 1.67451 
67 1.10297 0.688532 2.02628 0.5 0 0 0 -0.32792 -0.22186 3.45708 
68 2.05806 1.47707 1.72367 0.5 0 0 0 0.443873 0.165834 1.00095 
69 1.40306 0.742944 2.26943 0.5 0 0 0 -0.0127433 -0.601965 3.56703 
77 0.387391 1.54418 1.42855 0.5 0 0 0 -2.22893 -0.477393 2.4253 
71 0.737603 0.532103 1.43848 0.5 0 0 0 -1.94546 -0.911214 1.66723 
72 1.00639 2.24107 2.44178 0.5 0 0 0 0.00218821 -1.25805 1.46171 
73 2.05738 1.03318 1.69109 0.5 0 0 0 0.568055 -0.882773 1.23015 
74 2.23184 1.01521 2.36174 0.5 0 0 0 -0.384271 -1.45768 2.51907 
75 0.0297673 2.3112 2.22173 0.5 0 0 0 -2.35307 -1.61491 0.70545 
76 0.971334 1.10814 1.45356 0.5 0 0 0 -0.382592 -0.281273 1.81093 
12 1.34529 1.51116 1.24545 0.5 0 0 0 0.683743 0.377326 0.874134 
13 1.86621 1.32627 1.25809 0.5 0 0 0 0.997022 -0.056049 0.66232 
312 2.49224 -0.0785489 1.66922 0.5 0 0 0 -0.146803 -2.94599 1.29966 
42 1.22906 0.72634 1.23556 0.5 0 0 0 0.353159 -0.502418 1.15911 
79 1.43519 2.24237 3.26306 0.5 0 0 0 0.0223932 -2.28934 1.21438 
80 0.722438 0.183724 2.71177 0.5 0 0 0 1.47956 0.523542 2.97284 
81 1.07277 0.41499 2.90581 0.5 0 0 0 1.6268 0.318611 4.42174 
82 1.30862 1.94323 2.75296 0.5 0 0 0 -0.307578 -2.04016 1.91002 
83 1.70365 2.04278 2.87994 0.5 0 0 0 0.281035 -1.5293 1.51929 
84 1.24767 0.840088 3.7174 0.5 0 0 0 1.33462 -3.77963 4.56276 
85 2.02471 1.84019 2.82634 0.5 0 0 0 0.380632 -1.35916 1.64399 
106 1.36418 1.31962 2.61108 0.5 0 0 0 -0.890026 -2.18676 3.25929 
87 0.898792 2.29174 3.34264 0.5 0 0 0 -0.293882 -2.93013 0.78528 
88 1.94612 1.38119 2.97942 0.5 0 0 0 -0.745022 -2.92609 2.85484 
89 1.47552 0.236482 3.78195 0.5 0 0 0 0.219587 1.79092 4.58124 
100 0.580246 2.1647 2.54007 0.5 0 0 0 -0.486533 -1.98829 1.75438 
91 1.72848 1.44583 2.74128 0.5 0 0 0 -0.619515 -2.4381 2.67729 
92 0.127768 2.0969 2.8373 0.5 0 0 0 -1.29457 -2.82372 1.55056 
93 0.715283 0.310072 2.79201 0.5 0 0 0 1.35814 0.930436 3.27144 
94 1.45135 1.94301 2.62581 0.5 0 0 0 0.0977435 -1.5954 1.72401 
95 2.18938 2.14758 3.16346 0.5 0 0 0 0.868271 -1.23577 1.36448 
96 0.94979 1.87738 2.59394 0.5 0 0 0 -0.661388 -2.26223 2.27307 
97 1.79655 0.470845 3.60667 0.5 0 0 0 -2.34268 -1.28823 5.27513 
98 0.273038 1.57184 2.88924 0.5 0 0 0 -0.472639 -2.69568 1.99016 
99 2.15148 1.76573 3.33725 0.5 0 0 0 -0.0623675 -2.43028 1.94137 
105 0.748308 0.114092 3.13351 0.5 0 0 0 2.42397 0.805876 3.07572 
186 0.405523 2.44494 2.60323 0.5 0 0 0 -0.46635 -1.47822 1.20444 
102 1.84309 1.71236 3.01666 0.5 0 0 0 -0.358364 -2.45645 2.17471 
103 0.428592 1.0381 3.214 0.5 0 0 0 1.28692 -1.21718 2.32733 
231 1.26226 2.35114 3.50858 0.5 0 0 0 0.166538 -2.64009 0.961317 
62 2.18333 1.76448 2.56416 0.5 0 0 0 0.450542 -0.647149 1.47222 
131 1.85477 1.65839 3.77351 0.5 0 0 0 -0.99388 -4.30601 2.03119 
56 2.44014 0.522576 2.48152 0.5 0 0 0 -0.939961 -1.83358 2.60198 
107 1.79924 0.179194 4.53985 0.5 0 0 0 -2.45807 2.41504 -3.09041 
108 1.07474 1.5009 4.4532 0.5 0 0 0 2.22988 -3.92924 -0.410831 
109 1.8042 0.539855 4.27431 0.5 0 0 0 -4.08353 -0.27017 -1.06226 
110 1.90996 0.686712 4.17965 0.5 0 0 0 -4.68672 -2.33692 0.53529 
139 1.01001 0.534252 4.84211 0.5 0 0 0 4.1836 -0.557562 -2.80628 
112 1.75816 0.698004 4.66542 0.5 0 0 0 -1.94914 -1.78472 -4.66967 
113 1.92756 1.25304 4.43647 0.5 0 0 0 -2.16241 -4.87591 -0.595467 
114 0.873005 0.925233 4.48011 0.5 0 0 0 4.97027 -2.01788 -2.19318 
115 1.8402 0.570505 4.4682 0.5 0 0 0 -3.72982 -0.56368 -3.38051 
116 0.780063 0.159624 4.3033 0.5 0 0 0 4.86711 0.454707 -1.14695 
117 0.976223 0.936273 4.21247 0.5 0 0 0 4.88944 -3.28009 -0.842639 
138 0.0273678 1.19267 4.38545 0.5 0 0 0 0.0333253 -1.92577 0.369818 
119 0.767839 1.80937 4.39848 0.5 0 0 0 1.55617 -2.82258 0.538749 
120 1.48918 0.684115 4.13282 0.5 0 0 0 0.291244 -2.8154 1.22395 
121 1.88097 0.771565 3.94802 0.5 0 0 0 -3.88998 -3.61014 3.38588 
122 0.203655 -0.13603 4.07609 0.5 0 0 0 1.17964 -1.13947 0.14048 
123 1.22008 0.0988042 4.57303 0.5 0 0 0 3.27564 1.89723 -2.95644 
124 0.694229 0.48942 4.10319 0.5 0 0 0 4.98925 -0.112385 -0.71523 
125 1.57983 0.38811 4.1862 0.5 0 0 0 -1.13381 2.13349 0.184414 
126 1.3239 0.54761 4.31047 0.5 0 0 0 3.6289 -0.260702 -2.29473 
127 1.22247 2.04543 4.70511 0.5 0 0 0 0.529124 -2.49874 0.738639 
128 1.13274 0.893317 4.24917 0.5 0 0 0 4.63133 -3.84392 -1.04819 
129 0.15721 1.59082 4.15841 0.5 0 0 0 1.00236 -2.69924 -0.13048 
130 0.546442 0.82848 4.34958 0.5 0 0 0 3.60307 -1.03142 -1.4043 
137 0.139754 2.14503 3.86316 0.5 0 0 0 -0.174282 -3.34824 -0.349412 
132 2.24816 1.87939 3.83284 0.5 0 0 0 -0.369865 -2.65507 1.08222 
133 1.36569 0.564185 4.27385 0.5 0 0 0 2.91093 -0.547892 -1.67087 
134 1.70918 2.16355 4.92569 0.5 0 0 0 -0.345931 -2.30073 0.356008 
135 2.26418 0.167801 4.66814 0.5 0 0 0 -2.70251 -0.457183 -0.977999 
136 1.59585 1.61781 4.25902 0.5 0 0 0 -0.174894 -5.05047 0.59822 
86 1.99543 1.44376 3.89322 0.5 0 0 0 -1.58178 -4.76343 2.01598 
252 1.97124 2.3346 4.62375 0.5 0 0 0 -0.380414 -2.50462 -0.187749 
372 2.44556 0.703625 4.33782 0.5 0 0 0 -4.5817 -1.3111 -0.490299 
111 1.47988 2.39443 3.94322 0.5 0 0 0 0.573431 -2.60433 1.12602 
90 1.33534 1.25021 3.83517 0.5 0 0 0 0.044224 -5.92791 2.6981 
104 1.86757 1.04361 3.82196 0.5 0 0 0 -2.65237 -5.30344 3.6285 
118 2.5096 1.67311 4.55116 0.5 0 0 0 -2.00908 -2.35965 -0.414621 
101 1.63831 0.949601 3.80757 0.5 0 0 0 -1.76192 -5.38802 4.48008 
140 2.46899 2.49534 0.521337 0.5 0 0 0 -0.128914 -0.49712 0.092541 
141 0.969151 3.25075 0.881213 0.5 0 0 0 -0.687564 -0.0542352 0.7632 
142 1.05819 3.61895 0.280844 0.5 0 0 0 0.0762437 0.567454 -0.305154 
143 0.61329 3.01274 0.597914 0.5 0 0 0 -0.779397 -0.0736889 1.18855 
167 1.34249 2.79902 0.68351 0.5 0 0 0 0.862618 -0.285236 0.459333 
168 1.60813 2.59703 0.915716 0.5 0 0 0 0.694629 -0.0649751 0.373867 
146 1.06775 3.21913 0.367263 0.5 0 0 0 0.565008 -0.407092 0.137532 
147 0.573214 4.49282 0.517004 0.5 0 0 0 1.15791 -0.171577 0.303722 
148 1.97431 3.78988 0.43388 0.5 0 0 0 0.683045 -0.368953 -0.379241 
149 0.683852 3.59681 0.09079 0.5 0 0 0 -0.320017 1.05825 -0.716987 
150 1.89594 4.42723 0.806371 0.5 0 0 0 -0.26245 0.030376 0.357109 
151 0.0449932 3.44437 0.106179 0.5 0 0 0 -1.64537 0.617892 -0.0464747 
152 1.35725 3.63101 1.14384 0.5 0 0 0 0.113066 -0.00935302 0.199494 
153 2.20121 4.40131 0.25887 0.5 0 0 0 -0.252416 -0.133621 -0.978015 
154 2.33911 4.58275 0.684233 0.5 0 0 0 -0.385027 -0.35566 0.255403 
155 1.29543 3.739 0.711872 0.5 0 0 0 -0.0563006 0.396029 0.295768 
156 0.448863 4.37762 1.05829 0.5 0 0 0 -0.637568 -0.993278 1.12881 
157 2.28879 2.65211 1.12402 0.5 0 0 0 0.333601 -0.230738 0.723502 
158 1.97601 4.15403 0.97527 0.5 0 0 0 0.404543 -0.540374 0.510206 
159 1.30202 3.80287 0.707774 0.5 0 0 0 -0.13202 0.516291 0.25898 
160 2.25978 2.64393 -0.0732907 0.5 0 0 0 -0.478497 -0.501439 -2.67301 
23 0.962132 2.54199 0.248238 0.5 0 0 0 0.775282 -0.195282 -0.0476476 
162 1.69243 3.28376 0.688212 0.5 0 0 0 1.10816 -0.412016 0.186951 
163 0.0413286 4.44313 0.0101779 0.5 0 0 0 0.227743 -0.443005 -0.609389 
164 2.14712 2.84689 0.191513 0.5 0 0 0 -0.0992064 -0.121549 -1.10244 
165 0.090952 3.27534 0.313757 0.5 0 0 0 -1.79344 0.16836 0.889042 
166 2.19765 3.29178 0.984014 0.5 0 0 0 0.426644 -0.0728684 0.437583 
169 0.463449 3.13038 2.39827 0.5 0 0 0 -0.761655 0.716216 0.0716925 
170 1.91534 3.15615 2.11444 0.5 0 0 0 0.850018 -0.60924 0.276107 
171 0.0731317 4.12224 2.28628 0.5 0 0 0 -2.32466 -0.638979 -1.31689 
172 1.10385 2.49108 1.83479 0.5 0 0 0 0.113731 -0.0897913 0.287133 
173 1.82174 3.36308 1.88122 0.5 0 0 0 0.624486 -0.353039 -0.192807 
174 1.26915 2.64237 1.45142 0.5 0 0 0 0.15247 0.068612 0.0522306 
175 1.5165 4.31087 1.98113 0.5 0 0 0 0.608817 -0.49225 -0.249135 
176 1.55214 2.54248 1.97066 0.5 0 0 0 1.07776 -0.38854 0.455822 
177 -0.000863346 2.86161 2.38797 0.5 0 0 0 -2.34372 0.446053 0.184772 
178 1.44946 3.12326 1.43829 0.5 0 0 0 0.262677 -0.115135 -0.0447273 
179 2.14586 3.0696 2.45798 0.5 0 0 0 1.21849 -1.0411 0.798676 
180 1.15673 3.75587 1.50516 0.5 0 0 0 -0.819961 -0.0253711 -0.175338 
181 1.90675 4.8254 1.69836 0.5 0 0 0 -0.110063 0.56915 -0.338493 
182 1.13562 4.0265 1.86656 0.5 0 0 0 -0.897756 -0.269055 -0.176383 
183 1.54777 4.578 2.2453 0.5 0 0 0 0.407825 -0.184488 0.381997 
184 0.375312 2.61523 1.7266 0.5 0 0 0 -1.25198 0.288694 -0.281885 
185 1.31385 4.74035 2.2815 0.5 0 0 0 -0.397757 0.234672 0.573749 
204 1.32468 2.72488 2.02243 0.5 0 0 0 0.411364 -0.151393 0.337883 
187 1.38995 2.59811 2.25108 0.5 0 0 0 0.729174 -0.475098 0.785665 
188 1.50496 3.99844 2.40064 0.5 0 0 0 0.211207 -0.474671 0.650973 
189 1.72033 3.51607 2.26762 0.5 0 0 0 0.268705 -0.402696 0.325114 
202 0.972527 3.69504 1.79271 0.5 0 0 0 -1.44567 -0.0254472 -0.10058 
191 2.16536 2.98689 2.46313 0.5 0 0 0 1.31928 -1.07886 0.829751 
192 1.889 3.66891 2.05625 0.5 0 0 0 0.648564 -0.477173 -0.120459 
193 0.891348 3.87886 2.43149 0.5 0 0 0 -1.1805 -0.075303 0.529387 
194 0.584986 3.06103 2.1515 0.5 0 0 0 -0.561661 0.719675 -0.131411 
195 1.99793 2.84629 1.96781 0.5 0 0 0 1.27022 -0.681295 0.435259 
196 1.34713 4.40977 1.55938 0.5 0 0 0 -0.1129 0.0288063 -0.882923 
190 1.78495 4.93381 1.1726 0.5 0 0 0 -1.13941 1.85129 -0.304661 
198 0.864717 4.5435 2.00967 0.5 0 0 0 -2.11475 0.135873 -0.143088 
199 1.34387 3.07488 2.36975 0.5 0 0 0 -0.0317972 -0.265257 0.531317 
200 2.34844 5.02929 2.31953 0.5 0 0 0 -0.796907 1.59989 0.324412 
201 0.447627 2.72568 2.13465 0.5 0 0 0 -0.55844 0.0893772 0.113411 
70 0.869077 2.53772 2.15016 0.5 0 0 0 -0.00744331 -0.379529 0.682903 
145 2.08491 2.5666 1.35062 0.5 0 0 0 0.613513 -0.220207 0.593893 
161 0.304213 3.15922 1.21596 0.5 0 0 0 -2.20416 0.586639 0.68596 
205 1.20045 3.53231 3.03398 0.5 0 0 0 0.0678488 -0.334003 0.264398 
206 1.96354 4.32896 3.03559 0.5 0 0 0 -0.110274 -0.374466 0.795705 
207 0.12525 4.09144 3.71369 0.5 0 0 0 -0.80889 -0.464161 0.10916 
208 0.843591 2.50924 3.69924 0.5 0 0 0 0.234165 -2.55699 0.728906 
209 1.51896 3.92171 3.16325 0.5 0 0 0 0.196409 -0.117571 0.840616 
210 1.84193 3.57401 3.51447 0.5 0 0 0 0.186011 -0.797558 0.527501 
211 1.88266 3.75203 2.61168 0.5 0 0 0 0.452309 -0.560297 0.722445 
212 1.26728 4.95011 2.96344 0.5 0 0 0 -0.263374 0.344954 0.888409 
213 2.05997 3.14168 2.58517 0.5 0 0 0 0.926621 -0.95223 0.886781 
214 1.2445 3.27321 3.65914 0.5 0 0 0 0.794278 -0.80299 0.932499 
215 0.723581 3.1322 3.31571 0.5 0 0 0 -0.405273 -0.703713 -0.116963 
216 0.445429 3.1858 3.33118 0.5 0 0 0 -1.08579 -0.462262 -0.477955 
217 2.4775 2.71685 2.75587 0.5 0 0 0 1.39738 -1.20609 0.862044 
218 2.3856 5.03043 3.71336 0.5 0 0 0 -0.964701 1.53906 0.410957 
219 1.09024 2.6149 3.18493 0.5 0 0 0 0.202243 -1.69434 0.472065 
220 2.32371 4.8339 2.95769 0.5 0 0 0 -0.618042 0.361586 0.82879 
221 1.05556 3.48504 3.60298 0.5 0 0 0 0.438442 -0.233111 0.805251 
222 2.43947 3.20193 3.06529 0.5 0 0 0 0.899429 -1.47822 0.58551 
223 1.90844 2.5835 3.33421 0.5 0 0 0 1.00392 -1.39158 0.908062 
224 0.518843 4.9229 3.11834 0.5 0 0 0 -0.680191 1.04936 -0.188439 
225 0.511127 3.84252 3.64451 0.5 0 0 0 -0.152886 0.0961787 0.347045 
226 0.9477 4.03003 2.86601 0.5 0 0 0 -0.664875 0.111368 0.686496 
227 1.10353 3.04117 3.11188 0.5 0 0 0 0.291879 -0.946491 0.135904 
228 0.260913 4.35829 2.60106 0.5 0 0 0 -1.13174 -0.263861 -0.406446 
229 0.262292 4.30495 3.51799 0.5 0 0 0 -0.219809 -0.166072 -0.264814 
230 1.60813 2.9128 3.13403 0.5 0 0 0 0.859931 -1.11713 0.637787 
234 1.25336 3.65657 3.14787 0.5 0 0 0 0.170563 -0.177644 0.462583 
232 2.45704 3.29094 3.07976 0.5 0 0 0 0.789133 -1.453 0.514951 
233 1.25657 4.7676 3.4016 0.5 0 0 0 0.262819 -0.270128 0.631744 
472 2.51545 4.84304 2.81896 0.5 0 0 0 -0.522612 0.376634 0.860431 
251 1.85862 2.53246 3.78308 0.5 0 0 0 0.796305 -1.97064 0.86189 
452 2.41993 3.93784 3.55703 0.5 0 0 0 -0.618555 -0.767735 -0.227203 
254 1.67058 4.93834 3.76207 0.5 0 0 0 -0.108495 -0.00651632 -0.126819 
197 1.56002 4.63702 2.47551 0.5 0 0 0 0.194488 -0.0431767 0.939203 
235 1.25867 4.88886 4.11646 0.5 0 0 0 -0.0651314 -0.422469 -0.500022 
236 2.01963 3.92687 3.99277 0.5 0 0 0 -1.36747 -0.449664 -0.153226 
237 0.594823 2.54955 3.92612 0.5 0 0 0 0.437815 -2.27661 0.911906 
238 0.923658 4.7717 4.37611 0.5 0 0 0 0.150062 -0.396481 -0.108946 
239 0.87188 3.75292 3.98212 0.5 0 0 0 0.547483 0.0329348 1.33281 
240 2.06138 4.5736 4.57908 0.5 0 0 0 -2.31848 1.31115 0.100643 
241 2.18404 4.38619 4.75142 0.5 0 0 0 -2.57593 0.696997 0.68098 
242 0.0972816 3.19401 4.41599 0.5 0 0 0 0.712104 -0.0226559 0.530367 
243 -0.0210866 2.72652 4.80956 0.5 0 0 0 0.478522 -2.54414 1.85159 
244 0.523831 4.91629 4.8473 0.5 0 0 0 -0.892551 0.136732 1.01532 
245 1.52927 3.07 4.9543 0.5 0 0 0 -1.28627 -1.12747 1.45295 
246 1.24538 3.71929 4.41729 0.5 0 0 0 -0.181746 -0.94209 1.03634 
247 2.42627 3.35711 3.82755 0.5 0 0 0 -0.0792565 -1.80325 -0.263733 
248 1.72736 2.67639 4.86734 0.5 0 0 0 -0.717038 -1.99976 0.514689 
249 1.67259 3.00147 4.12672 0.5 0 0 0 0.268952 -1.74657 0.717848 
250 1.29946 2.62047 3.95289 0.5 0 0 0 0.753713 -2.08431 1.2844 
259 0.587313 2.8217 3.88904 0.5 0 0 0 0.414865 -1.32141 0.940612 
258 0.0372916 2.95954 4.02069 0.5 0 0 0 -0.312613 -0.790849 -0.239204 
253 0.163213 2.67726 3.94064 0.5 0 0 0 -0.222679 -1.89761 0.00969432 
498 2.47241 3.56393 4.29258 0.5 0 0 0 -1.2094 -2.02099 -0.680357 
255 0.213923 3.66474 4.84726 0.5 0 0 0 0.696247 0.259983 1.04153 
256 2.32356 4.09436 4.60624 0.5 0 0 0 -2.25477 -0.685986 -0.152649 
257 1.27312 4.24124 4.86156 0.5 0 0 0 -0.926717 -1.02028 1.44442 
260 4.00548 -0.156991 0.919829 0.5 0 0 0 -0.224144 -2.77545 0.556824 
261 3.19555 2.28939 1.1298 0.5 0 0 0 -0.766266 0.0920783 1.34743 
262 4.78767 2.0216 0.404291 0.5 0 0 0 1.76564 0.433236 -1.0804 
263 4.86349 0.626841 0.989593 0.5 0 0 0 1.13939 -1.77791 0.856577 
264 3.25883 0.915978 0.201987 0.5 0 0 0 -0.773181 0.954995 -0.97078 
265 4.90555 1.41686 1.11292 0.5 0 0 0 1.84984 0.293394 1.4206 
266 4.83436 0.647197 -0.0129407 0.5 0 0 0 0.867805 -0.263187 -3.22886 
267 3.45728 1.79731 0.886209 0.5 0 0 0 -1.61338 -0.356152 0.380703 
268 2.89322 0.522864 0.844911 0.5 0 0 0 -0.153668 -0.397535 1.69459 
269 3.96981 1.81192 0.224045 0.5 0 0 0 -1.0467 -0.483309 -2.25328 
270 3.93633 1.90246 1.01936 0.5 0 0 0 -0.967698 0.532165 1.32241 
293 3.02089 2.402 0.572196 0.5 0 0 0 -0.796737 -0.433155 0.208557 
272 4.42309 1.79277 0.741691 0.5 0 0 0 0.0471678 0.718731 0.202825 
273 4.85214 1.36363 0.800134 0.5 0 0 0 1.45532 -0.322731 -0.105106 
274 2.68345 0.714079 0.824473 0.5 0 0 0 0.231232 -0.0903826 1.49872 
275 2.53787 2.34774 0.056442 0.5 0 0 0 -0.496778 -1.0739 -2.05809 
276 5.08107 0.0669132 0.787806 0.5 0 0 0 1.14258 -1.66557 0.654489 
294 3.1399 0.091487 0.349253 0.5 0 0 0 0.150613 -2.31541 -0.195669 
278 3.60827 1.88445 0.935529 0.5 0 0 0 -1.47457 -0.0204914 0.739771 
279 3.71217 0.457462 0.171543 0.5 0 0 0 0.354201 -1.32189 -1.49389 
295 2.73142 1.13214 0.898667 0.5 0 0 0 -0.159647 0.170685 0.868983 
281 3.0564 0.151197 0.970875 0.5 0 0 0 -0.451412 -1.93757 1.77537 
282 3.8744 1.69556 1.09783 0.5 0 0 0 -1.31077 0.0497723 1.41502 
283 3.80612 2.33927 -0.181291 0.5 0 0 0 -1.10118 -0.92875 -3.7763 
284 4.16863 2.09977 0.500957 0.5 0 0 0 -0.298052 0.731219 -0.333582 
285 3.41145 2.33265 0.439945 0.5 0 0 0 -1.11921 -0.145078 -0.370691 
286 3.72183 0.963262 0.427496 0.5 0 0 0 -1.14004 -0.231029 -0.451744 
287 4.34117 1.03841 0.421516 0.5 0 0 0 -0.486906 -1.23542 -1.49502 
288 4.07944 1.6191 1.03376 0.5 0 0 0 -1.10332 0.123632 1.24633 
289 4.36668 1.05293 0.596491 0.5 0 0 0 -0.637138 -1.32409 -0.787511 
290 3.33103 0.992294 0.623107 0.5 0 0 0 -1.22173 0.311941 0.681985 
291 2.90505 1.0038 0.0831338 0.5 0 0 0 -0.432343 1.52787 -1.78157 
297 3.1628 0.42264 1.81526 0.5 0 0 0 -1.29626 -1.55318 0.777135 
298 3.83872 2.08749 2.17162 0.5 0 0 0 -1.14481 -0.142802 1.04439 
299 3.06608 0.73219 2.23274 0.5 0 0 0 -0.806989 -0.56365 1.53063 
323 3.16958 1.7184 1.55879 0.5 0 0 0 -0.673995 -0.15887 1.15613 
301 3.32709 1.70196 2.15388 0.5 0 0 0 -0.572196 0.077419 1.27869 
302 3.70478 0.97047 1.80799 0.5 0 0 0 -0.872612 0.195378 1.52378 
303 3.80395 0.847812 1.94421 0.5 0 0 0 -0.641834 0.0391899 1.64931 
292 4.33293 1.2853 1.247 0.5 0 0 0 -0.639686 -0.24934 1.77517 
305 4.06195 1.45734 1.37118 0.5 0 0 0 -1.02095 0.152805 2.08152 
306 4.61121 1.24738 1.92467 0.5 0 0 0 0.787637 -0.0452668 1.55531 
307 4.02806 0.00289988 2.16168 0.5 0 0 0 -1.98921 -2.04562 -0.125279 
308 4.72506 0.104429 2.27495 0.5 0 0 0 0.0573622 -0.247053 0.0162131 
309 3.95474 0.747126 1.92069 0.5 0 0 0 -0.468733 -0.276002 1.65561 
310 4.61075 2.32872 1.97826 0.5 0 0 0 0.484465 -0.142862 0.410057 
311 3.53785 2.25908 2.09172 0.5 0 0 0 -0.893447 0.158241 1.12886 
321 4.85074 -0.0225703 2.20582 0.5 0 0 0 0.482376 -0.650831 -0.309898 
313 2.56726 1.50595 2.20377 0.5 0 0 0 0.109478 0.00596702 1.31397 
320 2.69246 1.31431 1.87261 0.5 0 0 0 0.0635655 -0.0689369 0.908776 
315 3.26739 0.871674 1.9548 0.5 0 0 0 -0.804987 -0.121819 1.16741 
316 4.50045 1.00423 2.30412 0.5 0 0 0 0.307745 0.021657 0.921406 
317 4.42454 1.96834 2.33396 0.5 0 0 0 -0.426081 -0.757545 0.429069 
318 3.62756 0.647099 1.4244 0.5 0 0 0 -1.29706 -0.894216 0.71759 
319 3.17122 2.16817 1.97116 0.5 0 0 0 -0.361798 0.250618 1.24401 
271 4.89445 1.59839 1.20694 0.5 0 0 0 1.99254 1.05743 1.8676 
19 2.58919 1.86325 1.1735 0.5 0 0 0 0.0130819 -0.264311 0.539883 
280 3.82517 0.808421 1.18765 0.5 0 0 0 -1.36632 -0.816542 0.79574 
300 4.20682 2.38482 1.22813 0.5 0 0 0 -0.0437587 0.850102 1.85772 
296 4.29953 0.620867 1.1735 0.5 0 0 0 -0.391177 -1.69162 0.799795 
277 3.47973 2.13585 1.1768 0.5 0 0 0 -1.08775 0.311781 1.56493 
324 4.20049 1.07209 3.60419 0.5 0 0 0 -1.49448 0.447581 -0.557439 
325 3.13525 0.346654 3.34054 0.5 0 0 0 -3.12533 -1.26458 1.33759 
326 3.66739 1.472 3.67458 0.5 0 0 0 -1.94329 -0.405523 -0.054712 
327 4.15864 1.37271 2.56514 0.5 0 0 0 -0.879733 -0.248772 0.532214 
328 3.56053 0.746071 2.82266 0.5 0 0 0 -1.23031 0.197356 0.970862 
329 4.6547 1.8582 2.76121 0.5 0 0 0 0.287428 -1.60679 -0.422589 
330 3.37921 1.61927 3.26274 0.5 0 0 0 -1.49016 -0.393447 0.612959 
331 4.42014 1.68675 3.2659 0.5 0 0 0 -1.11423 -1.26885 -0.407867 
332 4.72992 0.335378 2.57276 0.5 0 0 0 0.295617 0.86883 -0.287307 
333 2.66869 0.745656 3.45056 0.5 0 0 0 -3.1268 -1.5228 2.19029 
334 4.39709 0.492247 3.23252 0.5 0 0 0 -0.533111 0.856184 -1.84104 
335 5.05887 2.33764 2.86349 0.5 0 0 0 3.04185 -1.00714 -0.90382 
336 4.05519 0.349996 3.25553 0.5 0 0 0 -1.75578 0.276348 -0.965886 
350 2.94785 1.6205 2.671 0.5 0 0 0 -0.331929 -0.231877 1.44434 
338 2.75765 1.04701 3.70241 0.5 0 0 0 -3.05274 -1.44822 1.35404 
339 2.70521 0.895144 2.70662 0.5 0 0 0 -1.0301 -1.15819 2.43858 
340 2.93397 1.02899 3.59673 0.5 0 0 0 -2.7606 -1.00176 1.23852 
341 4.47472 1.99479 3.43292 0.5 0 0 0 -1.11103 -1.62628 0.0347169 
342 4.92134 1.88468 3.61398 0.5 0 0 0 1.08784 -1.75802 0.255063 
343 3.24144 1.5906 2.6238 0.5 0 0 0 -0.676343 -0.187426 1.25354 
349 4.19679 -0.0384112 3.21981 0.5 0 0 0 -1.68687 -1.34802 -1.61055 
345 3.47823 0.0426572 3.05536 0.5 0 0 0 -2.73636 -2.21434 0.525291 
346 3.69693 0.812519 3.53319 0.5 0 0 0 -2.44883 0.19604 0.133092 
347 2.80181 1.66491 2.63693 0.5 0 0 0 -0.102907 -0.190709 1.44763 
348 2.63913 1.65882 2.67644 0.5 0 0 0 0.0402796 -0.424354 1.55993 
352 4.94759 1.25163 3.70678 0.5 0 0 0 1.53043 -0.0804258 -0.468115 
469 4.12804 2.45323 2.60915 0.5 0 0 0 -1.94932 -0.327569 -0.220478 
304 2.73537 0.148574 2.52864 0.5 0 0 0 -1.73135 -2.677 1.93465 
384 4.55124 0.313804 3.78158 0.5 0 0 0 -1.08603 0.714405 -1.93756 
351 4.81681 0.433181 4.13216 0.5 0 0 0 0.535578 1.28441 -0.255469 
381 3.28514 1.873 4.23842 0.5 0 0 0 -1.69193 -1.0593 -1.04759 
353 3.42786 1.25796 4.13506 0.5 0 0 0 -2.4125 -0.741752 -0.231633 
354 3.93464 1.93868 4.94642 0.5 0 0 0 -0.469377 -0.731157 1.15881 
355 4.89446 2.33384 4.00751 0.5 0 0 0 0.313383 -1.36285 1.33105 
356 4.45179 -0.173163 4.76969 0.5 0 0 0 -1.85999 -2.81268 1.58571 
383 4.13179 0.484747 4.99292 0.5 0 0 0 -2.19926 0.86438 2.56469 
358 5.09289 1.5728 4.75784 0.5 0 0 0 1.28531 -0.321777 1.65889 
359 3.01963 1.92093 4.29427 0.5 0 0 0 -1.64711 -1.29441 -1.07772 
360 4.55823 0.294841 4.19704 0.5 0 0 0 -1.20756 0.680682 -0.312398 
361 5.0107 2.27456 4.16295 0.5 0 0 0 0.815382 -1.7161 1.74491 
362 4.17112 0.254776 4.2464 0.5 0 0 0 -3.31801 0.0156671 -0.20569 
363 3.91129 0.319091 4.53698 0.5 0 0 0 -4.12041 -0.228988 0.557643 
364 2.66473 1.94634 4.90104 0.5 0 0 0 -2.03352 -1.87523 0.775541 
365 3.16969 1.79581 4.59542 0.5 0 0 0 -1.63185 -1.5283 -0.42908 
366 4.61143 0.91157 4.1486 0.5 0 0 0 -0.161768 1.71033 0.501472 
367 3.81677 -0.0602555 3.84489 0.5 0 0 0 -4.38242 -2.21111 0.189257 
368 4.06429 1.84855 4.28442 0.5 0 0 0 -1.15825 -0.718815 -0.0177389 
369 3.4942 1.48242 4.35656 0.5 0 0 0 -1.88362 -0.95365 -0.468759 
370 2.82998 0.443279 4.66007 0.5 0 0 0 -3.54663 -1.08074 0.0900181 
371 4.72583 0.250739 4.64225 0.5 0 0 0 0.353994 0.645397 1.6131 
382 3.88418 0.944614 3.84084 0.5 0 0 0 -2.45407 0.362158 -0.0352616 
373 4.63289 0.300493 3.94053 0.5 0 0 0 -0.776893 0.734393 -1.37524 
374 4.53401 0.486204 4.0481 0.5 0 0 0 -1.13014 1.242 -0.778732 
375 5.03448 0.0100946 4.98313 0.5 0 0 0 3.59468 -1.18702 3.20919 
376 4.10392 1.60789 4.6828 0.5 0 0 0 -0.582522 -0.440853 0.453433 
377 4.01537 2.10371 5.10767 0.5 0 0 0 -0.109934 -0.494931 2.13384 
378 2.91759 1.64263 5.01093 0.5 0 0 0 -1.9286 -2.16826 1.57485 
379 3.53377 0.926494 5.07409 0.5 0 0 0 -2.3833 -0.425517 1.83408 
380 3.06476 2.29047 4.29765 0.5 0 0 0 -1.41921 -1.25233 -1.06821 
385 2.72743 3.16667 0.678626 0.5 0 0 0 -0.259398 0.0375836 0.477841 
386 4.46001 4.72631 0.0499698 0.5 0 0 0 0.670224 0.329311 -0.709547 
387 3.86554 3.94207 0.13887 0.5 0 0 0 0.119309 -0.411033 -0.427986 
388 4.3202 4.0172 1.07918 0.5 0 0 0 -0.817702 -0.172844 -1.10385 
389 3.81849 3.08829 0.794955 0.5 0 0 0 -0.593879 0.0886611 0.755384 
390 3.64731 4.11213 0.128382 0.5 0 0 0 0.0900837 -0.597307 0.0534275 
391 5.05323 4.32999 1.0758 0.5 0 0 0 2.1432 1.08715 -1.29527 
392 4.88878 2.67893 0.295458 0.5 0 0 0 1.32133 0.365146 -0.297479 
393 4.52615 4.58373 0.677719 0.5 0 0 0 -0.014868 1.27497 -0.991557 
394 2.76375 2.92559 1.08837 0.5 0 0 0 0.017206 -0.151016 1.30109 
395 4.91111 2.95983 0.998607 0.5 0 0 0 1.355 -0.49722 1.14153 
396 4.08242 3.07659 0.0175081 0.5 0 0 0 -0.343921 0.450822 -1.52532 
397 5.07977 4.04744 0.825045 0.5 0 0 0 2.38244 -0.0624912 -1.63058 
398 2.92734 4.94157 0.00821517 0.5 0 0 0 -0.477115 2.03752 -1.50093 
399 3.38818 4.92149 0.588321 0.5 0 0 0 0.578027 1.09103 -0.330971 
400 3.33768 4.51273 0.419338 0.5 0 0 0 0.195512 -0.60388 0.275918 
401 3.37373 2.65717 0.0719863 0.5 0 0 0 -0.978799 -0.396988 -1.65029 
402 2.72655 3.11912 0.688008 0.5 0 0 0 -0.262868 0.00999043 0.537497 
403 4.76397 3.22272 0.182958 0.5 0 0 0 0.43135 0.481352 -1.34408 
404 4.20748 2.63552 0.142008 0.5 0 0 0 -0.16417 0.531416 -0.893979 
405 4.05946 4.87616 -0.0238897 0.5 0 0 0 0.28283 0.873235 -0.164244 
406 4.20552 3.58907 1.03062 0.5 0 0 0 -0.887394 -0.743113 -0.290764 
407 2.81353 4.2113 -0.0113339 0.5 0 0 0 -0.346717 -0.769307 -1.25042 
408 4.9935 3.11745 0.424442 0.5 0 0 0 1.24834 -0.0506776 -0.253464 
409 3.77205 3.30856 0.562627 0.5 0 0 0 -0.535916 0.0681003 0.0361883 
410 3.87007 2.62726 0.885776 0.5 0 0 0 -0.532554 0.714105 1.23164 
411 4.18383 2.65307 1.06402 0.5 0 0 0 -0.135374 0.559403 1.46065 
412 3.09159 3.18162 0.446709 0.5 0 0 0 -0.480435 0.0500455 0.0614984 
413 2.9187 3.71694 0.925145 0.5 0 0 0 -0.225708 -0.363131 0.330758 
414 2.70955 4.48431 0.643286 0.5 0 0 0 -0.107194 -0.930279 0.142364 
415 2.6388 4.93667 1.11349 0.5 0 0 0 -1.07917 0.886347 -0.319905 
417 3.0858 3.60768 0.193225 0.5 0 0 0 -0.439151 -0.30043 -0.622331 
418 4.81607 4.17572 1.6567 0.5 0 0 0 0.591397 -0.344387 0.0452571 
419 2.97104 3.77731 2.20128 0.5 0 0 0 0.527148 -1.67743 0.597777 
420 4.87673 3.94973 2.41375 0.5 0 0 0 0.274853 -1.57635 0.677221 
421 4.8751 4.57039 1.80973 0.5 0 0 0 1.01154 1.67479 -0.455589 
422 4.26911 4.54909 1.75393 0.5 0 0 0 0.210632 0.978854 0.159599 
423 3.64883 4.60708 1.39654 0.5 0 0 0 0.361043 0.133718 -1.23183 
424 4.35686 3.80958 1.43822 0.5 0 0 0 -0.729186 -1.16535 0.524539 
425 2.78397 3.15329 1.33965 0.5 0 0 0 0.223671 -0.293637 1.28221 
426 3.24265 4.5535 2.11577 0.5 0 0 0 0.105239 -0.908417 1.66015 
427 3.29534 4.61706 1.65763 0.5 0 0 0 -0.180087 -0.610711 -0.144504 
428 4.92768 4.3107 2.00987 0.5 0 0 0 0.632395 -0.199136 0.0995227 
429 3.19584 4.83428 1.72876 0.5 0 0 0 -0.356614 0.283537 0.170778 
430 2.95764 4.84836 1.32106 0.5 0 0 0 -0.875951 0.354232 -0.984283 
431 3.50765 2.67592 2.37492 0.5 0 0 0 -0.874496 -0.138905 0.589053 
432 3.95776 2.50817 1.48 0.5 0 0 0 -0.674966 0.427666 1.94294 
433 2.74246 4.35531 2.39777 0.5 0 0 0 -0.216766 -1.01733 0.873566 
434 3.13473 4.50779 1.94043 0.5 0 0 0 -0.332031 -1.07923 0.870698 
435 3.61635 4.6595 1.62656 0.5 0 0 0 0.532142 0.0850885 -0.176536 
436 3.34107 3.27577 2.05506 0.5 0 0 0 -0.141778 -0.940352 0.961148 
437 3.80655 3.98331 1.78453 0.5 0 0 0 -0.714598 -1.51622 0.940788 
438 5.00234 3.5283 1.86043 0.5 0 0 0 1.73064 -1.93273 0.236747 
439 4.48504 4.48045 2.45638 0.5 0 0 0 -0.699921 0.10057 1.44687 
440 2.64624 3.87468 2.23009 0.5 0 0 0 0.374698 -1.16791 0.24791 
441 2.92967 4.74914 2.12021 0.5 0 0 0 -0.68167 -0.00188123 1.10787 
442 3.06368 4.58908 1.3818 0.5 0 0 0 -0.702511 -0.753024 -1.05746 
443 3.87393 4.1195 1.96441 0.5 0 0 0 -0.426175 -1.36555 1.44372 
444 2.67807 4.3564 1.89243 0.5 0 0 0 -0.768882 -0.933511 -0.157711 
445 4.42925 3.75366 1.23855 0.5 0 0 0 -0.571449 -1.03449 -0.0131113 
446 4.16136 3.88014 2.29142 0.5 0 0 0 -0.971833 -1.56505 1.40262 
447 3.98413 3.8338 1.70991 0.5 0 0 0 -1.00345 -1.50691 1.02251 
448 4.54614 2.8292 2.22811 0.5 0 0 0 -0.167329 0.272964 -0.265124 
449 3.08114 3.86142 1.29596 0.5 0 0 0 -0.376897 -0.892162 0.0159969 
450 3.48301 3.36566 1.39671 0.5 0 0 0 -0.555947 -0.723552 1.08942 
416 4.43939 3.86705 1.2623 0.5 0 0 0 -0.5535 -0.823847 -0.162321 
203 2.54257 2.99444 1.48495 0.5 0 0 0 0.543075 -0.349889 1.11905 
322 2.8968 2.52125 1.8635 0.5 0 0 0 0.201432 -0.0968921 1.34302 
314 4.95153 2.49957 1.43986 0.5 0 0 0 2.18029 0.0170284 0.881067 
479 2.67201 3.66333 3.67497 0.5 0 0 0 -0.203286 -1.64077 -0.627259 
453 4.81673 2.73412 3.2535 0.5 0 0 0 0.831734 0.571456 -0.423165 
454 3.96861 3.31053 2.81272 0.5 0 0 0 -1.04518 -0.0947061 0.106195 
455 2.9786 4.28332 3.66018 0.5 0 0 0 -0.726488 -0.931982 -1.02445 
456 2.78681 4.65171 3.10914 0.5 0 0 0 -0.20322 -0.442478 0.326356 
457 3.04669 4.89391 2.94079 0.5 0 0 0 0.553131 0.68704 0.706053 
458 3.38148 3.15475 2.90913 0.5 0 0 0 -0.53657 -0.877614 0.204817 
459 4.79833 4.06689 2.63942 0.5 0 0 0 -0.128131 -1.05997 1.14749 
460 4.3388 2.93317 3.14829 0.5 0 0 0 -1.28466 1.05577 -0.479627 
461 4.46961 4.44766 2.57146 0.5 0 0 0 -0.804002 -0.0313068 1.57327 
462 4.70144 4.99919 2.54255 0.5 0 0 0 0.456892 4.60249 1.38138 
463 4.41338 2.63817 2.73773 0.5 0 0 0 -1.22614 -0.00241379 -0.778332 
464 3.08229 3.82562 3.12878 0.5 0 0 0 0.298991 -1.73462 -0.110329 
465 3.57021 3.93289 3.56067 0.5 0 0 0 0.45459 -1.22723 -1.19875 
466 4.19207 2.57746 3.01757 0.5 0 0 0 -2.12595 -0.25145 -0.640505 
467 3.47467 4.4369 3.46201 0.5 0 0 0 0.871058 -0.333503 -0.872495 
468 4.83205 2.71881 2.53954 0.5 0 0 0 1.39737 0.238159 -0.966744 
344 4.1894 2.52631 3.41191 0.5 0 0 0 -2.05248 -0.494552 0.00249381 
470 4.4847 2.5291 3.64937 0.5 0 0 0 -1.05986 -0.47394 0.538394 
471 3.84038 4.76543 3.03905 0.5 0 0 0 0.428604 1.21799 0.489384 
451 2.79986 3.79809 2.4996 0.5 0 0 0 0.673139 -1.5034 0.668454 
473 2.91846 5.0861 3.74857 0.5 0 0 0 -0.149564 2.67784 0.232585 
474 4.50733 2.85757 3.6255 0.5 0 0 0 -0.710895 1.04255 0.308576 
478 3.98901 2.61315 3.41298 0.5 0 0 0 -2.49932 -0.216024 -0.0580444 
476 4.67836 3.70549 3.01079 0.5 0 0 0 0.08936 -0.00660132 0.817192 
477 2.80107 4.25512 2.5663 0.5 0 0 0 0.0882368 -1.26938 0.940732 
337 4.00854 2.47712 3.28526 0.5 0 0 0 -2.56712 -0.587898 -0.210849 
475 4.80452 4.05407 3.78608 0.5 0 0 0 0.939241 -0.0504958 -0.155897 
480 3.58953 3.80889 4.79313 0.5 0 0 0 1.2807 -1.32204 0.955237 
481 4.13979 3.02608 4.95779 0.5 0 0 0 -0.268034 -1.47018 2.1423 
482 3.77861 3.59844 4.0078 0.5 0 0 0 0.420663 -0.998533 -1.09699 
483 4.4053 4.8875 4.10611 0.5 0 0 0 0.262966 0.500337 -1.75144 
484 3.17257 4.00242 3.9681 0.5 0 0 0 -0.446856 -1.44898 -1.51117 
485 3.66542 3.93623 4.40885 0.5 0 0 0 1.30964 -0.835985 -0.600772 
486 4.72062 4.70312 4.34975 0.5 0 0 0 -0.0982111 -0.899039 -1.36613 
487 3.2799 3.12528 4.27902 0.5 0 0 0 -0.664685 -1.98182 -0.831751 
488 4.67013 3.1766 4.66622 0.5 0 0 0 0.0223059 0.0686025 0.971229 
489 3.35019 4.83712 5.08972 0.5 0 0 0 -0.173333 3.09044 3.98345 
490 3.58041 3.44622 4.24509 0.5 0 0 0 -0.0363339 -1.73958 -0.884338 
491 3.71318 4.11091 4.82948 0.5 0 0 0 2.05147 -0.11712 1.33694 
492 2.66401 3.19063 4.79124 0.5 0 0 0 -1.28707 -2.59102 0.923009 
493 4.51494 3.66926 4.72374 0.5 0 0 0 1.18583 0.523237 0.678182 
494 3.42613 3.64515 5.12503 0.5 0 0 0 0.777733 -2.09053 3.3119 
495 2.6833 4.06724 4.41671 0.5 0 0 0 -1.05379 -0.908401 -1.15865 
496 2.62237 3.80936 4.95756 0.5 0 0 0 -1.37838 -1.77673 1.45777 
497 3.38169 4.37698 3.94441 0.5 0 0 0 0.446707 -0.250725 -1.31608 
357 3.44984 2.4954 4.63855 0.5 0 0 0 -0.880719 -1.29876 0.135072 
499 3.95608 2.50645 4.05608 0.5 0 0 0 -1.53382 -0.749095 0.251145 
500 4.65467 4.93223 4.97399 0.5 0 0 0 -0.725049 -0.119522 1.69273 
501 4.62616 4.8156 4.90394 0.5 0 0 0 -0.283512 -0.293763 1.29266 
502 2.68187 3.97566 4.77886 0.5 0 0 0 -0.998931 -1.16848 0.287558 
503 2.93975 4.25916 4.55901 0.5 0 0 0 -0.375652 -0.128632 -0.685919 
504 3.55114 3.30536 4.29101 0.5 0 0 0 -0.23463 -1.87481 -0.698626 
505 3.69577 4.8226 4.28552 0.5 0 0 0 1.42017 1.7745 -0.194307 
506 4.09436 4.02173 3.97424 0.5 0 0 0 1.82444 0.0294021 -0.947287 
507 4.9127 2.81898 3.94309 0.5 0 0 0 0.483206 0.990033 0.557303 
508 2.87514 3.92811 4.68635 0.5 0 0 0 -0.391769 -1.40771 -0.269402 
509 3.30514 4.75551 4.40391 0.5 0 0 0 0.178858 1.78587 -0.100204 
510 3.08449 4.49513 4.06087 0.5 0 0 0 -0.596027 0.201672 -1.2221 
511 2.64438 3.03166 4.50455 0.5 0 0 0 -1.02998 -2.20827 -0.126211 
512 2.66599 2.8248 4.36837 0.5 0 0 0 -0.847046 -1.88597 -0.442517 
513 4.86973 3.02688 4.29851 0.5 0 0 0 0.304328 1.03365 0.591113 
ITEM: TIMESTEP
60064
ITEM: NUMBER OF ATOMS
512
ITEM: BOX BOUNDS ss ss ss
-2.1589663964569298e-02 5.0933846546203574e+00
-1.7364439631764822e-01 5.0865807164741392e+00
-1.8176655292622759e-01 5.1255068607205727e+00
ITEM: ATOMS id x y z width_SPH x_COM y_COM z_COM vx vy vz 
2 0.30106 0.775933 0.246861 0.5 0 0 0 -1.37923 -0.579486 0.0688326 
3 0.259434 1.291 0.605721 0.5 0 0 0 -2.08433 -0.964642 0.287766 
4 0.787479 1.24764 1.03676 0.5 0 0 0 -0.386221 -0.340101 0.749186 
5 1.73539 1.8934 0.823938 0.5 0 0 0 0.958514 0.35209 0.221139 
6 0.274193 2.07866 0.848534 0.5 0 0 0 -2.11842 0.860415 1.1665 
7 0.546655 1.58453 0.342545 0.5 0 0 0 -0.688655 -0.372063 -0.68207 
8 1.33606 0.225897 0.773365 0.5 0 0 0 0.0500267 -0.685411 1.18408 
9 1.53469 0.986432 0.331378 0.5 0 0 0 0.774036 0.260688 -0.74735 
10 1.11158 1.53603 -0.0685592 0.5 0 0 0 0.983779 -0.388488 -2.84956 
11 1.39605 1.22774 0.796169 0.5 0 0 0 0.782282 0.130024 0.28265 
38 1.08307 2.32881 0.776651 0.5 0 0 0 0.516825 0.421767 0.862938 
41 2.23084 2.37931 1.0229 0.5 0 0 0 0.351359 -0.202258 0.556557 
14 1.26049 2.06321 0.32927 0.5 0 0 0 1.32261 0.117811 -0.38025 
15 1.54694 0.0394733 0.976127 0.5 0 0 0 1.23301 -1.50687 2.1237 
37 0.636903 0.390264 0.353984 0.5 0 0 0 -1.47726 -0.586523 0.379731 
17 1.08138 0.119434 0.519717 0.5 0 0 0 -1.29664 -0.687371 0.538469 
18 1.50826 -0.0164896 0.0458956 0.5 0 0 0 0.0210306 -0.949703 -1.15222 
40 1.99513 0.669574 0.604465 0.5 0 0 0 1.39258 -0.197979 0.904832 
20 0.369817 1.75927 1.04789 0.5 0 0 0 -1.73132 0.350019 1.28563 
21 1.878 1.79469 0.745542 0.5 0 0 0 1.08068 0.226347 -0.00310208 
22 0.552786 2.4223 0.409939 0.5 0 0 0 -0.558241 0.212976 0.657487 
39 0.791152 1.5785 0.810201 0.5 0 0 0 0.140691 0.227589 0.408948 
24 0.00340452 0.598284 0.0816947 0.5 0 0 0 -2.72792 -0.779876 -0.13371 
25 1.95436 0.260599 0.581883 0.5 0 0 0 1.68402 -0.755038 1.36422 
26 1.35581 0.890949 0.584786 0.5 0 0 0 0.399573 0.0193261 -0.00984506 
27 0.864669 1.81411 0.900155 0.5 0 0 0 0.3774 0.670888 0.691811 
28 2.15664 0.959747 0.359458 0.5 0 0 0 0.883532 0.50156 -0.229978 
29 2.42448 1.35996 0.269407 0.5 0 0 0 0.107995 1.01774 -1.19044 
30 1.3992 0.24243 0.884064 0.5 0 0 0 0.48874 -0.821774 1.457 
31 1.65838 1.51848 0.685685 0.5 0 0 0 1.20235 0.362136 0.0102121 
32 1.30153 2.09592 0.250955 0.5 0 0 0 1.47632 0.00634545 -0.708888 
33 1.46276 1.14326 0.721759 0.5 0 0 0 0.856787 0.0701275 0.199785 
34 0.622254 2.08924 -0.0271274 0.5 0 0 0 -0.447974 -0.575364 -2.02293 
35 1.77116 0.0448067 -0.128823 0.5 0 0 0 1.17614 -0.864587 -2.25451 
36 0.968307 0.88323 0.0786141 0.5 0 0 0 0.0956065 0.0328182 -1.47962 
144 0.0211963 2.45507 0.11457 0.5 0 0 0 -3.16814 -0.78006 -1.09893 
43 1.54524 0.0677229 1.95232 0.5 0 0 0 1.54678 -2.05891 2.27932 
44 1.36472 2.35713 1.90941 0.5 0 0 0 0.773291 -0.347983 0.538703 
45 1.3338 1.11988 1.48553 0.5 0 0 0 0.476507 -0.198918 1.55748 
46 1.38771 2.23672 2.32626 0.5 0 0 0 0.773068 -0.849669 1.17322 
47 1.3959 1.26087 1.91897 0.5 0 0 0 -0.0998347 -0.503566 2.36783 
48 1.18006 0.812492 1.47866 0.5 0 0 0 0.16986 -0.42695 1.76227 
49 2.47935 2.34211 1.69817 0.5 0 0 0 0.558018 -0.173282 1.19152 
50 0.891248 0.60888 1.67019 0.5 0 0 0 -1.07939 -0.542172 2.51079 
51 1.96893 0.939585 1.80624 0.5 0 0 0 0.474666 -1.0968 1.64682 
52 0.671607 1.64139 1.3334 0.5 0 0 0 -0.669178 0.0976818 1.61562 
53 2.1247 1.44177 1.71791 0.5 0 0 0 0.456193 0.123598 0.95233 
54 0.390182 0.0429156 2.20343 0.5 0 0 0 -1.55321 -1.25146 0.55799 
55 1.73185 1.84185 1.70753 0.5 0 0 0 0.650511 0.164892 0.906621 
16 2.25736 2.0163 1.1787 0.5 0 0 0 0.457631 -0.0719265 0.552917 
57 2.38803 1.07706 1.62869 0.5 0 0 0 0.472613 -0.693356 0.755432 
58 1.78529 0.149189 2.23911 0.5 0 0 0 1.03269 -2.02271 2.71633 
59 1.24236 0.5826 2.3788 0.5 0 0 0 0.260591 -0.272327 3.92135 
60 0.669149 1.69642 1.57453 0.5 0 0 0 -0.979955 -0.221876 2.09607 
61 1.33412 0.300396 1.71433 0.5 0 0 0 0.887257 -1.21202 2.26358 
78 1.05745 1.89882 1.61753 0.5 0 0 0 0.147239 0.000536642 1.16133 
63 2.01583 1.57785 2.03482 0.5 0 0 0 0.300769 -0.0541847 1.40505 
64 0.517035 0.357618 2.37908 0.5 0 0 0 -0.565298 0.530382 2.62107 
65 1.06184 1.77544 2.19874 0.5 0 0 0 -0.468624 -1.40528 2.12134 
66 2.34198 0.861941 2.01783 0.5 0 0 0 0.0264947 -1.35147 1.67451 
67 1.10297 0.688532 2.02628 0.5 0 0 0 -0.327912 -0.221856 3.45707 
68 2.05806 1.47707 1.72367 0.5 0 0 0 0.44387 0.165831 1.00095 
69 1.40306 0.742944 2.26943 0.5 0 0 0 -0.0127374 -0.601961 3.56702 
77 0.38739 1.54418 1.42855 0.5 0 0 0 -2.22893 -0.477394 2.4253 
71 0.737602 0.532103 1.43848 0.5 0 0 0 -1.94545 -0.911213 1.66723 
72 1.00639 2.24107 2.44178 0.5 0 0 0 0.00218709 -1.25805 1.46171 
73 2.05738 1.03318 1.69109 0.5 0 0 0 0.568051 -0.882774 1.23015 
74 2.23184 1.01521 2.36174 0.5 0 0 0 -0.384271 -1.45767 2.51907 
75 0.0297661 2.3112 2.22173 0.5 0 0 0 -2.35306 -1.61491 0.705449 
76 0.971334 1.10814 1.45356 0.5 0 0 0 -0.38259 -0.281272 1.81093 
12 1.34529 1.51116 1.24545 0.5 0 0 0 0.683739 0.377324 0.874133 
13 1.86621 1.32627 1.25809 0.5 0 0 0 0.997016 -0.0560513 0.662322 
312 2.49224 -0.0785504 1.66922 0.5 0 0 0 -0.146801 -2.94598 1.29966 
42 1.22906 0.72634 1.23556 0.5 0 0 0 0.353159 -0.502417 1.15911 
79 1.43519 2.24237 3.26306 0.5 0 0 0 0.0223931 -2.28933 1.21438 
80 0.722439 0.183724 2.71178 0.5 0 0 0 1.47956 0.523541 2.97284 
81 1.07278 0.41499 2.90581 0.5 0 0 0 1.62679 0.318609 4.42173 
82 1.30862 1.94323 2.75296 0.5 0 0 0 -0.307578 -2.04016 1.91002 
83 1.70365 2.04278 2.87994 0.5 0 0 0 0.281034 -1.5293 1.51929 
84 1.24767 0.840086 3.71741 0.5 0 0 0 1.33462 -3.77961 4.56273 
85 2.02471 1.84019 2.82634 0.5 0 0 0 0.38063 -1.35916 1.64399 
106 1.36418 1.31962 2.61108 0.5 0 0 0 -0.890021 -2.18675 3.25928 
87 0.898792 2.29174 3.34264 0.5 0 0 0 -0.293881 -2.93012 0.785276 
88 1.94612 1.38119 2.97943 0.5 0 0 0 -0.74502 -2.92608 2.85483 
89 1.47552 0.236483 3.78195 0.5 0 0 0 0.219583 1.79092 4.58121 
100 0.580245 2.1647 2.54007 0.5 0 0 0 -0.486531 -1.98828 1.75438 
91 1.72848 1.44583 2.74128 0.5 0 0 0 -0.619513 -2.4381 2.67728 
92 0.127767 2.0969 2.8373 0.5 0 0 0 -1.29457 -2.82371 1.55055 
93 0.715284 0.310073 2.79201 0.5 0 0 0 1.35814 0.930433 3.27144 
94 1.45135 1.94301 2.62581 0.5 0 0 0 0.0977429 -1.5954 1.724 
95 2.18938 2.14758 3.16346 0.5 0 0 0 0.868266 -1.23577 1.36448 
96 0.949789 1.87738 2.59394 0.5 0 0 0 -0.661387 -2.26222 2.27306 
97 1.79655 0.470845 3.60668 0.5 0 0 0 -2.34267 -1.28821 5.27511 
98 0.273038 1.57184 2.88924 0.5 0 0 0 -0.472631 -2.69567 1.99016 
99 2.15148 1.76572 3.33725 0.5 0 0 0 -0.0623693 -2.43028 1.94136 
105 0.748309 0.114092 3.13351 0.5 0 0 0 2.42396 0.805869 3.07572 
186 0.405523 2.44494 2.60323 0.5 0 0 0 -0.466346 -1.47822 1.20443 
102 1.84309 1.71236 3.01666 0.5 0 0 0 -0.358364 -2.45645 2.1747 
103 0.428593 1.0381 3.214 0.5 0 0 0 1.28692 -1.21718 2.32733 
231 1.26226 2.35114 3.50858 0.5 0 0 0 0.166537 -2.64008 0.961312 
62 2.18333 1.76448 2.56416 0.5 0 0 0 0.450538 -0.64715 1.47222 
131 1.85477 1.65838 3.77351 0.5 0 0 0 -0.993878 -4.306 2.03118 
56 2.44014 0.522575 2.48152 0.5 0 0 0 -0.939959 -1.83357 2.60197 
107 1.79924 0.179196 4.53985 0.5 0 0 0 -2.45804 2.41503 -3.09038 
108 1.07474 1.5009 4.4532 0.5 0 0 0 2.22987 -3.92923 -0.41083 
109 1.8042 0.539855 4.27431 0.5 0 0 0 -4.08346 -0.270174 -1.06224 
110 1.90996 0.686711 4.17965 0.5 0 0 0 -4.68667 -2.33691 0.535291 
139 1.01001 0.534251 4.84211 0.5 0 0 0 4.18356 -0.557569 -2.80629 
112 1.75816 0.698003 4.66542 0.5 0 0 0 -1.94911 -1.78472 -4.66965 
113 1.92756 1.25304 4.43647 0.5 0 0 0 -2.16239 -4.8759 -0.595466 
114 0.873007 0.925232 4.48011 0.5 0 0 0 4.97023 -2.01789 -2.19317 
115 1.8402 0.570505 4.4682 0.5 0 0 0 -3.72977 -0.563686 -3.38048 
116 0.780065 0.159624 4.3033 0.5 0 0 0 4.86706 0.454701 -1.14694 
117 0.976225 0.936271 4.21247 0.5 0 0 0 4.88939 -3.28009 -0.842631 
138 0.0273678 1.19267 4.38545 0.5 0 0 0 0.033325 -1.92579 0.369831 
119 0.76784 1.80937 4.39848 0.5 0 0 0 1.55615 -2.82258 0.538749 
120 1.48918 0.684113 4.13282 0.5 0 0 0 0.291245 -2.81536 1.22394 
121 1.88096 0.771563 3.94802 0.5 0 0 0 -3.88994 -3.61011 3.38586 
122 0.203656 -0.13603 4.07609 0.5 0 0 0 1.17965 -1.13946 0.140498 
123 1.22009 0.0988051 4.57303 0.5 0 0 0 3.27561 1.89722 -2.95643 
124 0.694231 0.48942 4.10319 0.5 0 0 0 4.98921 -0.112391 -0.71522 
125 1.57983 0.388111 4.1862 0.5 0 0 0 -1.13378 2.13346 0.184421 
126 1.32391 0.54761 4.31047 0.5 0 0 0 3.62884 -0.260709 -2.29469 
127 1.22247 2.04543 4.70511 0.5 0 0 0 0.529117 -2.49874 0.738639 
128 1.13274 0.893315 4.24917 0.5 0 0 0 4.63128 -3.84391 -1.04818 
129 0.157211 1.59082 4.15841 0.5 0 0 0 1.00237 -2.69924 -0.130476 
130 0.546443 0.828479 4.34958 0.5 0 0 0 3.60303 -1.03143 -1.40429 
137 0.139754 2.14503 3.86316 0.5 0 0 0 -0.174275 -3.34823 -0.349409 
132 2.24816 1.87939 3.83284 0.5 0 0 0 -0.369867 -2.65506 1.08222 
133 1.36569 0.564185 4.27385 0.5 0 0 0 2.91088 -0.547895 -1.67084 
134 1.70918 2.16355 4.92569 0.5 0 0 0 -0.345929 -2.30072 0.35601 
135 2.26418 0.1678 4.66814 0.5 0 0 0 -2.70248 -0.45719 -0.977985 
136 1.59585 1.61781 4.25902 0.5 0 0 0 -0.174892 -5.05046 0.598217 
86 1.99543 1.44376 3.89322 0.5 0 0 0 -1.58178 -4.76343 2.01597 
252 1.97124 2.3346 4.62375 0.5 0 0 0 -0.380411 -2.50462 -0.18775 
372 2.44556 0.703625 4.33782 0.5 0 0 0 -4.58167 -1.3111 -0.490292 
111 1.47988 2.39443 3.94322 0.5 0 0 0 0.573429 -2.60432 1.12601 
90 1.33534 1.25021 3.83518 0.5 0 0 0 0.0442281 -5.92789 2.69808 
104 1.86757 1.04361 3.82196 0.5 0 0 0 -2.65236 -5.30342 3.62848 
118 2.5096 1.67311 4.55116 0.5 0 0 0 -2.00907 -2.35964 -0.414619 
101 1.63831 0.949598 3.80757 0.5 0 0 0 -1.76191 -5.38799 4.48005 
140 2.46899 2.49534 0.521337 0.5 0 0 0 -0.128913 -0.497118 0.0925411 
141 0.969151 3.25075 0.881213 0.5 0 0 0 -0.687566 -0.054236 0.763199 
142 1.05819 3.61895 0.280844 0.5 0 0 0 0.0762433 0.567451 -0.305156 
143 0.613289 3.01274 0.597914 0.5 0 0 0 -0.779399 -0.0736895 1.18854 
167 1.34249 2.79902 0.68351 0.5 0 0 0 0.862613 -0.285235 0.459332 
168 1.60813 2.59703 0.915716 0.5 0 0 0 0.694625 -0.0649754 0.373867 
146 1.06775 3.21913 0.367263 0.5 0 0 0 0.565004 -0.407092 0.13753 
147 0.573214 4.49282 0.517004 0.5 0 0 0 1.15791 -0.171569 0.303719 
148 1.97431 3.78988 0.433879 0.5 0 0 0 0.683043 -0.368952 -0.379242 
149 0.683852 3.59681 0.0907897 0.5 0 0 0 -0.320014 1.05825 -0.716988 
150 1.89594 4.42723 0.806372 0.5 0 0 0 -0.262449 0.030375 0.35711 
151 0.0449924 3.44437 0.106179 0.5 0 0 0 -1.64536 0.617883 -0.0464707 
152 1.35725 3.63101 1.14384 0.5 0 0 0 0.113067 -0.0093538 0.199497 
153 2.20121 4.40131 0.25887 0.5 0 0 0 -0.252414 -0.133621 -0.978017 
154 2.33911 4.58275 0.684234 0.5 0 0 0 -0.385024 -0.35566 0.255404 
155 1.29543 3.739 0.711872 0.5 0 0 0 -0.0563003 0.396026 0.295768 
156 0.448863 4.37762 1.05829 0.5 0 0 0 -0.637573 -0.993271 1.1288 
157 2.28879 2.65211 1.12402 0.5 0 0 0 0.333598 -0.230737 0.723499 
158 1.97601 4.15403 0.975271 0.5 0 0 0 0.404542 -0.540373 0.510208 
159 1.30202 3.80287 0.707774 0.5 0 0 0 -0.13202 0.516288 0.25898 
160 2.25978 2.64393 -0.0732921 0.5 0 0 0 -0.478494 -0.501434 -2.673 
23 0.962132 2.54199 0.248238 0.5 0 0 0 0.775277 -0.195282 -0.0476482 
162 1.69243 3.28376 0.688212 0.5 0 0 0 1.10816 -0.412014 0.186951 
163 0.0413287 4.44313 0.0101776 0.5 0 0 0 0.227741 -0.442995 -0.609388 
164 2.14712 2.84689 0.191512 0.5 0 0 0 -0.0992057 -0.121548 -1.10244 
165 0.0909511 3.27534 0.313757 0.5 0 0 0 -1.79342 0.168354 0.889044 
166 2.19765 3.29178 0.984014 0.5 0 0 0 0.426641 -0.0728672 0.437582 
169 0.463449 3.13038 2.39827 0.5 0 0 0 -0.761651 0.716209 0.0716949 
170 1.91535 3.15615 2.11444 0.5 0 0 0 0.850014 -0.609239 0.276109 
171 0.0731305 4.12224 2.28628 0.5 0 0 0 -2.32465 -0.638978 -1.31688 
172 1.10385 2.49108 1.83479 0.5 0 0 0 0.113728 -0.0897935 0.287135 
173 1.82174 3.36308 1.88122 0.5 0 0 0 0.624482 -0.353037 -0.192804 
174 1.26915 2.64237 1.45142 0.5 0 0 0 0.152466 0.0686099 0.0522333 
175 1.5165 4.31087 1.98113 0.5 0 0 0 0.608817 -0.492249 -0.249134 
176 1.55214 2.54248 1.97066 0.5 0 0 0 1.07776 -0.388542 0.455826 
177 -0.000864518 2.86161 2.38797 0.5 0 0 0 -2.34371 0.44605 0.184773 
178 1.44946 3.12326 1.43829 0.5 0 0 0 0.262675 -0.115135 -0.0447241 
179 2.14586 3.0696 2.45798 0.5 0 0 0 1.21849 -1.0411 0.798676 
180 1.15673 3.75587 1.50516 0.5 0 0 0 -0.819958 -0.0253722 -0.175334 
181 1.90675 4.8254 1.69836 0.5 0 0 0 -0.110062 0.569148 -0.33849 
182 1.13561 4.0265 1.86656 0.5 0 0 0 -0.897752 -0.269055 -0.17638 
183 1.54777 4.578 2.2453 0.5 0 0 0 0.407826 -0.184489 0.381994 
184 0.375311 2.61523 1.7266 0.5 0 0 0 -1.25198 0.28869 -0.281881 
185 1.31385 4.74035 2.2815 0.5 0 0 0 -0.397755 0.23467 0.573746 
204 1.32468 2.72488 2.02243 0.5 0 0 0 0.41136 -0.151395 0.337886 
187 1.38995 2.59811 2.25108 0.5 0 0 0 0.72917 -0.475099 0.785667 
188 1.50496 3.99844 2.40064 0.5 0 0 0 0.211206 -0.474671 0.65097 
189 1.72033 3.51607 2.26762 0.5 0 0 0 0.268703 -0.402695 0.325114 
202 0.972526 3.69504 1.79271 0.5 0 0 0 -1.44566 -0.0254489 -0.100576 
191 2.16536 2.98689 2.46313 0.5 0 0 0 1.31928 -1.07886 0.829751 
192 1.889 3.66891 2.05625 0.5 0 0 0 0.64856 -0.47717 -0.120458 
193 0.891348 3.87886 2.43149 0.5 0 0 0 -1.1805 -0.0753046 0.529386 
194 0.584985 3.06103 2.1515 0.5 0 0 0 -0.561657 0.719668 -0.131407 
195 1.99793 2.84629 1.96781 0.5 0 0 0 1.27021 -0.681294 0.435262 
196 1.34713 4.40977 1.55938 0.5 0 0 0 -0.112897 0.0288062 -0.882916 
190 1.78495 4.93381 1.1726 0.5 0 0 0 -1.13941 1.85129 -0.30466 
198 0.864716 4.5435 2.00967 0.5 0 0 0 -2.11475 0.135874 -0.143088 
199 1.34387 3.07488 2.36975 0.5 0 0 0 -0.0317983 -0.265259 0.531318 
200 2.34844 5.02929 2.31953 0.5 0 0 0 -0.796903 1.59989 0.324408 
201 0.447627 2.72568 2.13465 0.5 0 0 0 -0.558435 0.0893735 0.113413 
70 0.869077 2.53772 2.15016 0.5 0 0 0 -0.0074446 -0.37953 0.682904 
145 2.08491 2.5666 1.35062 0.5 0 0 0 0.613509 -0.220207 0.593893 
161 0.304212 3.15922 1.21596 0.5 0 0 0 -2.20415 0.586635 0.685958 
205 1.20045 3.53231 3.03398 0.5 0 0 0 0.0678488 -0.334006 0.264398 
206 1.96354 4.32896 3.03559 0.5 0 0 0 -0.110273 -0.374467 0.795702 
207 0.12525 4.09144 3.71369 0.5 0 0 0 -0.808887 -0.464162 0.10916 
208 0.843591 2.50923 3.69924 0.5 0 0 0 0.234165 -2.55699 0.728902 
209 1.51896 3.92171 3.16325 0.5 0 0 0 0.196409 -0.117574 0.840613 
210 1.84193 3.57401 3.51447 0.5 0 0 0 0.186011 -0.79756 0.5275 
211 1.88266 3.75203 2.61168 0.5 0 0 0 0.452307 -0.560296 0.722442 
212 1.26728 4.95011 2.96344 0.5 0 0 0 -0.263374 0.344951 0.888402 
213 2.05997 3.14168 2.58517 0.5 0 0 0 0.926616 -0.952229 0.88678 
214 1.2445 3.27321 3.65914 0.5 0 0 0 0.794276 -0.802993 0.932498 
215 0.723581 3.1322 3.31571 0.5 0 0 0 -0.405271 -0.703714 -0.116962 
216 0.445429 3.1858 3.33118 0.5 0 0 0 -1.08579 -0.462264 -0.477954 
217 2.4775 2.71685 2.75587 0.5 0 0 0 1.39737 -1.20609 0.862044 
218 2.3856 5.03043 3.71336 0.5 0 0 0 -0.964691 1.53905 0.410955 
219 1.09024 2.6149 3.18493 0.5 0 0 0 0.202243 -1.69433 0.472065 
220 2.32371 4.8339 2.95769 0.5 0 0 0 -0.618038 0.361581 0.828786 
221 1.05556 3.48504 3.60298 0.5 0 0 0 0.438441 -0.233115 0.80525 
222 2.43947 3.20193 3.0653 0.5 0 0 0 0.899423 -1.47822 0.585509 
223 1.90844 2.5835 3.33421 0.5 0 0 0 1.00392 -1.39158 0.908061 
224 0.518842 4.9229 3.11834 0.5 0 0 0 -0.680193 1.04936 -0.18844 
225 0.511126 3.84252 3.64451 0.5 0 0 0 -0.152885 0.0961745 0.347044 
226 0.9477 4.03003 2.86601 0.5 0 0 0 -0.664873 0.111366 0.686493 
227 1.10353 3.04117 3.11188 0.5 0 0 0 0.291878 -0.946491 0.135906 
228 0.260912 4.35829 2.60106 0.5 0 0 0 -1.13173 -0.263861 -0.406442 
229 0.262292 4.30495 3.51799 0.5 0 0 0 -0.219807 -0.166073 -0.264813 
230 1.60813 2.9128 3.13403 0.5 0 0 0 0.859928 -1.11713 0.637787 
234 1.25336 3.65657 3.14787 0.5 0 0 0 0.170563 -0.177648 0.462582 
232 2.45704 3.29094 3.07976 0.5 0 0 0 0.789127 -1.453 0.514951 
233 1.25657 4.7676 3.4016 0.5 0 0 0 0.262817 -0.27013 0.631739 
472 2.51545 4.84304 2.81896 0.5 0 0 0 -0.52261 0.37663 0.860427 
251 1.85862 2.53246 3.78308 0.5 0 0 0 0.796302 -1.97063 0.861885 
452 2.41993 3.93784 3.55703 0.5 0 0 0 -0.618554 -0.767733 -0.227202 
254 1.67058 4.93834 3.76207 0.5 0 0 0 -0.108492 -0.00652044 -0.12682 
197 1.56002 4.63702 2.47551 0.5 0 0 0 0.194488 -0.0431784 0.939198 
235 1.25867 4.88886 4.11646 0.5 0 0 0 -0.0651326 -0.42247 -0.500019 
236 2.01963 3.92687 3.99277 0.5 0 0 0 -1.36746 -0.449666 -0.153227 
237 0.594823 2.54955 3.92612 0.5 0 0 0 0.437815 -2.2766 0.911905 
238 0.923658 4.7717 4.37611 0.5 0 0 0 0.150057 -0.396481 -0.108944 
239 0.87188 3.75292 3.98212 0.5 0 0 0 0.54748 0.0329297 1.33281 
240 2.06138 4.5736 4.57908 0.5 0 0 0 -2.31846 1.31114 0.10064 
241 2.18403 4.38619 4.75142 0.5 0 0 0 -2.57591 0.696993 0.680977 
242 0.097282 3.19401 4.41599 0.5 0 0 0 0.712106 -0.0226572 0.530367 
243 -0.0210863 2.72652 4.80956 0.5 0 0 0 0.478523 -2.54414 1.85158 
244 0.52383 4.91629 4.8473 0.5 0 0 0 -0.892548 0.136732 1.01532 
245 1.52927 3.07 4.9543 0.5 0 0 0 -1.28627 -1.12747 1.45295 
246 1.24538 3.71928 4.41729 0.5 0 0 0 -0.181746 -0.942092 1.03634 
247 2.42627 3.35711 3.82755 0.5 0 0 0 -0.0792564 -1.80324 -0.263732 
248 1.72736 2.67639 4.86734 0.5 0 0 0 -0.717036 -1.99976 0.514687 
249 1.67259 3.00147 4.12672 0.5 0 0 0 0.26895 -1.74656 0.717844 
250 1.29946 2.62047 3.95289 0.5 0 0 0 0.75371 -2.0843 1.28439 
259 0.587313 2.8217 3.88904 0.5 0 0 0 0.414866 -1.3214 0.940611 
258 0.0372914 2.95954 4.02069 0.5 0 0 0 -0.312611 -0.790848 -0.239203 
253 0.163213 2.67726 3.94064 0.5 0 0 0 -0.222677 -1.89761 0.00969526 
498 2.47241 3.56393 4.29257 0.5 0 0 0 -1.2094 -2.02099 -0.680354 
255 0.213923 3.66474 4.84726 0.5 0 0 0 0.696243 0.259976 1.04153 
256 2.32356 4.09436 4.60624 0.5 0 0 0 -2.25475 -0.685985 -0.15265 
257 1.27312 4.24124 4.86156 0.5 0 0 0 -0.926715 -1.02027 1.44442 
260 4.00548 -0.156992 0.919829 0.5 0 0 0 -0.224147 -2.77543 0.556824 
261 3.19555 2.28939 1.1298 0.5 0 0 0 -0.766262 0.0920781 1.34742 
262 4.78767 2.0216 0.404291 0.5 0 0 0 1.76563 0.433227 -1.0804 
263 4.86349 0.62684 0.989594 0.5 0 0 0 1.13938 -1.7779 0.856572 
264 3.25883 0.915978 0.201986 0.5 0 0 0 -0.773177 0.95499 -0.970775 
265 4.90555 1.41686 1.11292 0.5 0 0 0 1.84983 0.293392 1.4206 
266 4.83437 0.647196 -0.0129424 0.5 0 0 0 0.867794 -0.263176 -3.22882 
267 3.45727 1.79731 0.886209 0.5 0 0 0 -1.61338 -0.356152 0.380699 
268 2.89322 0.522864 0.844911 0.5 0 0 0 -0.153668 -0.397534 1.69458 
269 3.96981 1.81192 0.224044 0.5 0 0 0 -1.0467 -0.483309 -2.25328 
270 3.93633 1.90246 1.01936 0.5 0 0 0 -0.96769 0.532162 1.3224 
293 3.02089 2.402 0.572196 0.5 0 0 0 -0.796732 -0.433153 0.208555 
272 4.42309 1.79277 0.741691 0.5 0 0 0 0.0471686 0.718727 0.202824 
273 4.85214 1.36363 0.800134 0.5 0 0 0 1.45531 -0.322733 -0.105109 
274 2.68345 0.714079 0.824474 0.5 0 0 0 0.231231 -0.0903846 1.49872 
275 2.53787 2.34774 0.056441 0.5 0 0 0 -0.496774 -1.0739 -2.05808 
276 5.08107 0.0669124 0.787806 0.5 0 0 0 1.14256 -1.66555 0.654485 
294 3.1399 0.0914859 0.349253 0.5 0 0 0 0.150609 -2.3154 -0.195671 
278 3.60827 1.88445 0.93553 0.5 0 0 0 -1.47456 -0.0204919 0.739765 
279 3.71217 0.457462 0.171542 0.5 0 0 0 0.354203 -1.32189 -1.49388 
295 2.73142 1.13214 0.898668 0.5 0 0 0 -0.159645 0.170682 0.868982 
281 3.0564 0.151196 0.970876 0.5 0 0 0 -0.45141 -1.93756 1.77537 
282 3.87439 1.69556 1.09783 0.5 0 0 0 -1.31076 0.0497707 1.41501 
283 3.80612 2.33927 -0.181293 0.5 0 0 0 -1.10118 -0.928752 -3.77629 
284 4.16863 2.09977 0.500957 0.5 0 0 0 -0.29805 0.731215 -0.333579 
285 3.41145 2.33265 0.439945 0.5 0 0 0 -1.1192 -0.145078 -0.37069 
286 3.72183 0.963262 0.427496 0.5 0 0 0 -1.14004 -0.231028 -0.451738 
287 4.34117 1.0384 0.421515 0.5 0 0 0 -0.486899 -1.23541 -1.49502 
288 4.07943 1.6191 1.03377 0.5 0 0 0 -1.10331 0.12363 1.24633 
289 4.36668 1.05292 0.59649 0.5 0 0 0 -0.637133 -1.32408 -0.787507 
290 3.33103 0.992294 0.623107 0.5 0 0 0 -1.22173 0.311938 0.681986 
291 2.90505 1.0038 0.083133 0.5 0 0 0 -0.432343 1.52786 -1.78157 
297 3.1628 0.42264 1.81526 0.5 0 0 0 -1.29626 -1.55318 0.777136 
298 3.83872 2.08749 2.17162 0.5 0 0 0 -1.14481 -0.142803 1.04438 
299 3.06608 0.73219 2.23274 0.5 0 0 0 -0.806989 -0.563651 1.53063 
323 3.16958 1.7184 1.55879 0.5 0 0 0 -0.673992 -0.15887 1.15613 
301 3.32709 1.70196 2.15388 0.5 0 0 0 -0.572195 0.0774167 1.27869 
302 3.70477 0.97047 1.808 0.5 0 0 0 -0.872609 0.195377 1.52377 
303 3.80395 0.847812 1.94421 0.5 0 0 0 -0.641832 0.0391892 1.6493 
292 4.33293 1.2853 1.247 0.5 0 0 0 -0.639681 -0.24934 1.77516 
305 4.06195 1.45734 1.37118 0.5 0 0 0 -1.02095 0.152804 2.08151 
306 4.61121 1.24738 1.92467 0.5 0 0 0 0.787633 -0.045267 1.5553 
307 4.02806 0.00289886 2.16168 0.5 0 0 0 -1.9892 -2.04562 -0.12528 
308 4.72506 0.104429 2.27495 0.5 0 0 0 0.05736 -0.24705 0.0162123 
309 3.95474 0.747126 1.92069 0.5 0 0 0 -0.468731 -0.276002 1.65561 
310 4.61075 2.32872 1.97826 0.5 0 0 0 0.484463 -0.142862 0.410057 
311 3.53785 2.25908 2.09172 0.5 0 0 0 -0.893444 0.158239 1.12886 
321 4.85074 -0.0225707 2.20582 0.5 0 0 0 0.482374 -0.650828 -0.309899 
313 2.56726 1.50595 2.20377 0.5 0 0 0 0.109474 0.00596419 1.31397 
320 2.69246 1.31431 1.87261 0.5 0 0 0 0.0635635 -0.0689392 0.908777 
315 3.26739 0.871674 1.9548 0.5 0 0 0 -0.804986 -0.121821 1.16741 
316 4.50045 1.00423 2.30412 0.5 0 0 0 0.307741 0.0216571 0.921402 
317 4.42454 1.96834 2.33396 0.5 0 0 0 -0.426082 -0.757539 0.429069 
318 3.62756 0.647099 1.4244 0.5 0 0 0 -1.29705 -0.894216 0.717586 
319 3.17122 2.16817 1.97116 0.5 0 0 0 -0.361798 0.250616 1.24401 
271 4.89445 1.59839 1.20694 0.5 0 0 0 1.99253 1.05743 1.86759 
19 2.58919 1.86325 1.1735 0.5 0 0 0 0.0130824 -0.264311 0.539883 
280 3.82517 0.80842 1.18765 0.5 0 0 0 -1.36631 -0.81654 0.795735 
300 4.20682 2.38482 1.22813 0.5 0 0 0 -0.0437557 0.850095 1.85771 
296 4.29953 0.620866 1.1735 0.5 0 0 0 -0.391173 -1.69162 0.799788 
277 3.47973 2.13585 1.1768 0.5 0 0 0 -1.08775 0.31178 1.56492 
324 4.20049 1.07209 3.60419 0.5 0 0 0 -1.49448 0.44758 -0.557437 
325 3.13525 0.346653 3.34054 0.5 0 0 0 -3.12532 -1.26457 1.33759 
326 3.66739 1.472 3.67458 0.5 0 0 0 -1.94328 -0.405522 -0.0547106 
327 4.15864 1.37271 2.56514 0.5 0 0 0 -0.879732 -0.248769 0.532215 
328 3.56053 0.746071 2.82266 0.5 0 0 0 -1.23031 0.197353 0.970861 
329 4.6547 1.8582 2.76121 0.5 0 0 0 0.287425 -1.60678 -0.422585 
330 3.37921 1.61927 3.26274 0.5 0 0 0 -1.49016 -0.393446 0.612958 
331 4.42014 1.68675 3.2659 0.5 0 0 0 -1.11423 -1.26884 -0.407866 
332 4.72992 0.335378 2.57276 0.5 0 0 0 0.295615 0.868829 -0.287304 
333 2.66869 0.745655 3.45056 0.5 0 0 0 -3.1268 -1.5228 2.19029 
334 4.39709 0.492247 3.23252 0.5 0 0 0 -0.533113 0.856184 -1.84103 
335 5.05887 2.33764 2.86349 0.5 0 0 0 3.04186 -1.00714 -0.903814 
336 4.05519 0.349996 3.25553 0.5 0 0 0 -1.75578 0.276349 -0.965878 
350 2.94785 1.6205 2.671 0.5 0 0 0 -0.331932 -0.231879 1.44434 
338 2.75764 1.04701 3.70241 0.5 0 0 0 -3.05274 -1.44822 1.35404 
339 2.70521 0.895143 2.70662 0.5 0 0 0 -1.0301 -1.15819 2.43857 
340 2.93397 1.02898 3.59673 0.5 0 0 0 -2.7606 -1.00176 1.23852 
341 4.47472 1.99479 3.43292 0.5 0 0 0 -1.11103 -1.62627 0.0347163 
342 4.92134 1.88468 3.61398 0.5 0 0 0 1.08784 -1.75801 0.255057 
343 3.24144 1.5906 2.6238 0.5 0 0 0 -0.676343 -0.187428 1.25354 
349 4.19679 -0.0384119 3.21981 0.5 0 0 0 -1.68687 -1.34802 -1.61054 
345 3.47822 0.0426561 3.05536 0.5 0 0 0 -2.73636 -2.21433 0.525293 
346 3.69693 0.812519 3.53319 0.5 0 0 0 -2.44882 0.196035 0.133094 
347 2.80181 1.66491 2.63693 0.5 0 0 0 -0.10291 -0.190711 1.44763 
348 2.63913 1.65882 2.67644 0.5 0 0 0 0.040276 -0.424355 1.55993 
352 4.94759 1.25163 3.70678 0.5 0 0 0 1.53042 -0.0804226 -0.468117 
469 4.12804 2.45322 2.60915 0.5 0 0 0 -1.94931 -0.32757 -0.220472 
304 2.73537 0.148573 2.52864 0.5 0 0 0 -1.73134 -2.67698 1.93464 
384 4.55124 0.313805 3.78157 0.5 0 0 0 -1.08603 0.714403 -1.93755 
351 4.81681 0.433181 4.13216 0.5 0 0 0 0.535579 1.28441 -0.255458 
381 3.28514 1.873 4.23842 0.5 0 0 0 -1.69193 -1.0593 -1.04759 
353 3.42786 1.25796 4.13506 0.5 0 0 0 -2.41249 -0.741754 -0.231628 
354 3.93464 1.93868 4.94642 0.5 0 0 0 -0.469382 -0.731157 1.1588 
355 4.89446 2.33384 4.00751 0.5 0 0 0 0.313377 -1.36285 1.33104 
356 4.45179 -0.173164 4.76969 0.5 0 0 0 -1.86 -2.81269 1.5857 
383 4.13179 0.484748 4.99292 0.5 0 0 0 -2.19925 0.864378 2.56467 
358 5.09289 1.5728 4.75784 0.5 0 0 0 1.28529 -0.321779 1.65888 
359 3.01963 1.92092 4.29427 0.5 0 0 0 -1.6471 -1.29441 -1.07771 
360 4.55823 0.294841 4.19704 0.5 0 0 0 -1.20757 0.680679 -0.312388 
361 5.0107 2.27455 4.16295 0.5 0 0 0 0.815372 -1.7161 1.7449 
362 4.17112 0.254776 4.2464 0.5 0 0 0 -3.318 0.0156607 -0.205685 
363 3.91129 0.319091 4.53698 0.5 0 0 0 -4.1204 -0.228995 0.557638 
364 2.66472 1.94634 4.90104 0.5 0 0 0 -2.03351 -1.87523 0.775541 
365 3.16969 1.79581 4.59542 0.5 0 0 0 -1.63185 -1.5283 -0.429077 
366 4.61143 0.911571 4.1486 0.5 0 0 0 -0.161765 1.71033 0.501479 
367 3.81676 -0.0602566 3.84489 0.5 0 0 0 -4.38241 -2.21112 0.189266 
368 4.06429 1.84855 4.28442 0.5 0 0 0 -1.15824 -0.718811 -0.0177391 
369 3.4942 1.48242 4.35656 0.5 0 0 0 -1.88362 -0.953651 -0.468754 
370 2.82998 0.443279 4.66007 0.5 0 0 0 -3.54662 -1.08074 0.0900228 
371 4.72583 0.25074 4.64225 0.5 0 0 0 0.353991 0.645403 1.6131 
382 3.88418 0.944614 3.84084 0.5 0 0 0 -2.45407 0.362152 -0.0352598 
373 4.63289 0.300493 3.94053 0.5 0 0 0 -0.776896 0.734391 -1.37524 
374 4.53401 0.486205 4.0481 0.5 0 0 0 -1.13014 1.24199 -0.778723 
375 5.03449 0.010094 4.98313 0.5 0 0 0 3.59467 -1.18701 3.20916 
376 4.10392 1.60788 4.6828 0.5 0 0 0 -0.582523 -0.440854 0.45343 
377 4.01537 2.10371 5.10767 0.5 0 0 0 -0.109942 -0.494931 2.13383 
378 2.91759 1.64263 5.01093 0.5 0 0 0 -1.92859 -2.16826 1.57485 
379 3.53377 0.926493 5.07409 0.5 0 0 0 -2.3833 -0.425517 1.83407 
380 3.06476 2.29047 4.29765 0.5 0 0 0 -1.4192 -1.25233 -1.06821 
385 2.72743 3.16667 0.678627 0.5 0 0 0 -0.259397 0.0375827 0.477837 
386 4.46001 4.72631 0.0499694 0.5 0 0 0 0.670218 0.329303 -0.709541 
387 3.86554 3.94207 0.13887 0.5 0 0 0 0.11931 -0.411031 -0.427984 
388 4.3202 4.0172 1.07918 0.5 0 0 0 -0.817697 -0.17284 -1.10384 
389 3.81849 3.08829 0.794956 0.5 0 0 0 -0.593875 0.0886584 0.755378 
390 3.64731 4.11213 0.128382 0.5 0 0 0 0.0900835 -0.597303 0.0534276 
391 5.05323 4.32999 1.0758 0.5 0 0 0 2.1432 1.08714 -1.29526 
392 4.88878 2.67893 0.295458 0.5 0 0 0 1.32131 0.365142 -0.297471 
393 4.52615 4.58373 0.677718 0.5 0 0 0 -0.014871 1.27496 -0.991543 
394 2.76375 2.92559 1.08837 0.5 0 0 0 0.0172062 -0.151016 1.30109 
395 4.91111 2.95983 0.998607 0.5 0 0 0 1.355 -0.497218 1.14152 
396 4.08242 3.07659 0.0175074 0.5 0 0 0 -0.34392 0.450818 -1.52531 
397 5.07977 4.04744 0.825044 0.5 0 0 0 2.38243 -0.0624971 -1.63057 
398 2.92734 4.94157 0.00821442 0.5 0 0 0 -0.477119 2.03753 -1.50093 
399 3.38818 4.92149 0.588321 0.5 0 0 0 0.578026 1.09103 -0.330968 
400 3.33768 4.51273 0.419338 0.5 0 0 0 0.195511 -0.603879 0.275918 
401 3.37373 2.65717 0.0719854 0.5 0 0 0 -0.978794 -0.396989 -1.65029 
402 2.72655 3.11912 0.688009 0.5 0 0 0 -0.262867 0.0099895 0.537493 
403 4.76397 3.22272 0.182958 0.5 0 0 0 0.431343 0.481353 -1.34407 
404 4.20748 2.63552 0.142008 0.5 0 0 0 -0.164171 0.531412 -0.893968 
405 4.05946 4.87616 -0.0238897 0.5 0 0 0 0.282823 0.873232 -0.164243 
406 4.20552 3.58907 1.03062 0.5 0 0 0 -0.887387 -0.743109 -0.290765 
407 2.81353 4.2113 -0.0113345 0.5 0 0 0 -0.346717 -0.769306 -1.25043 
408 4.9935 3.11745 0.424442 0.5 0 0 0 1.24833 -0.050677 -0.253457 
409 3.77205 3.30856 0.562627 0.5 0 0 0 -0.535911 0.0680982 0.0361864 
410 3.87007 2.62726 0.885777 0.5 0 0 0 -0.53255 0.714099 1.23163 
411 4.18382 2.65307 1.06402 0.5 0 0 0 -0.135371 0.559398 1.46064 
412 3.09159 3.18162 0.446709 0.5 0 0 0 -0.480433 0.0500433 0.061497 
413 2.9187 3.71694 0.925145 0.5 0 0 0 -0.225708 -0.363129 0.330758 
414 2.70955 4.48431 0.643286 0.5 0 0 0 -0.107192 -0.930278 0.142364 
415 2.6388 4.93667 1.11349 0.5 0 0 0 -1.07917 0.886347 -0.319901 
417 3.0858 3.60768 0.193224 0.5 0 0 0 -0.439151 -0.300431 -0.62233 
418 4.81607 4.17572 1.6567 0.5 0 0 0 0.591394 -0.344389 0.0452578 
419 2.97104 3.77731 2.20128 0.5 0 0 0 0.527144 -1.67742 0.597775 
420 4.87673 3.94973 2.41375 0.5 0 0 0 0.274849 -1.57635 0.677216 
421 4.8751 4.57039 1.80973 0.5 0 0 0 1.01154 1.67479 -0.455587 
422 4.26911 4.54909 1.75393 0.5 0 0 0 0.210634 0.978854 0.1596 
423 3.64883 4.60708 1.39654 0.5 0 0 0 0.361045 0.133718 -1.23183 
424 4.35686 3.80958 1.43822 0.5 0 0 0 -0.729181 -1.16535 0.52454 
425 2.78397 3.15329 1.33965 0.5 0 0 0 0.22367 -0.293636 1.28221 
426 3.24265 4.5535 2.11577 0.5 0 0 0 0.105241 -0.908414 1.66015 
427 3.29534 4.61705 1.65763 0.5 0 0 0 -0.180086 -0.610711 -0.144503 
428 4.92768 4.3107 2.00987 0.5 0 0 0 0.632389 -0.199139 0.0995237 
429 3.19584 4.83428 1.72876 0.5 0 0 0 -0.356614 0.283537 0.170779 
430 2.95764 4.84836 1.32106 0.5 0 0 0 -0.875949 0.354231 -0.984277 
431 3.50765 2.67592 2.37492 0.5 0 0 0 -0.874493 -0.138906 0.589053 
432 3.95776 2.50817 1.48 0.5 0 0 0 -0.674962 0.427662 1.94293 
433 2.74246 4.35531 2.39777 0.5 0 0 0 -0.216767 -1.01733 0.873562 
434 3.13473 4.50779 1.94043 0.5 0 0 0 -0.33203 -1.07922 0.870695 
435 3.61635 4.6595 1.62656 0.5 0 0 0 0.532144 0.0850894 -0.176535 
436 3.34107 3.27577 2.05507 0.5 0 0 0 -0.141779 -0.94035 0.961145 
437 3.80655 3.98331 1.78453 0.5 0 0 0 -0.714594 -1.51621 0.940786 
438 5.00234 3.5283 1.86043 0.5 0 0 0 1.73064 -1.93272 0.236741 
439 4.48504 4.48045 2.45638 0.5 0 0 0 -0.69992 0.100565 1.44687 
440 2.64624 3.87468 2.23009 0.5 0 0 0 0.374694 -1.16791 0.247909 
441 2.92967 4.74914 2.12021 0.5 0 0 0 -0.68167 -0.00188021 1.10787 
442 3.06368 4.58908 1.3818 0.5 0 0 0 -0.702509 -0.753023 -1.05746 
443 3.87393 4.1195 1.96441 0.5 0 0 0 -0.42617 -1.36555 1.44371 
444 2.67807 4.3564 1.89243 0.5 0 0 0 -0.768881 -0.933508 -0.157711 
445 4.42925 3.75366 1.23855 0.5 0 0 0 -0.571443 -1.03448 -0.0131112 
446 4.16136 3.88014 2.29142 0.5 0 0 0 -0.971825 -1.56504 1.40261 
447 3.98413 3.8338 1.70991 0.5 0 0 0 -1.00345 -1.50691 1.02251 
448 4.54614 2.8292 2.22811 0.5 0 0 0 -0.16733 0.272959 -0.265119 
449 3.08114 3.86142 1.29596 0.5 0 0 0 -0.376897 -0.892158 0.0159976 
450 3.48301 3.36566 1.39672 0.5 0 0 0 -0.555945 -0.72355 1.08941 
416 4.43939 3.86705 1.2623 0.5 0 0 0 -0.553495 -0.823844 -0.162321 
203 2.54257 2.99444 1.48495 0.5 0 0 0 0.543072 -0.349888 1.11904 
322 2.8968 2.52125 1.8635 0.5 0 0 0 0.20143 -0.0968932 1.34302 
314 4.95154 2.49957 1.43986 0.5 0 0 0 2.18028 0.0170284 0.881063 
479 2.67201 3.66333 3.67497 0.5 0 0 0 -0.203285 -1.64077 -0.627255 
453 4.81673 2.73412 3.2535 0.5 0 0 0 0.831737 0.571451 -0.423164 
454 3.96861 3.31053 2.81272 0.5 0 0 0 -1.04518 -0.0947068 0.106195 
455 2.9786 4.28332 3.66018 0.5 0 0 0 -0.726485 -0.93198 -1.02444 
456 2.78681 4.65171 3.10914 0.5 0 0 0 -0.203221 -0.442479 0.326356 
457 3.04669 4.89391 2.94079 0.5 0 0 0 0.553131 0.687039 0.70605 
458 3.38148 3.15475 2.90913 0.5 0 0 0 -0.536571 -0.877612 0.204818 
459 4.79833 4.06688 2.63942 0.5 0 0 0 -0.128134 -1.05996 1.14748 
460 4.3388 2.93317 3.14829 0.5 0 0 0 -1.28465 1.05576 -0.479623 
461 4.46961 4.44766 2.57146 0.5 0 0 0 -0.804 -0.0313108 1.57326 
462 4.70144 4.99919 2.54255 0.5 0 0 0 0.456895 4.60248 1.38137 
463 4.41338 2.63817 2.73773 0.5 0 0 0 -1.22614 -0.00241776 -0.778324 
464 3.08229 3.82562 3.12878 0.5 0 0 0 0.298987 -1.73461 -0.110327 
465 3.57021 3.93289 3.56067 0.5 0 0 0 0.454585 -1.22723 -1.19875 
466 4.19207 2.57746 3.01757 0.5 0 0 0 -2.12594 -0.251454 -0.640498 
467 3.47467 4.4369 3.46201 0.5 0 0 0 0.871054 -0.333503 -0.872489 
468 4.83205 2.71881 2.53954 0.5 0 0 0 1.39736 0.238155 -0.966736 
344 4.1894 2.52631 3.41191 0.5 0 0 0 -2.05247 -0.494554 0.00249586 
470 4.48469 2.5291 3.64937 0.5 0 0 0 -1.05986 -0.473941 0.538392 
471 3.84038 4.76543 3.03905 0.5 0 0 0 0.428602 1.21799 0.48938 
451 2.79986 3.79809 2.4996 0.5 0 0 0 0.673133 -1.50339 0.668451 
473 2.91846 5.0861 3.74857 0.5 0 0 0 -0.149559 2.67783 0.232588 
474 4.50733 2.85757 3.6255 0.5 0 0 0 -0.71089 1.04254 0.308574 
478 3.98901 2.61315 3.41298 0.5 0 0 0 -2.49931 -0.216029 -0.0580415 
476 4.67836 3.70549 3.01079 0.5 0 0 0 0.0893591 -0.00660262 0.817187 
477 2.80107 4.25512 2.5663 0.5 0 0 0 0.0882347 -1.26937 0.940728 
337 4.00854 2.47712 3.28526 0.5 0 0 0 -2.56712 -0.5879 -0.210845 
475 4.80452 4.05407 3.78608 0.5 0 0 0 0.93924 -0.0504955 -0.155898 
480 3.58954 3.80889 4.79313 0.5 0 0 0 1.28069 -1.32203 0.955232 
481 4.13979 3.02608 4.95779 0.5 0 0 0 -0.268039 -1.47017 2.1423 
482 3.77862 3.59844 4.0078 0.5 0 0 0 0.420657 -0.998528 -1.09698 
483 4.4053 4.8875 4.10611 0.5 0 0 0 0.262964 0.500336 -1.75143 
484 3.17257 4.00242 3.9681 0.5 0 0 0 -0.446852 -1.44897 -1.51116 
485 3.66542 3.93623 4.40885 0.5 0 0 0 1.30963 -0.835979 -0.60077 
486 4.72062 4.70312 4.34975 0.5 0 0 0 -0.0982059 -0.899035 -1.36613 
487 3.2799 3.12528 4.27902 0.5 0 0 0 -0.664684 -1.98181 -0.831748 
488 4.67013 3.1766 4.66623 0.5 0 0 0 0.0222989 0.0685964 0.97122 
489 3.35019 4.83712 5.08972 0.5 0 0 0 -0.173358 3.09041 3.98343 
490 3.58041 3.44622 4.24509 0.5 0 0 0 -0.0363379 -1.73958 -0.884333 
491 3.71319 4.11091 4.82948 0.5 0 0 0 2.05145 -0.117115 1.33694 
492 2.66401 3.19063 4.79124 0.5 0 0 0 -1.28706 -2.59101 0.923007 
493 4.51494 3.66926 4.72374 0.5 0 0 0 1.18582 0.523234 0.678175 
494 3.42613 3.64515 5.12503 0.5 0 0 0 0.777722 -2.09052 3.3119 
495 2.6833 4.06724 4.41671 0.5 0 0 0 -1.05378 -0.908396 -1.15864 
496 2.62237 3.80936 4.95756 0.5 0 0 0 -1.37837 -1.77673 1.45777 
497 3.38169 4.37698 3.9444 0.5 0 0 0 0.446706 -0.250725 -1.31607 
357 3.44984 2.4954 4.63855 0.5 0 0 0 -0.880719 -1.29876 0.135072 
499 3.95607 2.50645 4.05608 0.5 0 0 0 -1.53382 -0.749095 0.251145 
500 4.65467 4.93223 4.97399 0.5 0 0 0 -0.725043 -0.119522 1.69272 
501 4.62616 4.8156 4.90394 0.5 0 0 0 -0.283511 -0.293763 1.29265 
502 2.68187 3.97566 4.77886 0.5 0 0 0 -0.99892 -1.16848 0.287558 
503 2.93975 4.25916 4.55901 0.5 0 0 0 -0.375643 -0.128627 -0.685915 
504 3.55114 3.30535 4.29101 0.5 0 0 0 -0.234633 -1.87481 -0.698623 
505 3.69577 4.8226 4.28552 0.5 0 0 0 1.42016 1.77449 -0.194307 
506 4.09436 4.02173 3.97424 0.5 0 0 0 1.82443 0.0294027 -0.94728 
507 4.9127 2.81898 3.94309 0.5 0 0 0 0.483202 0.990027 0.557293 
508 2.87514 3.92811 4.68635 0.5 0 0 0 -0.39176 -1.4077 -0.2694 
509 3.30514 4.75551 4.40391 0.5 0 0 0 0.178854 1.78586 -0.100202 
510 3.08449 4.49513 4.06087 0.5 0 0 0 -0.596023 0.201671 -1.22209 
511 2.64438 3.03165 4.50455 0.5 0 0 0 -1.02998 -2.20826 -0.126212 
512 2.66599 2.8248 4.36837 0.5 0 0 0 -0.847042 -1.88596 -0.442518 
513 4.86973 3.02688 4.29851 0.5 0 0 0 0.304322 1.03364 0.591103 
ITEM: TIMESTEP
60065
ITEM: NUMBER OF ATOMS
512
ITEM: BOX BOUNDS ss ss ss
-2.1589663964569298e-02 5.0933846546203574e+00
-1.7364439631764822e-01 5.0865807164741392e+00
-1.8176655292622759e-01 5.1255068607205727e+00
ITEM: ATOMS id x y z width_SPH x_COM y_COM z_COM vx vy vz 
2 0.301059 0.775933 0.246861 0.5 0 0 0 -1.37922 -0.579482 0.0688378 
3 0.259433 1.291 0.605721 0.5 0 0 0 -2.08432 -0.964638 0.287769 
4 0.787479 1.24764 1.03676 0.5 0 0 0 -0.386219 -0.340101 0.749183 
5 1.73539 1.8934 0.823939 0.5 0 0 0 0.958508 0.352087 0.221141 
6 0.274192 2.07866 0.848534 0.5 0 0 0 -2.11841 0.860414 1.1665 
7 0.546655 1.58453 0.342545 0.5 0 0 0 -0.688652 -0.37206 -0.682065 
8 1.33606 0.225897 0.773366 0.5 0 0 0 0.0500262 -0.68541 1.18407 
9 1.53469 0.986432 0.331377 0.5 0 0 0 0.774031 0.260684 -0.74735 
10 1.11158 1.53603 -0.0685606 0.5 0 0 0 0.983778 -0.388486 -2.84956 
11 1.39605 1.22774 0.796169 0.5 0 0 0 0.782276 0.130022 0.282651 
38 1.08307 2.32881 0.776651 0.5 0 0 0 0.516819 0.421764 0.862937 
41 2.23084 2.37931 1.0229 0.5 0 0 0 0.351357 -0.202257 0.556556 
14 1.26049 2.06321 0.32927 0.5 0 0 0 1.3226 0.11781 -0.380248 
15 1.54694 0.0394725 0.976128 0.5 0 0 0 1.23301 -1.50687 2.1237 
37 0.636902 0.390264 0.353984 0.5 0 0 0 -1.47725 -0.58652 0.379735 
17 1.08138 0.119433 0.519718 0.5 0 0 0 -1.29664 -0.687368 0.538468 
18 1.50826 -0.0164901 0.045895 0.5 0 0 0 0.021029 -0.949693 -1.1522 
40 1.99513 0.669574 0.604466 0.5 0 0 0 1.39258 -0.197984 0.904829 
20 0.369816 1.75927 1.04789 0.5 0 0 0 -1.73132 0.350018 1.28562 
21 1.878 1.79469 0.745542 0.5 0 0 0 1.08068 0.226346 -0.00310017 
22 0.552785 2.4223 0.409939 0.5 0 0 0 -0.55824 0.212976 0.657488 
39 0.791152 1.5785 0.810201 0.5 0 0 0 0.140691 0.227589 0.408946 
24 0.00340316 0.598284 0.0816946 0.5 0 0 0 -2.7279 -0.779871 -0.133704 
25 1.95436 0.260598 0.581884 0.5 0 0 0 1.68401 -0.75504 1.36421 
26 1.35581 0.890949 0.584786 0.5 0 0 0 0.399568 0.0193227 -0.00984536 
27 0.864669 1.81411 0.900155 0.5 0 0 0 0.377398 0.670885 0.691809 
28 2.15664 0.959748 0.359458 0.5 0 0 0 0.883526 0.501555 -0.229978 
29 2.42448 1.35996 0.269406 0.5 0 0 0 0.107995 1.01774 -1.19044 
30 1.3992 0.24243 0.884065 0.5 0 0 0 0.488739 -0.821773 1.457 
31 1.65838 1.51848 0.685685 0.5 0 0 0 1.20234 0.362133 0.0102143 
32 1.30153 2.09592 0.250955 0.5 0 0 0 1.47632 0.00634505 -0.708886 
33 1.46276 1.14326 0.721759 0.5 0 0 0 0.856781 0.070125 0.199786 
34 0.622254 2.08924 -0.0271285 0.5 0 0 0 -0.447973 -0.575362 -2.02293 
35 1.77116 0.0448062 -0.128824 0.5 0 0 0 1.17614 -0.864575 -2.2545 
36 0.968307 0.88323 0.0786134 0.5 0 0 0 0.0956084 0.0328171 -1.47962 
144 0.0211947 2.45507 0.114569 0.5 0 0 0 -3.16812 -0.780062 -1.09893 
43 1.54524 0.0677219 1.95232 0.5 0 0 0 1.54677 -2.0589 2.27931 
44 1.36472 2.35713 1.90941 0.5 0 0 0 0.773286 -0.347985 0.538705 
45 1.3338 1.11988 1.48553 0.5 0 0 0 0.476506 -0.198919 1.55748 
46 1.38771 2.23672 2.32626 0.5 0 0 0 0.773066 -0.849668 1.17322 
47 1.3959 1.26087 1.91897 0.5 0 0 0 -0.0998332 -0.503566 2.36783 
48 1.18006 0.812491 1.47866 0.5 0 0 0 0.169862 -0.426949 1.76227 
49 2.47935 2.34211 1.69817 0.5 0 0 0 0.558014 -0.173283 1.19152 
50 0.891247 0.608879 1.6702 0.5 0 0 0 -1.07938 -0.542168 2.51079 
51 1.96893 0.939584 1.80624 0.5 0 0 0 0.474663 -1.0968 1.64682 
52 0.671606 1.64139 1.3334 0.5 0 0 0 -0.669174 0.0976806 1.61562 
53 2.1247 1.44177 1.71791 0.5 0 0 0 0.456189 0.123595 0.952332 
54 0.390181 0.0429149 2.20343 0.5 0 0 0 -1.55321 -1.25147 0.557999 
55 1.73185 1.84185 1.70753 0.5 0 0 0 0.650507 0.164889 0.906622 
16 2.25736 2.0163 1.1787 0.5 0 0 0 0.457629 -0.0719273 0.552917 
57 2.38803 1.07706 1.62869 0.5 0 0 0 0.47261 -0.693357 0.755434 
58 1.78529 0.149188 2.23911 0.5 0 0 0 1.03269 -2.02269 2.71632 
59 1.24236 0.5826 2.3788 0.5 0 0 0 0.260599 -0.272323 3.92134 
60 0.669148 1.69642 1.57453 0.5 0 0 0 -0.979951 -0.221878 2.09607 
61 1.33412 0.300395 1.71433 0.5 0 0 0 0.887259 -1.21202 2.26358 
78 1.05745 1.89882 1.61754 0.5 0 0 0 0.147239 0.000534924 1.16133 
63 2.01583 1.57785 2.03482 0.5 0 0 0 0.300766 -0.0541871 1.40505 
64 0.517035 0.357618 2.37908 0.5 0 0 0 -0.565292 0.530385 2.62107 
65 1.06184 1.77544 2.19874 0.5 0 0 0 -0.468623 -1.40528 2.12133 
66 2.34198 0.86194 2.01784 0.5 0 0 0 0.0264924 -1.35147 1.67451 
67 1.10297 0.688532 2.02629 0.5 0 0 0 -0.327904 -0.221851 3.45706 
68 2.05806 1.47707 1.72367 0.5 0 0 0 0.443866 0.165829 1.00095 
69 1.40306 0.742943 2.26943 0.5 0 0 0 -0.0127316 -0.601956 3.567 
77 0.387389 1.54418 1.42855 0.5 0 0 0 -2.22892 -0.477396 2.42529 
71 0.737601 0.532102 1.43848 0.5 0 0 0 -1.94545 -0.911211 1.66723 
72 1.00639 2.24107 2.44178 0.5 0 0 0 0.00218597 -1.25804 1.46171 
73 2.05738 1.03318 1.69109 0.5 0 0 0 0.568048 -0.882774 1.23015 
74 2.23184 1.01521 2.36174 0.5 0 0 0 -0.384271 -1.45767 2.51906 
75 0.029765 2.3112 2.22173 0.5 0 0 0 -2.35306 -1.61491 0.705447 
76 0.971334 1.10814 1.45356 0.5 0 0 0 -0.382587 -0.281271 1.81093 
12 1.34529 1.51116 1.24545 0.5 0 0 0 0.683735 0.377322 0.874133 
13 1.86621 1.32627 1.25809 0.5 0 0 0 0.997011 -0.0560536 0.662324 
312 2.49224 -0.0785518 1.66922 0.5 0 0 0 -0.146799 -2.94597 1.29966 
42 1.22906 0.72634 1.23556 0.5 0 0 0 0.353159 -0.502417 1.15911 
79 1.43519 2.24237 3.26306 0.5 0 0 0 0.0223929 -2.28932 1.21437 
80 0.722439 0.183725 2.71178 0.5 0 0 0 1.47956 0.523539 2.97284 
81 1.07278 0.41499 2.90581 0.5 0 0 0 1.62679 0.318607 4.42171 
82 1.30862 1.94323 2.75296 0.5 0 0 0 -0.307578 -2.04015 1.91001 
83 1.70365 2.04278 2.87994 0.5 0 0 0 0.281033 -1.5293 1.51928 
84 1.24767 0.840084 3.71741 0.5 0 0 0 1.33462 -3.77958 4.5627 
85 2.02471 1.84019 2.82634 0.5 0 0 0 0.380627 -1.35916 1.64398 
106 1.36418 1.31962 2.61108 0.5 0 0 0 -0.890015 -2.18674 3.25927 
87 0.898791 2.29174 3.34264 0.5 0 0 0 -0.29388 -2.93011 0.785272 
88 1.94612 1.38119 2.97943 0.5 0 0 0 -0.745019 -2.92607 2.85483 
89 1.47552 0.236484 3.78195 0.5 0 0 0 0.219578 1.79092 4.58118 
100 0.580245 2.1647 2.54007 0.5 0 0 0 -0.486529 -1.98827 1.75437 
91 1.72848 1.44583 2.74128 0.5 0 0 0 -0.619511 -2.43809 2.67727 
92 0.127767 2.0969 2.8373 0.5 0 0 0 -1.29456 -2.8237 1.55054 
93 0.715285 0.310073 2.79201 0.5 0 0 0 1.35814 0.93043 3.27144 
94 1.45135 1.94301 2.62581 0.5 0 0 0 0.0977423 -1.59539 1.724 
95 2.18938 2.14758 3.16346 0.5 0 0 0 0.868261 -1.23577 1.36448 
96 0.949789 1.87738 2.59394 0.5 0 0 0 -0.661385 -2.26221 2.27306 
97 1.79655 0.470844 3.60668 0.5 0 0 0 -2.34265 -1.28819 5.27508 
98 0.273038 1.57184 2.88924 0.5 0 0 0 -0.472624 -2.69565 1.99015 
99 2.15148 1.76572 3.33725 0.5 0 0 0 -0.0623711 -2.43027 1.94136 
105 0.74831 0.114092 3.13351 0.5 0 0 0 2.42395 0.805863 3.07572 
186 0.405523 2.44494 2.60323 0.5 0 0 0 -0.466341 -1.47821 1.20443 
102 1.84309 1.71236 3.01666 0.5 0 0 0 -0.358364 -2.45644 2.17469 
103 0.428593 1.0381 3.214 0.5 0 0 0 1.28692 -1.21717 2.32733 
231 1.26226 2.35114 3.50858 0.5 0 0 0 0.166536 -2.64007 0.961308 
62 2.18333 1.76448 2.56416 0.5 0 0 0 0.450534 -0.647151 1.47222 
131 1.85477 1.65838 3.77351 0.5 0 0 0 -0.993876 -4.306 2.03117 
56 2.44014 0.522574 2.48152 0.5 0 0 0 -0.939957 -1.83356 2.60196 
107 1.79923 0.179197 4.53984 0.5 0 0 0 -2.45801 2.41502 -3.09036 
108 1.07474 1.50089 4.4532 0.5 0 0 0 2.22985 -3.92923 -0.41083 
109 1.8042 0.539854 4.27431 0.5 0 0 0 -4.0834 -0.270179 -1.06222 
110 1.90996 0.68671 4.17965 0.5 0 0 0 -4.68661 -2.33689 0.535292 
139 1.01001 0.534251 4.8421 0.5 0 0 0 4.18352 -0.557577 -2.80629 
112 1.75816 0.698002 4.66541 0.5 0 0 0 -1.94908 -1.78472 -4.66963 
113 1.92755 1.25303 4.43647 0.5 0 0 0 -2.16237 -4.87589 -0.595466 
114 0.87301 0.925231 4.48011 0.5 0 0 0 4.97018 -2.01789 -2.19316 
115 1.8402 0.570505 4.46819 0.5 0 0 0 -3.72972 -0.563691 -3.38045 
116 0.780068 0.159624 4.3033 0.5 0 0 0 4.86702 0.454694 -1.14693 
117 0.976228 0.936269 4.21247 0.5 0 0 0 4.88935 -3.28008 -0.842623 
138 0.0273679 1.19267 4.38545 0.5 0 0 0 0.0333247 -1.9258 0.369844 
119 0.76784 1.80936 4.39848 0.5 0 0 0 1.55614 -2.82258 0.538748 
120 1.48918 0.684112 4.13282 0.5 0 0 0 0.291247 -2.81533 1.22392 
121 1.88096 0.771562 3.94802 0.5 0 0 0 -3.88991 -3.61009 3.38584 
122 0.203656 -0.136031 4.07609 0.5 0 0 0 1.17965 -1.13944 0.140516 
123 1.22009 0.0988061 4.57303 0.5 0 0 0 3.27557 1.89722 -2.95642 
124 0.694234 0.48942 4.10319 0.5 0 0 0 4.98916 -0.112398 -0.715209 
125 1.57983 0.388112 4.1862 0.5 0 0 0 -1.13376 2.13342 0.184428 
126 1.32391 0.54761 4.31047 0.5 0 0 0 3.62879 -0.260716 -2.29466 
127 1.22247 2.04543 4.70512 0.5 0 0 0 0.52911 -2.49874 0.738639 
128 1.13275 0.893313 4.24917 0.5 0 0 0 4.63123 -3.84389 -1.04817 
129 0.157211 1.59082 4.15841 0.5 0 0 0 1.00238 -2.69924 -0.130472 
130 0.546445 0.828479 4.34958 0.5 0 0 0 3.60299 -1.03143 -1.40428 
137 0.139754 2.14503 3.86316 0.5 0 0 0 -0.174268 -3.34823 -0.349406 
132 2.24816 1.87939 3.83284 0.5 0 0 0 -0.369868 -2.65506 1.08221 
133 1.36569 0.564185 4.27385 0.5 0 0 0 2.91083 -0.547899 -1.67081 
134 1.70918 2.16355 4.92569 0.5 0 0 0 -0.345927 -2.30072 0.356011 
135 2.26418 0.1678 4.66814 0.5 0 0 0 -2.70246 -0.457198 -0.977972 
136 1.59585 1.61781 4.25902 0.5 0 0 0 -0.174889 -5.05045 0.598214 
86 1.99543 1.44376 3.89322 0.5 0 0 0 -1.58177 -4.76342 2.01597 
252 1.97124 2.3346 4.62375 0.5 0 0 0 -0.380407 -2.50461 -0.187751 
372 2.44556 0.703624 4.33782 0.5 0 0 0 -4.58164 -1.3111 -0.490285 
111 1.47988 2.39443 3.94322 0.5 0 0 0 0.573427 -2.60431 1.126 
90 1.33534 1.2502 3.83518 0.5 0 0 0 0.0442322 -5.92787 2.69807 
104 1.86757 1.04361 3.82196 0.5 0 0 0 -2.65234 -5.3034 3.62847 
118 2.5096 1.67311 4.55116 0.5 0 0 0 -2.00906 -2.35964 -0.414618 
101 1.63831 0.949595 3.80758 0.5 0 0 0 -1.76189 -5.38796 4.48003 
140 2.46899 2.49534 0.521337 0.5 0 0 0 -0.128911 -0.497117 0.0925413 
141 0.96915 3.25075 0.881214 0.5 0 0 0 -0.687568 -0.0542368 0.763199 
142 1.05819 3.61895 0.280843 0.5 0 0 0 0.0762429 0.567447 -0.305158 
143 0.613289 3.01274 0.597915 0.5 0 0 0 -0.7794 -0.07369 1.18854 
167 1.34249 2.79902 0.68351 0.5 0 0 0 0.862608 -0.285234 0.45933 
168 1.60813 2.59703 0.915716 0.5 0 0 0 0.69462 -0.0649756 0.373867 
146 1.06775 3.21913 0.367263 0.5 0 0 0 0.565001 -0.407093 0.137527 
147 0.573215 4.49282 0.517005 0.5 0 0 0 1.1579 -0.171561 0.303717 
148 1.97431 3.78988 0.433879 0.5 0 0 0 0.683041 -0.368952 -0.379243 
149 0.683852 3.59682 0.0907893 0.5 0 0 0 -0.320012 1.05824 -0.71699 
150 1.89594 4.42723 0.806372 0.5 0 0 0 -0.262447 0.0303739 0.357112 
151 0.0449915 3.44437 0.106179 0.5 0 0 0 -1.64534 0.617875 -0.0464668 
152 1.35725 3.63101 1.14384 0.5 0 0 0 0.113067 -0.00935459 0.199499 
153 2.20121 4.40131 0.258869 0.5 0 0 0 -0.252412 -0.133621 -0.97802 
154 2.33911 4.58275 0.684234 0.5 0 0 0 -0.38502 -0.35566 0.255404 
155 1.29543 3.739 0.711872 0.5 0 0 0 -0.0563 0.396024 0.295768 
156 0.448863 4.37762 1.05829 0.5 0 0 0 -0.637578 -0.993264 1.1288 
157 2.28879 2.65211 1.12402 0.5 0 0 0 0.333596 -0.230737 0.723497 
158 1.97602 4.15403 0.975271 0.5 0 0 0 0.404542 -0.540372 0.510209 
159 1.30202 3.80287 0.707775 0.5 0 0 0 -0.132019 0.516285 0.258981 
160 2.25978 2.64393 -0.0732934 0.5 0 0 0 -0.478492 -0.50143 -2.673 
23 0.962133 2.54199 0.248238 0.5 0 0 0 0.775272 -0.195281 -0.0476488 
162 1.69243 3.28376 0.688212 0.5 0 0 0 1.10815 -0.412013 0.18695 
163 0.0413288 4.44313 0.0101773 0.5 0 0 0 0.22774 -0.442986 -0.609387 
164 2.14712 2.84689 0.191512 0.5 0 0 0 -0.0992049 -0.121546 -1.10243 
165 0.0909502 3.27534 0.313757 0.5 0 0 0 -1.79341 0.168347 0.889046 
166 2.19765 3.29178 0.984014 0.5 0 0 0 0.426638 -0.0728659 0.437581 
169 0.463448 3.13038 2.39827 0.5 0 0 0 -0.761646 0.716202 0.0716972 
170 1.91535 3.15615 2.11444 0.5 0 0 0 0.85001 -0.609237 0.27611 
171 0.0731293 4.12224 2.28628 0.5 0 0 0 -2.32464 -0.638977 -1.31687 
172 1.10385 2.49108 1.83479 0.5 0 0 0 0.113725 -0.0897956 0.287138 
173 1.82174 3.36308 1.88122 0.5 0 0 0 0.624479 -0.353035 -0.192802 
174 1.26915 2.64237 1.45142 0.5 0 0 0 0.152463 0.0686078 0.0522361 
175 1.5165 4.31087 1.98113 0.5 0 0 0 0.608818 -0.492249 -0.249133 
176 1.55214 2.54248 1.97066 0.5 0 0 0 1.07775 -0.388544 0.455829 
177 -0.00086569 2.86161 2.38797 0.5 0 0 0 -2.34371 0.446046 0.184775 
178 1.44946 3.12326 1.43829 0.5 0 0 0 0.262672 -0.115135 -0.0447209 
179 2.14586 3.06959 2.45798 0.5 0 0 0 1.21848 -1.0411 0.798676 
180 1.15673 3.75587 1.50516 0.5 0 0 0 -0.819956 -0.0253733 -0.175329 
181 1.90675 4.8254 1.69836 0.5 0 0 0 -0.110062 0.569147 -0.338487 
182 1.13561 4.0265 1.86656 0.5 0 0 0 -0.897749 -0.269055 -0.176377 
183 1.54777 4.578 2.2453 0.5 0 0 0 0.407826 -0.18449 0.381991 
184 0.37531 2.61523 1.7266 0.5 0 0 0 -1.25197 0.288687 -0.281878 
185 1.31385 4.74035 2.2815 0.5 0 0 0 -0.397754 0.234669 0.573743 
204 1.32468 2.72488 2.02243 0.5 0 0 0 0.411356 -0.151397 0.337888 
187 1.38995 2.59811 2.25108 0.5 0 0 0 0.729166 -0.4751 0.785669 
188 1.50496 3.99844 2.40064 0.5 0 0 0 0.211206 -0.47467 0.650968 
189 1.72033 3.51607 2.26762 0.5 0 0 0 0.268701 -0.402694 0.325114 
202 0.972525 3.69504 1.79271 0.5 0 0 0 -1.44566 -0.0254506 -0.100573 
191 2.16536 2.98689 2.46313 0.5 0 0 0 1.31927 -1.07885 0.829751 
192 1.889 3.66891 2.05625 0.5 0 0 0 0.648556 -0.477168 -0.120457 
193 0.891347 3.87886 2.43149 0.5 0 0 0 -1.18049 -0.0753062 0.529384 
194 0.584985 3.06103 2.1515 0.5 0 0 0 -0.561654 0.719661 -0.131404 
195 1.99793 2.84629 1.96781 0.5 0 0 0 1.27021 -0.681293 0.435265 
196 1.34713 4.40977 1.55938 0.5 0 0 0 -0.112895 0.0288061 -0.88291 
190 1.78495 4.93381 1.1726 0.5 0 0 0 -1.13941 1.85129 -0.304659 
198 0.864714 4.5435 2.00967 0.5 0 0 0 -2.11474 0.135874 -0.143087 
199 1.34387 3.07488 2.36975 0.5 0 0 0 -0.0317994 -0.26526 0.531319 
200 2.34843 5.02929 2.31953 0.5 0 0 0 -0.796899 1.59988 0.324404 
201 0.447627 2.72568 2.13465 0.5 0 0 0 -0.55843 0.0893697 0.113415 
70 0.869077 2.53772 2.15016 0.5 0 0 0 -0.00744589 -0.379531 0.682904 
145 2.08491 2.5666 1.35062 0.5 0 0 0 0.613505 -0.220206 0.593893 
161 0.304211 3.15922 1.21596 0.5 0 0 0 -2.20414 0.586632 0.685957 
205 1.20045 3.53231 3.03398 0.5 0 0 0 0.0678488 -0.334009 0.264397 
206 1.96354 4.32896 3.0356 0.5 0 0 0 -0.110271 -0.374468 0.795698 
207 0.125249 4.09144 3.71369 0.5 0 0 0 -0.808885 -0.464163 0.10916 
208 0.843591 2.50923 3.69924 0.5 0 0 0 0.234164 -2.55698 0.728899 
209 1.51897 3.92171 3.16325 0.5 0 0 0 0.196409 -0.117576 0.840609 
210 1.84193 3.57401 3.51447 0.5 0 0 0 0.18601 -0.797561 0.527498 
211 1.88266 3.75203 2.61168 0.5 0 0 0 0.452304 -0.560295 0.72244 
212 1.26728 4.95011 2.96344 0.5 0 0 0 -0.263374 0.344947 0.888396 
213 2.05997 3.14168 2.58517 0.5 0 0 0 0.92661 -0.952228 0.886779 
214 1.24451 3.27321 3.65914 0.5 0 0 0 0.794273 -0.802995 0.932496 
215 0.723581 3.1322 3.31571 0.5 0 0 0 -0.40527 -0.703716 -0.116961 
216 0.445428 3.1858 3.33118 0.5 0 0 0 -1.08578 -0.462266 -0.477953 
217 2.4775 2.71685 2.75587 0.5 0 0 0 1.39736 -1.20609 0.862044 
218 2.3856 5.03043 3.71336 0.5 0 0 0 -0.96468 1.53904 0.410953 
219 1.09024 2.6149 3.18493 0.5 0 0 0 0.202242 -1.69433 0.472064 
220 2.32371 4.8339 2.95769 0.5 0 0 0 -0.618035 0.361575 0.828783 
221 1.05556 3.48504 3.60298 0.5 0 0 0 0.43844 -0.233119 0.805249 
222 2.43947 3.20193 3.0653 0.5 0 0 0 0.899416 -1.47821 0.585509 
223 1.90844 2.5835 3.33421 0.5 0 0 0 1.00391 -1.39157 0.908059 
224 0.518842 4.9229 3.11834 0.5 0 0 0 -0.680194 1.04936 -0.188441 
225 0.511126 3.84252 3.64451 0.5 0 0 0 -0.152883 0.0961703 0.347044 
226 0.947699 4.03003 2.86601 0.5 0 0 0 -0.664871 0.111363 0.686489 
227 1.10353 3.04117 3.11188 0.5 0 0 0 0.291878 -0.946492 0.135907 
228 0.260912 4.35829 2.60106 0.5 0 0 0 -1.13172 -0.26386 -0.406438 
229 0.262292 4.30495 3.51799 0.5 0 0 0 -0.219806 -0.166073 -0.264813 
230 1.60813 2.9128 3.13403 0.5 0 0 0 0.859925 -1.11713 0.637787 
234 1.25336 3.65657 3.14787 0.5 0 0 0 0.170563 -0.177651 0.46258 
232 2.45704 3.29094 3.07976 0.5 0 0 0 0.789121 -1.45299 0.514951 
233 1.25657 4.7676 3.4016 0.5 0 0 0 0.262814 -0.270133 0.631735 
472 2.51545 4.84304 2.81896 0.5 0 0 0 -0.522608 0.376626 0.860423 
251 1.85862 2.53246 3.78308 0.5 0 0 0 0.796299 -1.97063 0.861881 
452 2.41993 3.93784 3.55703 0.5 0 0 0 -0.618552 -0.767731 -0.2272 
254 1.67058 4.93834 3.76207 0.5 0 0 0 -0.108489 -0.00652457 -0.12682 
197 1.56003 4.63702 2.47551 0.5 0 0 0 0.194488 -0.0431801 0.939194 
235 1.25867 4.88886 4.11646 0.5 0 0 0 -0.0651338 -0.422471 -0.500016 
236 2.01963 3.92687 3.99277 0.5 0 0 0 -1.36746 -0.449667 -0.153228 
237 0.594823 2.54955 3.92612 0.5 0 0 0 0.437815 -2.27659 0.911903 
238 0.923658 4.77169 4.37611 0.5 0 0 0 0.150051 -0.39648 -0.108942 
239 0.871881 3.75292 3.98212 0.5 0 0 0 0.547477 0.0329245 1.3328 
240 2.06138 4.5736 4.57908 0.5 0 0 0 -2.31843 1.31113 0.100637 
241 2.18403 4.38619 4.75142 0.5 0 0 0 -2.57589 0.696988 0.680974 
242 0.0972823 3.19401 4.41599 0.5 0 0 0 0.712108 -0.0226586 0.530366 
243 -0.0210861 2.72652 4.80956 0.5 0 0 0 0.478523 -2.54414 1.85158 
244 0.52383 4.91629 4.8473 0.5 0 0 0 -0.892545 0.136733 1.01531 
245 1.52927 3.07 4.9543 0.5 0 0 0 -1.28627 -1.12747 1.45294 
246 1.24538 3.71928 4.4173 0.5 0 0 0 -0.181746 -0.942095 1.03633 
247 2.42627 3.35711 3.82755 0.5 0 0 0 -0.0792563 -1.80324 -0.263731 
248 1.72736 2.67639 4.86735 0.5 0 0 0 -0.717033 -1.99976 0.514685 
249 1.67259 3.00146 4.12672 0.5 0 0 0 0.268949 -1.74656 0.717841 
250 1.29946 2.62046 3.9529 0.5 0 0 0 0.753707 -2.0843 1.28439 
259 0.587314 2.8217 3.88904 0.5 0 0 0 0.414867 -1.3214 0.94061 
258 0.0372912 2.95954 4.02069 0.5 0 0 0 -0.312608 -0.790848 -0.239202 
253 0.163213 2.67726 3.94064 0.5 0 0 0 -0.222675 -1.8976 0.00969619 
498 2.47241 3.56393 4.29257 0.5 0 0 0 -1.20939 -2.02098 -0.680352 
255 0.213923 3.66474 4.84726 0.5 0 0 0 0.69624 0.259969 1.04152 
256 2.32356 4.09436 4.60624 0.5 0 0 0 -2.25474 -0.685984 -0.152651 
257 1.27312 4.24124 4.86156 0.5 0 0 0 -0.926713 -1.02027 1.44442 
260 4.00548 -0.156994 0.91983 0.5 0 0 0 -0.22415 -2.77541 0.556824 
261 3.19555 2.28939 1.1298 0.5 0 0 0 -0.766258 0.0920779 1.34742 
262 4.78767 2.0216 0.40429 0.5 0 0 0 1.76562 0.433219 -1.08039 
263 4.86349 0.626839 0.989594 0.5 0 0 0 1.13937 -1.77789 0.856567 
264 3.25883 0.915979 0.201986 0.5 0 0 0 -0.773174 0.954985 -0.97077 
265 4.90555 1.41686 1.11292 0.5 0 0 0 1.84982 0.293391 1.42059 
266 4.83437 0.647196 -0.012944 0.5 0 0 0 0.867783 -0.263164 -3.22879 
267 3.45727 1.79731 0.886209 0.5 0 0 0 -1.61337 -0.356151 0.380694 
268 2.89322 0.522863 0.844912 0.5 0 0 0 -0.153667 -0.397534 1.69458 
269 3.96981 1.81192 0.224043 0.5 0 0 0 -1.04669 -0.483309 -2.25327 
270 3.93633 1.90246 1.01936 0.5 0 0 0 -0.967682 0.532159 1.32239 
293 3.02089 2.402 0.572196 0.5 0 0 0 -0.796727 -0.433152 0.208553 
272 4.42309 1.79277 0.741691 0.5 0 0 0 0.0471693 0.718723 0.202823 
273 4.85214 1.36363 0.800134 0.5 0 0 0 1.4553 -0.322735 -0.105112 
274 2.68345 0.714079 0.824475 0.5 0 0 0 0.231229 -0.0903866 1.49871 
275 2.53787 2.34774 0.05644 0.5 0 0 0 -0.496769 -1.07389 -2.05807 
276 5.08107 0.0669116 0.787807 0.5 0 0 0 1.14255 -1.66554 0.654481 
294 3.1399 0.0914847 0.349253 0.5 0 0 0 0.150606 -2.3154 -0.195674 
278 3.60826 1.88445 0.93553 0.5 0 0 0 -1.47455 -0.0204924 0.73976 
279 3.71217 0.457461 0.171542 0.5 0 0 0 0.354204 -1.32188 -1.49388 
295 2.73142 1.13214 0.898668 0.5 0 0 0 -0.159644 0.170679 0.868981 
281 3.0564 0.151195 0.970877 0.5 0 0 0 -0.451409 -1.93755 1.77536 
282 3.87439 1.69556 1.09783 0.5 0 0 0 -1.31075 0.0497691 1.41501 
283 3.80612 2.33927 -0.181295 0.5 0 0 0 -1.10118 -0.928755 -3.77628 
284 4.16863 2.09977 0.500956 0.5 0 0 0 -0.298048 0.731211 -0.333576 
285 3.41145 2.33265 0.439945 0.5 0 0 0 -1.11919 -0.145078 -0.370689 
286 3.72183 0.963262 0.427495 0.5 0 0 0 -1.14003 -0.231026 -0.451732 
287 4.34117 1.0384 0.421515 0.5 0 0 0 -0.486893 -1.23541 -1.49501 
288 4.07943 1.6191 1.03377 0.5 0 0 0 -1.10331 0.123627 1.24632 
289 4.36668 1.05292 0.59649 0.5 0 0 0 -0.637127 -1.32408 -0.787504 
290 3.33103 0.992294 0.623108 0.5 0 0 0 -1.22172 0.311935 0.681987 
291 2.90505 1.0038 0.0831321 0.5 0 0 0 -0.432342 1.52786 -1.78157 
297 3.1628 0.422639 1.81526 0.5 0 0 0 -1.29625 -1.55318 0.777137 
298 3.83872 2.08749 2.17162 0.5 0 0 0 -1.1448 -0.142804 1.04438 
299 3.06608 0.732189 2.23274 0.5 0 0 0 -0.80699 -0.563652 1.53063 
323 3.16958 1.7184 1.55879 0.5 0 0 0 -0.67399 -0.15887 1.15613 
301 3.32709 1.70196 2.15388 0.5 0 0 0 -0.572194 0.0774144 1.27869 
302 3.70477 0.97047 1.808 0.5 0 0 0 -0.872605 0.195376 1.52377 
303 3.80395 0.847812 1.94421 0.5 0 0 0 -0.64183 0.0391886 1.6493 
292 4.33293 1.2853 1.24701 0.5 0 0 0 -0.639676 -0.24934 1.77515 
305 4.06195 1.45734 1.37118 0.5 0 0 0 -1.02094 0.152802 2.08151 
306 4.61121 1.24738 1.92467 0.5 0 0 0 0.787629 -0.0452672 1.55529 
307 4.02806 0.00289784 2.16168 0.5 0 0 0 -1.9892 -2.04562 -0.125282 
308 4.72506 0.104429 2.27495 0.5 0 0 0 0.0573578 -0.247048 0.0162116 
309 3.95474 0.747126 1.92069 0.5 0 0 0 -0.46873 -0.276001 1.6556 
310 4.61075 2.32872 1.97826 0.5 0 0 0 0.48446 -0.142862 0.410057 
311 3.53785 2.25908 2.09172 0.5 0 0 0 -0.893441 0.158237 1.12886 
321 4.85074 -0.022571 2.20582 0.5 0 0 0 0.482372 -0.650825 -0.3099 
313 2.56726 1.50595 2.20378 0.5 0 0 0 0.109471 0.00596137 1.31397 
320 2.69246 1.31431 1.87261 0.5 0 0 0 0.0635614 -0.0689415 0.908779 
315 3.26739 0.871674 1.9548 0.5 0 0 0 -0.804985 -0.121823 1.16741 
316 4.50045 1.00423 2.30412 0.5 0 0 0 0.307738 0.0216573 0.921398 
317 4.42454 1.96834 2.33396 0.5 0 0 0 -0.426082 -0.757534 0.42907 
318 3.62756 0.647098 1.4244 0.5 0 0 0 -1.29704 -0.894215 0.717583 
319 3.17122 2.16817 1.97116 0.5 0 0 0 -0.361799 0.250613 1.24401 
271 4.89446 1.59839 1.20694 0.5 0 0 0 1.99252 1.05743 1.86758 
19 2.58919 1.86325 1.17351 0.5 0 0 0 0.0130828 -0.264311 0.539882 
280 3.82517 0.80842 1.18765 0.5 0 0 0 -1.3663 -0.816538 0.79573 
300 4.20682 2.38482 1.22813 0.5 0 0 0 -0.0437528 0.850088 1.8577 
296 4.29953 0.620865 1.1735 0.5 0 0 0 -0.391169 -1.69161 0.799782 
277 3.47973 2.13585 1.1768 0.5 0 0 0 -1.08774 0.311779 1.56491 
324 4.20049 1.07209 3.60419 0.5 0 0 0 -1.49448 0.447579 -0.557436 
325 3.13525 0.346652 3.34054 0.5 0 0 0 -3.12531 -1.26457 1.33759 
326 3.66739 1.47199 3.67458 0.5 0 0 0 -1.94328 -0.405521 -0.0547093 
327 4.15864 1.37271 2.56514 0.5 0 0 0 -0.879732 -0.248767 0.532215 
328 3.56053 0.746071 2.82267 0.5 0 0 0 -1.23031 0.197351 0.97086 
329 4.6547 1.8582 2.7612 0.5 0 0 0 0.287422 -1.60676 -0.422581 
330 3.37921 1.61927 3.26274 0.5 0 0 0 -1.49016 -0.393446 0.612958 
331 4.42014 1.68675 3.2659 0.5 0 0 0 -1.11423 -1.26883 -0.407864 
332 4.72992 0.335379 2.57276 0.5 0 0 0 0.295613 0.868827 -0.2873 
333 2.66869 0.745655 3.45057 0.5 0 0 0 -3.1268 -1.5228 2.19028 
334 4.39709 0.492248 3.23252 0.5 0 0 0 -0.533116 0.856183 -1.84102 
335 5.05887 2.33764 2.86349 0.5 0 0 0 3.04186 -1.00713 -0.903808 
336 4.05519 0.349997 3.25553 0.5 0 0 0 -1.75578 0.276349 -0.965871 
350 2.94785 1.6205 2.671 0.5 0 0 0 -0.331934 -0.231881 1.44434 
338 2.75764 1.04701 3.70241 0.5 0 0 0 -3.05273 -1.44822 1.35404 
339 2.70521 0.895143 2.70662 0.5 0 0 0 -1.0301 -1.15818 2.43856 
340 2.93397 1.02898 3.59673 0.5 0 0 0 -2.76059 -1.00176 1.23852 
341 4.47472 1.99479 3.43292 0.5 0 0 0 -1.11103 -1.62625 0.0347157 
342 4.92134 1.88468 3.61398 0.5 0 0 0 1.08783 -1.75799 0.255052 
343 3.24144 1.5906 2.6238 0.5 0 0 0 -0.676343 -0.18743 1.25354 
349 4.19679 -0.0384125 3.21981 0.5 0 0 0 -1.68687 -1.34801 -1.61053 
345 3.47822 0.042655 3.05536 0.5 0 0 0 -2.73635 -2.21433 0.525295 
346 3.69693 0.812519 3.53319 0.5 0 0 0 -2.44881 0.19603 0.133096 
347 2.80181 1.66491 2.63694 0.5 0 0 0 -0.102913 -0.190713 1.44763 
348 2.63913 1.65882 2.67644 0.5 0 0 0 0.0402725 -0.424356 1.55993 
352 4.9476 1.25163 3.70678 0.5 0 0 0 1.53042 -0.0804194 -0.468118 
469 4.12804 2.45322 2.60915 0.5 0 0 0 -1.9493 -0.327571 -0.220466 
304 2.73537 0.148571 2.52864 0.5 0 0 0 -1.73133 -2.67697 1.93464 
384 4.55124 0.313805 3.78157 0.5 0 0 0 -1.08604 0.714401 -1.93755 
351 4.81681 0.433182 4.13216 0.5 0 0 0 0.53558 1.28441 -0.255447 
381 3.28514 1.873 4.23842 0.5 0 0 0 -1.69193 -1.0593 -1.04758 
353 3.42785 1.25796 4.13506 0.5 0 0 0 -2.41248 -0.741756 -0.231623 
354 3.93464 1.93868 4.94642 0.5 0 0 0 -0.469387 -0.731157 1.15879 
355 4.89446 2.33384 4.00751 0.5 0 0 0 0.31337 -1.36284 1.33103 
356 4.45179 -0.173165 4.76969 0.5 0 0 0 -1.86001 -2.81269 1.58568 
383 4.13179 0.484748 4.99292 0.5 0 0 0 -2.19923 0.864376 2.56466 
358 5.09289 1.5728 4.75784 0.5 0 0 0 1.28528 -0.32178 1.65887 
359 3.01963 1.92092 4.29427 0.5 0 0 0 -1.6471 -1.29441 -1.07771 
360 4.55823 0.294841 4.19704 0.5 0 0 0 -1.20757 0.680676 -0.312378 
361 5.0107 2.27455 4.16295 0.5 0 0 0 0.815363 -1.71609 1.74489 
362 4.17112 0.254776 4.2464 0.5 0 0 0 -3.318 0.0156543 -0.205679 
363 3.91128 0.319091 4.53698 0.5 0 0 0 -4.12038 -0.229003 0.557633 
364 2.66472 1.94634 4.90104 0.5 0 0 0 -2.03351 -1.87523 0.77554 
365 3.16969 1.79581 4.59542 0.5 0 0 0 -1.63185 -1.52829 -0.429073 
366 4.61143 0.911572 4.1486 0.5 0 0 0 -0.161762 1.71032 0.501486 
367 3.81676 -0.0602577 3.84489 0.5 0 0 0 -4.3824 -2.21112 0.189274 
368 4.06429 1.84855 4.28442 0.5 0 0 0 -1.15824 -0.718807 -0.0177394 
369 3.4942 1.48242 4.35656 0.5 0 0 0 -1.88361 -0.953651 -0.468748 
370 2.82998 0.443278 4.66007 0.5 0 0 0 -3.54661 -1.08075 0.0900275 
371 4.72583 0.25074 4.64225 0.5 0 0 0 0.353987 0.645409 1.6131 
382 3.88418 0.944614 3.84084 0.5 0 0 0 -2.45406 0.362146 -0.0352579 
373 4.63289 0.300494 3.94053 0.5 0 0 0 -0.776899 0.73439 -1.37523 
374 4.53401 0.486205 4.0481 0.5 0 0 0 -1.13014 1.24199 -0.778714 
375 5.03449 0.0100934 4.98314 0.5 0 0 0 3.59466 -1.18699 3.20913 
376 4.10392 1.60788 4.6828 0.5 0 0 0 -0.582524 -0.440855 0.453427 
377 4.01537 2.10371 5.10768 0.5 0 0 0 -0.10995 -0.49493 2.13383 
378 2.91759 1.64263 5.01093 0.5 0 0 0 -1.92858 -2.16825 1.57485 
379 3.53377 0.926493 5.07409 0.5 0 0 0 -2.38329 -0.425516 1.83406 
380 3.06476 2.29047 4.29765 0.5 0 0 0 -1.4192 -1.25232 -1.06821 
385 2.72743 3.16667 0.678627 0.5 0 0 0 -0.259396 0.0375817 0.477834 
386 4.46001 4.72631 0.049969 0.5 0 0 0 0.670212 0.329295 -0.709535 
387 3.86554 3.94207 0.13887 0.5 0 0 0 0.119312 -0.411029 -0.427983 
388 4.3202 4.0172 1.07918 0.5 0 0 0 -0.817691 -0.172837 -1.10384 
389 3.81849 3.08829 0.794956 0.5 0 0 0 -0.593871 0.0886558 0.755372 
390 3.64731 4.11213 0.128382 0.5 0 0 0 0.0900833 -0.5973 0.0534277 
391 5.05323 4.32999 1.0758 0.5 0 0 0 2.14319 1.08714 -1.29525 
392 4.88878 2.67893 0.295457 0.5 0 0 0 1.3213 0.365137 -0.297463 
393 4.52615 4.58373 0.677718 0.5 0 0 0 -0.014874 1.27495 -0.991529 
394 2.76375 2.92559 1.08837 0.5 0 0 0 0.0172063 -0.151016 1.30108 
395 4.91111 2.95983 0.998608 0.5 0 0 0 1.35499 -0.497216 1.14152 
396 4.08242 3.07659 0.0175066 0.5 0 0 0 -0.343919 0.450814 -1.5253 
397 5.07977 4.04744 0.825043 0.5 0 0 0 2.38242 -0.062503 -1.63056 
398 2.92734 4.94158 0.00821367 0.5 0 0 0 -0.477123 2.03753 -1.50093 
399 3.38818 4.92149 0.588321 0.5 0 0 0 0.578024 1.09103 -0.330965 
400 3.33768 4.51273 0.419338 0.5 0 0 0 0.195511 -0.603878 0.275918 
401 3.37373 2.65717 0.0719846 0.5 0 0 0 -0.97879 -0.39699 -1.65028 
402 2.72655 3.11912 0.688009 0.5 0 0 0 -0.262866 0.00998857 0.53749 
403 4.76397 3.22272 0.182957 0.5 0 0 0 0.431336 0.481353 -1.34406 
404 4.20748 2.63552 0.142008 0.5 0 0 0 -0.164172 0.531407 -0.893958 
405 4.05946 4.87616 -0.0238898 0.5 0 0 0 0.282816 0.873229 -0.164242 
406 4.20552 3.58907 1.03062 0.5 0 0 0 -0.88738 -0.743105 -0.290765 
407 2.81353 4.2113 -0.0113352 0.5 0 0 0 -0.346717 -0.769305 -1.25043 
408 4.9935 3.11745 0.424442 0.5 0 0 0 1.24832 -0.0506765 -0.25345 
409 3.77205 3.30856 0.562627 0.5 0 0 0 -0.535907 0.0680962 0.0361846 
410 3.87007 2.62726 0.885777 0.5 0 0 0 -0.532547 0.714093 1.23162 
411 4.18382 2.65307 1.06402 0.5 0 0 0 -0.135368 0.559392 1.46063 
412 3.09159 3.18162 0.446709 0.5 0 0 0 -0.48043 0.050041 0.0614955 
413 2.9187 3.71694 0.925146 0.5 0 0 0 -0.225708 -0.363126 0.330757 
414 2.70955 4.48431 0.643286 0.5 0 0 0 -0.107189 -0.930276 0.142364 
415 2.6388 4.93667 1.11349 0.5 0 0 0 -1.07917 0.886348 -0.319897 
417 3.08579 3.60768 0.193224 0.5 0 0 0 -0.43915 -0.300431 -0.62233 
418 4.81607 4.17572 1.6567 0.5 0 0 0 0.591392 -0.344391 0.0452585 
419 2.97104 3.77731 2.20128 0.5 0 0 0 0.52714 -1.67742 0.597773 
420 4.87673 3.94973 2.41375 0.5 0 0 0 0.274846 -1.57635 0.67721 
421 4.8751 4.57039 1.80973 0.5 0 0 0 1.01153 1.67479 -0.455585 
422 4.26911 4.54909 1.75393 0.5 0 0 0 0.210636 0.978854 0.159602 
423 3.64883 4.60708 1.39654 0.5 0 0 0 0.361046 0.133719 -1.23182 
424 4.35686 3.80957 1.43823 0.5 0 0 0 -0.729175 -1.16534 0.52454 
425 2.78397 3.15329 1.33965 0.5 0 0 0 0.223668 -0.293635 1.2822 
426 3.24265 4.5535 2.11577 0.5 0 0 0 0.105242 -0.908412 1.66014 
427 3.29534 4.61705 1.65763 0.5 0 0 0 -0.180086 -0.61071 -0.144502 
428 4.92768 4.3107 2.00987 0.5 0 0 0 0.632384 -0.199142 0.0995248 
429 3.19584 4.83428 1.72876 0.5 0 0 0 -0.356614 0.283538 0.170779 
430 2.95764 4.84836 1.32106 0.5 0 0 0 -0.875947 0.354231 -0.984271 
431 3.50765 2.67592 2.37492 0.5 0 0 0 -0.874491 -0.138908 0.589053 
432 3.95776 2.50817 1.48 0.5 0 0 0 -0.674958 0.427658 1.94292 
433 2.74246 4.35531 2.39777 0.5 0 0 0 -0.216768 -1.01733 0.873558 
434 3.13473 4.50779 1.94043 0.5 0 0 0 -0.33203 -1.07922 0.870692 
435 3.61635 4.6595 1.62656 0.5 0 0 0 0.532145 0.0850904 -0.176534 
436 3.34107 3.27577 2.05507 0.5 0 0 0 -0.141779 -0.940347 0.961141 
437 3.80655 3.98331 1.78453 0.5 0 0 0 -0.714589 -1.51621 0.940784 
438 5.00234 3.5283 1.86043 0.5 0 0 0 1.73064 -1.93271 0.236735 
439 4.48504 4.48045 2.45638 0.5 0 0 0 -0.699919 0.10056 1.44686 
440 2.64624 3.87468 2.23009 0.5 0 0 0 0.37469 -1.1679 0.247908 
441 2.92967 4.74914 2.12022 0.5 0 0 0 -0.681669 -0.00187919 1.10786 
442 3.06368 4.58908 1.3818 0.5 0 0 0 -0.702507 -0.753023 -1.05745 
443 3.87393 4.1195 1.96441 0.5 0 0 0 -0.426166 -1.36555 1.44371 
444 2.67806 4.3564 1.89243 0.5 0 0 0 -0.768881 -0.933505 -0.157711 
445 4.42925 3.75366 1.23855 0.5 0 0 0 -0.571437 -1.03448 -0.013111 
446 4.16136 3.88014 2.29142 0.5 0 0 0 -0.971817 -1.56503 1.4026 
447 3.98413 3.8338 1.70991 0.5 0 0 0 -1.00344 -1.5069 1.02251 
448 4.54614 2.8292 2.22811 0.5 0 0 0 -0.167331 0.272955 -0.265114 
449 3.08114 3.86142 1.29596 0.5 0 0 0 -0.376897 -0.892155 0.0159984 
450 3.48301 3.36566 1.39672 0.5 0 0 0 -0.555944 -0.723548 1.08941 
416 4.43939 3.86705 1.2623 0.5 0 0 0 -0.553489 -0.82384 -0.16232 
203 2.54258 2.99443 1.48495 0.5 0 0 0 0.543068 -0.349887 1.11904 
322 2.89681 2.52125 1.8635 0.5 0 0 0 0.201427 -0.0968943 1.34302 
314 4.95154 2.49957 1.43986 0.5 0 0 0 2.18027 0.0170284 0.88106 
479 2.67201 3.66333 3.67497 0.5 0 0 0 -0.203285 -1.64076 -0.627252 
453 4.81673 2.73412 3.2535 0.5 0 0 0 0.831739 0.571446 -0.423163 
454 3.96861 3.31053 2.81272 0.5 0 0 0 -1.04517 -0.0947075 0.106195 
455 2.9786 4.28332 3.66018 0.5 0 0 0 -0.726483 -0.931978 -1.02444 
456 2.78681 4.65171 3.10914 0.5 0 0 0 -0.203221 -0.44248 0.326355 
457 3.04669 4.89391 2.94079 0.5 0 0 0 0.55313 0.687037 0.706048 
458 3.38148 3.15475 2.90913 0.5 0 0 0 -0.536571 -0.87761 0.204818 
459 4.79833 4.06688 2.63942 0.5 0 0 0 -0.128137 -1.05996 1.14747 
460 4.3388 2.93317 3.14829 0.5 0 0 0 -1.28464 1.05575 -0.479619 
461 4.46961 4.44766 2.57146 0.5 0 0 0 -0.803999 -0.0313147 1.57325 
462 4.70144 4.9992 2.54255 0.5 0 0 0 0.456898 4.60248 1.38136 
463 4.41338 2.63817 2.73773 0.5 0 0 0 -1.22613 -0.00242174 -0.778316 
464 3.08229 3.82562 3.12878 0.5 0 0 0 0.298982 -1.7346 -0.110325 
465 3.57021 3.93289 3.56067 0.5 0 0 0 0.45458 -1.22722 -1.19874 
466 4.19207 2.57746 3.01757 0.5 0 0 0 -2.12593 -0.251457 -0.640492 
467 3.47467 4.4369 3.46201 0.5 0 0 0 0.871049 -0.333503 -0.872482 
468 4.83205 2.71881 2.53954 0.5 0 0 0 1.39736 0.238151 -0.966728 
344 4.1894 2.52631 3.41191 0.5 0 0 0 -2.05247 -0.494557 0.0024979 
470 4.48469 2.5291 3.64937 0.5 0 0 0 -1.05985 -0.473943 0.53839 
471 3.84038 4.76543 3.03905 0.5 0 0 0 0.428601 1.21799 0.489377 
451 2.79986 3.79809 2.4996 0.5 0 0 0 0.673128 -1.50338 0.668449 
473 2.91846 5.0861 3.74857 0.5 0 0 0 -0.149555 2.67783 0.232592 
474 4.50733 2.85757 3.6255 0.5 0 0 0 -0.710886 1.04253 0.308573 
478 3.98901 2.61315 3.41298 0.5 0 0 0 -2.4993 -0.216033 -0.0580387 
476 4.67836 3.70549 3.01079 0.5 0 0 0 0.0893582 -0.00660392 0.817181 
477 2.80107 4.25512 2.5663 0.5 0 0 0 0.0882327 -1.26937 0.940724 
337 4.00854 2.47712 3.28526 0.5 0 0 0 -2.56711 -0.587902 -0.21084 
475 4.80452 4.05407 3.78608 0.5 0 0 0 0.939238 -0.0504952 -0.155899 
480 3.58954 3.80889 4.79313 0.5 0 0 0 1.28068 -1.32203 0.955227 
481 4.13979 3.02608 4.95779 0.5 0 0 0 -0.268043 -1.47017 2.14229 
482 3.77862 3.59844 4.0078 0.5 0 0 0 0.42065 -0.998523 -1.09697 
483 4.40531 4.8875 4.10611 0.5 0 0 0 0.262961 0.500335 -1.75143 
484 3.17257 4.00242 3.9681 0.5 0 0 0 -0.446849 -1.44897 -1.51115 
485 3.66542 3.93623 4.40885 0.5 0 0 0 1.30962 -0.835973 -0.600768 
486 4.72062 4.70312 4.34975 0.5 0 0 0 -0.0982007 -0.89903 -1.36612 
487 3.2799 3.12528 4.27902 0.5 0 0 0 -0.664683 -1.98181 -0.831746 
488 4.67013 3.1766 4.66623 0.5 0 0 0 0.022292 0.0685902 0.971212 
489 3.35019 4.83712 5.08973 0.5 0 0 0 -0.173382 3.09037 3.98341 
490 3.58041 3.44622 4.24509 0.5 0 0 0 -0.0363419 -1.73957 -0.884329 
491 3.71319 4.11091 4.82948 0.5 0 0 0 2.05143 -0.11711 1.33693 
492 2.664 3.19063 4.79124 0.5 0 0 0 -1.28705 -2.591 0.923006 
493 4.51494 3.66926 4.72374 0.5 0 0 0 1.1858 0.52323 0.678168 
494 3.42613 3.64515 5.12503 0.5 0 0 0 0.777711 -2.09052 3.3119 
495 2.6833 4.06724 4.41671 0.5 0 0 0 -1.05377 -0.908391 -1.15864 
496 2.62237 3.80936 4.95756 0.5 0 0 0 -1.37836 -1.77672 1.45777 
497 3.38169 4.37698 3.9444 0.5 0 0 0 0.446706 -0.250726 -1.31606 
357 3.44984 2.4954 4.63855 0.5 0 0 0 -0.880719 -1.29875 0.135073 
499 3.95607 2.50645 4.05608 0.5 0 0 0 -1.53381 -0.749094 0.251145 
500 4.65467 4.93223 4.97399 0.5 0 0 0 -0.725038 -0.119522 1.69271 
501 4.62616 4.8156 4.90394 0.5 0 0 0 -0.28351 -0.293764 1.29265 
502 2.68187 3.97566 4.77886 0.5 0 0 0 -0.99891 -1.16847 0.287558 
503 2.93975 4.25916 4.55901 0.5 0 0 0 -0.375634 -0.128622 -0.685912 
504 3.55114 3.30535 4.29101 0.5 0 0 0 -0.234635 -1.8748 -0.698619 
505 3.69577 4.8226 4.28552 0.5 0 0 0 1.42014 1.77447 -0.194307 
506 4.09436 4.02173 3.97424 0.5 0 0 0 1.82441 0.0294033 -0.947273 
507 4.9127 2.81898 3.94309 0.5 0 0 0 0.483198 0.990021 0.557284 
508 2.87514 3.92811 4.68635 0.5 0 0 0 -0.391751 -1.4077 -0.269399 
509 3.30514 4.75551 4.40391 0.5 0 0 0 0.17885 1.78585 -0.100199 
510 3.08449 4.49513 4.06087 0.5 0 0 0 -0.596019 0.201671 -1.22208 
511 2.64438 3.03165 4.50455 0.5 0 0 0 -1.02997 -2.20826 -0.126214 
512 2.66599 2.8248 4.36837 0.5 0 0 0 -0.847038 -1.88596 -0.442518 
513 4.86973 3.02688 4.29851 0.5 0 0 0 0.304316 1.03363 0.591093 
ITEM: TIMESTEP
60066
ITEM: NUMBER OF ATOMS
512
ITEM: BOX BOUNDS ss ss ss
-2.1589663964569298e-02 5.0933846546203574e+00
-1.7364439631764822e-01 5.0865807164741392e+00
-1.8176655292622759e-01 5.1255068607205727e+00
ITEM: ATOMS id x y z width_SPH x_COM y_COM z_COM vx vy vz 
2 0.301058 0.775932 0.246861 0.5 0 0 0 -1.3792 -0.579477 0.068843 
3 0.259432 1.291 0.605722 0.5 0 0 0 -2.08432 -0.964634 0.287772 
4 0.787479 1.24764 1.03676 0.5 0 0 0 -0.386218 -0.3401 0.749181 
5 1.73539 1.8934 0.823939 0.5 0 0 0 0.958501 0.352085 0.221142 
6 0.274191 2.07866 0.848535 0.5 0 0 0 -2.11841 0.860412 1.16649 
7 0.546654 1.58453 0.342545 0.5 0 0 0 -0.688648 -0.372056 -0.682061 
8 1.33606 0.225896 0.773367 0.5 0 0 0 0.0500257 -0.685408 1.18406 
9 1.53469 0.986432 0.331377 0.5 0 0 0 0.774025 0.260679 -0.74735 
10 1.11158 1.53603 -0.068562 0.5 0 0 0 0.983776 -0.388485 -2.84956 
11 1.39605 1.22774 0.79617 0.5 0 0 0 0.782269 0.13002 0.282653 
38 1.08307 2.32881 0.776651 0.5 0 0 0 0.516813 0.421761 0.862935 
41 2.23084 2.37931 1.0229 0.5 0 0 0 0.351355 -0.202257 0.556554 
14 1.26049 2.06321 0.32927 0.5 0 0 0 1.32259 0.117809 -0.380247 
15 1.54694 0.0394718 0.976129 0.5 0 0 0 1.23301 -1.50687 2.12369 
37 0.636902 0.390264 0.353985 0.5 0 0 0 -1.47724 -0.586518 0.379739 
17 1.08138 0.119433 0.519718 0.5 0 0 0 -1.29664 -0.687364 0.538466 
18 1.50826 -0.0164906 0.0458944 0.5 0 0 0 0.0210275 -0.949683 -1.15219 
40 1.99513 0.669574 0.604466 0.5 0 0 0 1.39257 -0.197988 0.904827 
20 0.369815 1.75927 1.04789 0.5 0 0 0 -1.73131 0.350017 1.28562 
21 1.878 1.79469 0.745542 0.5 0 0 0 1.08067 0.226344 -0.00309825 
22 0.552785 2.4223 0.40994 0.5 0 0 0 -0.558239 0.212976 0.657488 
39 0.791152 1.5785 0.810201 0.5 0 0 0 0.140691 0.227588 0.408945 
24 0.00340179 0.598284 0.0816945 0.5 0 0 0 -2.72789 -0.779866 -0.133698 
25 1.95436 0.260598 0.581885 0.5 0 0 0 1.684 -0.755041 1.36421 
26 1.35581 0.89095 0.584786 0.5 0 0 0 0.399563 0.0193192 -0.00984566 
27 0.864669 1.81411 0.900155 0.5 0 0 0 0.377396 0.670883 0.691807 
28 2.15664 0.959748 0.359458 0.5 0 0 0 0.883521 0.501549 -0.229979 
29 2.42448 1.35996 0.269406 0.5 0 0 0 0.107995 1.01773 -1.19043 
30 1.3992 0.242429 0.884066 0.5 0 0 0 0.488738 -0.821772 1.45699 
31 1.65838 1.51848 0.685685 0.5 0 0 0 1.20233 0.362131 0.0102164 
32 1.30154 2.09592 0.250954 0.5 0 0 0 1.47631 0.00634465 -0.708884 
33 1.46276 1.14326 0.721759 0.5 0 0 0 0.856774 0.0701225 0.199787 
34 0.622254 2.08924 -0.0271295 0.5 0 0 0 -0.447971 -0.575359 -2.02293 
35 1.77116 0.0448058 -0.128825 0.5 0 0 0 1.17613 -0.864564 -2.25448 
36 0.968307 0.88323 0.0786127 0.5 0 0 0 0.0956102 0.032816 -1.47962 
144 0.0211932 2.45507 0.114569 0.5 0 0 0 -3.16811 -0.780064 -1.09893 
43 1.54524 0.0677208 1.95232 0.5 0 0 0 1.54677 -2.0589 2.27931 
44 1.36472 2.35713 1.90941 0.5 0 0 0 0.773282 -0.347987 0.538708 
45 1.3338 1.11988 1.48553 0.5 0 0 0 0.476505 -0.198919 1.55748 
46 1.38771 2.23672 2.32626 0.5 0 0 0 0.773063 -0.849668 1.17322 
47 1.3959 1.26087 1.91897 0.5 0 0 0 -0.0998317 -0.503566 2.36783 
48 1.18006 0.812491 1.47866 0.5 0 0 0 0.169864 -0.426949 1.76227 
49 2.47935 2.34211 1.69817 0.5 0 0 0 0.558011 -0.173283 1.19152 
50 0.891247 0.608879 1.6702 0.5 0 0 0 -1.07938 -0.542165 2.51079 
51 1.96893 0.939583 1.80624 0.5 0 0 0 0.47466 -1.0968 1.64682 
52 0.671606 1.64139 1.33341 0.5 0 0 0 -0.66917 0.0976794 1.61561 
53 2.1247 1.44177 1.71791 0.5 0 0 0 0.456185 0.123593 0.952334 
54 0.39018 0.0429143 2.20343 0.5 0 0 0 -1.55321 -1.25147 0.558008 
55 1.73185 1.84185 1.70753 0.5 0 0 0 0.650504 0.164885 0.906624 
16 2.25737 2.0163 1.1787 0.5 0 0 0 0.457627 -0.0719282 0.552918 
57 2.38803 1.07706 1.62869 0.5 0 0 0 0.472606 -0.693358 0.755436 
58 1.78529 0.149187 2.23911 0.5 0 0 0 1.03268 -2.02268 2.71632 
59 1.24236 0.5826 2.3788 0.5 0 0 0 0.260607 -0.272319 3.92132 
60 0.669148 1.69642 1.57453 0.5 0 0 0 -0.979947 -0.221879 2.09606 
61 1.33412 0.300395 1.71433 0.5 0 0 0 0.887262 -1.21201 2.26358 
78 1.05745 1.89882 1.61754 0.5 0 0 0 0.147239 0.000533206 1.16132 
63 2.01583 1.57785 2.03483 0.5 0 0 0 0.300764 -0.0541894 1.40505 
64 0.517035 0.357618 2.37909 0.5 0 0 0 -0.565286 0.530388 2.62108 
65 1.06184 1.77544 2.19874 0.5 0 0 0 -0.468622 -1.40528 2.12133 
66 2.34198 0.86194 2.01784 0.5 0 0 0 0.0264901 -1.35147 1.6745 
67 1.10297 0.688531 2.02629 0.5 0 0 0 -0.327896 -0.221847 3.45706 
68 2.05806 1.47707 1.72367 0.5 0 0 0 0.443862 0.165826 1.00095 
69 1.40306 0.742943 2.26943 0.5 0 0 0 -0.0127258 -0.601952 3.56699 
77 0.387388 1.54418 1.42855 0.5 0 0 0 -2.22892 -0.477397 2.42529 
71 0.7376 0.532102 1.43848 0.5 0 0 0 -1.94545 -0.911209 1.66722 
72 1.00639 2.24107 2.44179 0.5 0 0 0 0.00218484 -1.25804 1.4617 
73 2.05738 1.03318 1.69109 0.5 0 0 0 0.568044 -0.882775 1.23015 
74 2.23184 1.01521 2.36174 0.5 0 0 0 -0.384271 -1.45767 2.51906 
75 0.0297638 2.3112 2.22173 0.5 0 0 0 -2.35305 -1.61491 0.705446 
76 0.971334 1.10814 1.45356 0.5 0 0 0 -0.382585 -0.28127 1.81093 
12 1.34529 1.51116 1.24545 0.5 0 0 0 0.68373 0.377319 0.874133 
13 1.86621 1.32627 1.25809 0.5 0 0 0 0.997005 -0.056056 0.662326 
312 2.49224 -0.0785533 1.66922 0.5 0 0 0 -0.146797 -2.94596 1.29966 
42 1.22906 0.72634 1.23556 0.5 0 0 0 0.353159 -0.502417 1.15911 
79 1.43519 2.24237 3.26306 0.5 0 0 0 0.0223928 -2.28931 1.21437 
80 0.72244 0.183725 2.71178 0.5 0 0 0 1.47956 0.523538 2.97284 
81 1.07278 0.41499 2.90581 0.5 0 0 0 1.62679 0.318605 4.4217 
82 1.30862 1.94323 2.75296 0.5 0 0 0 -0.307578 -2.04014 1.91 
83 1.70365 2.04278 2.87994 0.5 0 0 0 0.281032 -1.52929 1.51928 
84 1.24767 0.840082 3.71741 0.5 0 0 0 1.33461 -3.77956 4.56268 
85 2.02471 1.84019 2.82634 0.5 0 0 0 0.380624 -1.35916 1.64398 
106 1.36418 1.31962 2.61108 0.5 0 0 0 -0.890009 -2.18674 3.25926 
87 0.898791 2.29174 3.34264 0.5 0 0 0 -0.29388 -2.9301 0.785269 
88 1.94612 1.38119 2.97943 0.5 0 0 0 -0.745017 -2.92606 2.85482 
89 1.47552 0.236485 3.78195 0.5 0 0 0 0.219573 1.79092 4.58116 
100 0.580245 2.1647 2.54007 0.5 0 0 0 -0.486527 -1.98827 1.75437 
91 1.72848 1.44583 2.74128 0.5 0 0 0 -0.619509 -2.43808 2.67726 
92 0.127766 2.09689 2.8373 0.5 0 0 0 -1.29455 -2.82369 1.55054 
93 0.715285 0.310074 2.79201 0.5 0 0 0 1.35814 0.930427 3.27144 
94 1.45135 1.94301 2.62581 0.5 0 0 0 0.0977418 -1.59539 1.724 
95 2.18938 2.14758 3.16346 0.5 0 0 0 0.868257 -1.23576 1.36448 
96 0.949789 1.87738 2.59394 0.5 0 0 0 -0.661384 -2.2622 2.27305 
97 1.79655 0.470844 3.60668 0.5 0 0 0 -2.34263 -1.28817 5.27506 
98 0.273037 1.57183 2.88924 0.5 0 0 0 -0.472616 -2.69564 1.99014 
99 2.15148 1.76572 3.33725 0.5 0 0 0 -0.0623729 -2.43027 1.94135 
105 0.748311 0.114093 3.13351 0.5 0 0 0 2.42394 0.805857 3.07571 
186 0.405523 2.44494 2.60323 0.5 0 0 0 -0.466337 -1.47821 1.20443 
102 1.84309 1.71236 3.01666 0.5 0 0 0 -0.358364 -2.45643 2.17469 
103 0.428594 1.0381 3.214 0.5 0 0 0 1.28692 -1.21717 2.32733 
231 1.26226 2.35114 3.50858 0.5 0 0 0 0.166535 -2.64006 0.961303 
62 2.18333 1.76448 2.56416 0.5 0 0 0 0.45053 -0.647152 1.47222 
131 1.85477 1.65838 3.77351 0.5 0 0 0 -0.993874 -4.30599 2.03116 
56 2.44014 0.522573 2.48152 0.5 0 0 0 -0.939955 -1.83355 2.60195 
107 1.79923 0.179198 4.53984 0.5 0 0 0 -2.45798 2.41501 -3.09034 
108 1.07475 1.50089 4.4532 0.5 0 0 0 2.22983 -3.92922 -0.410829 
109 1.8042 0.539854 4.27431 0.5 0 0 0 -4.08334 -0.270184 -1.0622 
110 1.90996 0.686709 4.17965 0.5 0 0 0 -4.68655 -2.33688 0.535293 
139 1.01001 0.534251 4.8421 0.5 0 0 0 4.18348 -0.557584 -2.8063 
112 1.75816 0.698001 4.66541 0.5 0 0 0 -1.94905 -1.78473 -4.66962 
113 1.92755 1.25303 4.43647 0.5 0 0 0 -2.16235 -4.87588 -0.595466 
114 0.873012 0.92523 4.48011 0.5 0 0 0 4.97014 -2.0179 -2.19316 
115 1.8402 0.570505 4.46819 0.5 0 0 0 -3.72967 -0.563697 -3.38042 
116 0.78007 0.159625 4.3033 0.5 0 0 0 4.86697 0.454687 -1.14693 
117 0.97623 0.936268 4.21247 0.5 0 0 0 4.8893 -3.28007 -0.842615 
138 0.0273679 1.19267 4.38545 0.5 0 0 0 0.0333245 -1.92582 0.369857 
119 0.767841 1.80936 4.39848 0.5 0 0 0 1.55613 -2.82257 0.538748 
120 1.48918 0.684111 4.13282 0.5 0 0 0 0.291249 -2.8153 1.2239 
121 1.88096 0.77156 3.94802 0.5 0 0 0 -3.88987 -3.61006 3.38582 
122 0.203657 -0.136031 4.07609 0.5 0 0 0 1.17965 -1.13943 0.140535 
123 1.22009 0.098807 4.57303 0.5 0 0 0 3.27554 1.89721 -2.95641 
124 0.694236 0.48942 4.10319 0.5 0 0 0 4.98911 -0.112404 -0.715199 
125 1.57983 0.388113 4.1862 0.5 0 0 0 -1.13373 2.13339 0.184434 
126 1.32391 0.54761 4.31047 0.5 0 0 0 3.62873 -0.260723 -2.29462 
127 1.22247 2.04542 4.70512 0.5 0 0 0 0.529102 -2.49874 0.738639 
128 1.13275 0.893311 4.24917 0.5 0 0 0 4.63118 -3.84388 -1.04816 
129 0.157212 1.59082 4.15841 0.5 0 0 0 1.00239 -2.69924 -0.130469 
130 0.546447 0.828478 4.34958 0.5 0 0 0 3.60294 -1.03143 -1.40427 
137 0.139754 2.14503 3.86316 0.5 0 0 0 -0.174261 -3.34822 -0.349402 
132 2.24816 1.87938 3.83284 0.5 0 0 0 -0.36987 -2.65506 1.08221 
133 1.36569 0.564185 4.27385 0.5 0 0 0 2.91078 -0.547902 -1.67078 
134 1.70918 2.16355 4.92569 0.5 0 0 0 -0.345925 -2.30072 0.356013 
135 2.26418 0.1678 4.66814 0.5 0 0 0 -2.70243 -0.457205 -0.977958 
136 1.59585 1.61781 4.25902 0.5 0 0 0 -0.174887 -5.05044 0.598211 
86 1.99543 1.44376 3.89322 0.5 0 0 0 -1.58177 -4.76342 2.01596 
252 1.97124 2.3346 4.62375 0.5 0 0 0 -0.380404 -2.50461 -0.187751 
372 2.44555 0.703623 4.33782 0.5 0 0 0 -4.58161 -1.3111 -0.490278 
111 1.47988 2.39442 3.94322 0.5 0 0 0 0.573425 -2.6043 1.126 
90 1.33534 1.2502 3.83518 0.5 0 0 0 0.0442363 -5.92784 2.69805 
104 1.86757 1.04361 3.82196 0.5 0 0 0 -2.65232 -5.30338 3.62845 
118 2.50959 1.6731 4.55116 0.5 0 0 0 -2.00905 -2.35963 -0.414616 
101 1.63831 0.949593 3.80758 0.5 0 0 0 -1.76187 -5.38793 4.48 
140 2.46899 2.49534 0.521337 0.5 0 0 0 -0.128909 -0.497115 0.0925414 
141 0.96915 3.25075 0.881214 0.5 0 0 0 -0.68757 -0.0542376 0.763198 
142 1.05819 3.61895 0.280843 0.5 0 0 0 0.0762425 0.567443 -0.30516 
143 0.613288 3.01274 0.597916 0.5 0 0 0 -0.779402 -0.0736906 1.18854 
167 1.34249 2.79902 0.68351 0.5 0 0 0 0.862602 -0.285234 0.459329 
168 1.60813 2.59703 0.915716 0.5 0 0 0 0.694615 -0.0649759 0.373867 
146 1.06775 3.21913 0.367264 0.5 0 0 0 0.564997 -0.407093 0.137524 
147 0.573215 4.49282 0.517005 0.5 0 0 0 1.15789 -0.171553 0.303714 
148 1.97431 3.78988 0.433879 0.5 0 0 0 0.68304 -0.368952 -0.379244 
149 0.683852 3.59682 0.090789 0.5 0 0 0 -0.320009 1.05824 -0.716991 
150 1.89594 4.42723 0.806372 0.5 0 0 0 -0.262445 0.0303728 0.357113 
151 0.0449907 3.44437 0.106179 0.5 0 0 0 -1.64533 0.617867 -0.0464628 
152 1.35725 3.63101 1.14385 0.5 0 0 0 0.113068 -0.00935538 0.199501 
153 2.20121 4.40131 0.258869 0.5 0 0 0 -0.25241 -0.133621 -0.978023 
154 2.33911 4.58275 0.684234 0.5 0 0 0 -0.385017 -0.355659 0.255404 
155 1.29543 3.739 0.711872 0.5 0 0 0 -0.0562997 0.396021 0.295769 
156 0.448863 4.37762 1.0583 0.5 0 0 0 -0.637583 -0.993256 1.1288 
157 2.28879 2.65211 1.12402 0.5 0 0 0 0.333594 -0.230736 0.723494 
158 1.97602 4.15403 0.975271 0.5 0 0 0 0.404541 -0.540371 0.510211 
159 1.30202 3.80287 0.707775 0.5 0 0 0 -0.132018 0.516282 0.258981 
160 2.25978 2.64393 -0.0732947 0.5 0 0 0 -0.478489 -0.501426 -2.67299 
23 0.962133 2.54199 0.248238 0.5 0 0 0 0.775267 -0.195281 -0.0476494 
162 1.69243 3.28376 0.688212 0.5 0 0 0 1.10815 -0.412011 0.186949 
163 0.0413289 4.44313 0.010177 0.5 0 0 0 0.227738 -0.442976 -0.609386 
164 2.14712 2.84689 0.191511 0.5 0 0 0 -0.0992041 -0.121545 -1.10243 
165 0.0909493 3.27534 0.313758 0.5 0 0 0 -1.7934 0.168341 0.889049 
166 2.19765 3.29178 0.984014 0.5 0 0 0 0.426635 -0.0728647 0.43758 
169 0.463448 3.13038 2.39827 0.5 0 0 0 -0.761642 0.716195 0.0716996 
170 1.91535 3.15615 2.11444 0.5 0 0 0 0.850005 -0.609236 0.276112 
171 0.0731282 4.12224 2.28627 0.5 0 0 0 -2.32463 -0.638977 -1.31687 
172 1.10385 2.49108 1.83479 0.5 0 0 0 0.113721 -0.0897977 0.28714 
173 1.82174 3.36308 1.88121 0.5 0 0 0 0.624475 -0.353033 -0.192799 
174 1.26915 2.64237 1.45142 0.5 0 0 0 0.152459 0.0686056 0.0522388 
175 1.5165 4.31087 1.98113 0.5 0 0 0 0.608818 -0.492248 -0.249132 
176 1.55214 2.54248 1.97066 0.5 0 0 0 1.07775 -0.388545 0.455832 
177 -0.000866862 2.86161 2.38797 0.5 0 0 0 -2.3437 0.446043 0.184776 
178 1.44946 3.12326 1.43829 0.5 0 0 0 0.26267 -0.115135 -0.0447176 
179 2.14586 3.06959 2.45798 0.5 0 0 0 1.21847 -1.04109 0.798676 
180 1.15673 3.75587 1.50516 0.5 0 0 0 -0.819953 -0.0253744 -0.175325 
181 1.90675 4.8254 1.69836 0.5 0 0 0 -0.110062 0.569145 -0.338484 
182 1.13561 4.0265 1.86656 0.5 0 0 0 -0.897745 -0.269055 -0.176374 
183 1.54777 4.578 2.2453 0.5 0 0 0 0.407827 -0.184491 0.381989 
184 0.37531 2.61523 1.7266 0.5 0 0 0 -1.25196 0.288683 -0.281874 
185 1.31385 4.74035 2.2815 0.5 0 0 0 -0.397752 0.234668 0.57374 
204 1.32468 2.72488 2.02243 0.5 0 0 0 0.411352 -0.151399 0.337891 
187 1.38995 2.59811 2.25108 0.5 0 0 0 0.729163 -0.475102 0.785671 
188 1.50496 3.99844 2.40065 0.5 0 0 0 0.211205 -0.47467 0.650965 
189 1.72033 3.51607 2.26762 0.5 0 0 0 0.268698 -0.402693 0.325114 
202 0.972525 3.69504 1.79271 0.5 0 0 0 -1.44565 -0.0254523 -0.10057 
191 2.16536 2.98689 2.46313 0.5 0 0 0 1.31926 -1.07885 0.829751 
192 1.88901 3.66891 2.05625 0.5 0 0 0 0.648552 -0.477165 -0.120456 
193 0.891347 3.87886 2.43149 0.5 0 0 0 -1.18049 -0.0753079 0.529383 
194 0.584985 3.06103 2.1515 0.5 0 0 0 -0.561651 0.719654 -0.131401 
195 1.99793 2.84629 1.96781 0.5 0 0 0 1.2702 -0.681292 0.435268 
196 1.34713 4.40977 1.55938 0.5 0 0 0 -0.112892 0.028806 -0.882903 
190 1.78495 4.93382 1.1726 0.5 0 0 0 -1.13941 1.85129 -0.304659 
198 0.864713 4.5435 2.00967 0.5 0 0 0 -2.11473 0.135875 -0.143087 
199 1.34387 3.07488 2.36975 0.5 0 0 0 -0.0318005 -0.265262 0.53132 
200 2.34843 5.02929 2.31953 0.5 0 0 0 -0.796895 1.59988 0.3244 
201 0.447626 2.72568 2.13465 0.5 0 0 0 -0.558426 0.089366 0.113417 
70 0.869077 2.53772 2.15016 0.5 0 0 0 -0.00744717 -0.379532 0.682905 
145 2.08491 2.5666 1.35062 0.5 0 0 0 0.613502 -0.220206 0.593893 
161 0.30421 3.15922 1.21596 0.5 0 0 0 -2.20413 0.586628 0.685956 
205 1.20045 3.53231 3.03398 0.5 0 0 0 0.0678488 -0.334012 0.264397 
206 1.96354 4.32896 3.0356 0.5 0 0 0 -0.11027 -0.374469 0.795694 
207 0.125249 4.09144 3.71369 0.5 0 0 0 -0.808883 -0.464164 0.10916 
208 0.843591 2.50923 3.69924 0.5 0 0 0 0.234164 -2.55697 0.728895 
209 1.51897 3.92171 3.16325 0.5 0 0 0 0.196408 -0.117578 0.840606 
210 1.84193 3.57401 3.51447 0.5 0 0 0 0.18601 -0.797562 0.527497 
211 1.88266 3.75203 2.61168 0.5 0 0 0 0.452302 -0.560294 0.722437 
212 1.26728 4.95011 2.96344 0.5 0 0 0 -0.263374 0.344944 0.88839 
213 2.05997 3.14167 2.58517 0.5 0 0 0 0.926605 -0.952226 0.886778 
214 1.24451 3.27321 3.65914 0.5 0 0 0 0.79427 -0.802998 0.932495 
215 0.723581 3.1322 3.31571 0.5 0 0 0 -0.405268 -0.703717 -0.11696 
216 0.445428 3.1858 3.33118 0.5 0 0 0 -1.08578 -0.462268 -0.477952 
217 2.4775 2.71685 2.75587 0.5 0 0 0 1.39735 -1.20609 0.862044 
218 2.3856 5.03043 3.71336 0.5 0 0 0 -0.96467 1.53903 0.410951 
219 1.09024 2.6149 3.18493 0.5 0 0 0 0.202242 -1.69432 0.472064 
220 2.32371 4.8339 2.95769 0.5 0 0 0 -0.618031 0.36157 0.828779 
221 1.05556 3.48504 3.60298 0.5 0 0 0 0.438438 -0.233123 0.805248 
222 2.43947 3.20193 3.0653 0.5 0 0 0 0.89941 -1.47821 0.585508 
223 1.90844 2.5835 3.33421 0.5 0 0 0 1.00391 -1.39157 0.908058 
224 0.518842 4.9229 3.11834 0.5 0 0 0 -0.680196 1.04936 -0.188442 
225 0.511126 3.84252 3.64451 0.5 0 0 0 -0.152882 0.0961661 0.347044 
226 0.947699 4.03003 2.86601 0.5 0 0 0 -0.664868 0.11136 0.686486 
227 1.10353 3.04117 3.11188 0.5 0 0 0 0.291877 -0.946493 0.135909 
228 0.260911 4.35829 2.60106 0.5 0 0 0 -1.13172 -0.26386 -0.406434 
229 0.262292 4.30495 3.51799 0.5 0 0 0 -0.219805 -0.166074 -0.264813 
230 1.60813 2.9128 3.13403 0.5 0 0 0 0.859921 -1.11713 0.637788 
234 1.25336 3.65657 3.14788 0.5 0 0 0 0.170562 -0.177654 0.462579 
232 2.45704 3.29094 3.07976 0.5 0 0 0 0.789115 -1.45299 0.51495 
233 1.25657 4.7676 3.4016 0.5 0 0 0 0.262811 -0.270135 0.631731 
472 2.51545 4.84304 2.81896 0.5 0 0 0 -0.522605 0.376622 0.860419 
251 1.85862 2.53246 3.78308 0.5 0 0 0 0.796295 -1.97063 0.861877 
452 2.41993 3.93784 3.55703 0.5 0 0 0 -0.61855 -0.767729 -0.227199 
254 1.67058 4.93834 3.76207 0.5 0 0 0 -0.108487 -0.00652869 -0.126821 
197 1.56003 4.63702 2.47551 0.5 0 0 0 0.194488 -0.0431817 0.939189 
235 1.25867 4.88886 4.11646 0.5 0 0 0 -0.065135 -0.422472 -0.500012 
236 2.01963 3.92687 3.99277 0.5 0 0 0 -1.36745 -0.449668 -0.153228 
237 0.594824 2.54955 3.92612 0.5 0 0 0 0.437815 -2.27659 0.911901 
238 0.923658 4.77169 4.37611 0.5 0 0 0 0.150046 -0.39648 -0.10894 
239 0.871881 3.75292 3.98212 0.5 0 0 0 0.547474 0.0329194 1.3328 
240 2.06138 4.5736 4.57908 0.5 0 0 0 -2.31841 1.31113 0.100634 
241 2.18403 4.38619 4.75142 0.5 0 0 0 -2.57586 0.696984 0.680971 
242 0.0972827 3.19401 4.41599 0.5 0 0 0 0.71211 -0.0226599 0.530366 
243 -0.0210858 2.72652 4.80956 0.5 0 0 0 0.478524 -2.54414 1.85157 
244 0.523829 4.91629 4.8473 0.5 0 0 0 -0.892542 0.136733 1.01531 
245 1.52927 3.07 4.9543 0.5 0 0 0 -1.28627 -1.12747 1.45294 
246 1.24538 3.71928 4.4173 0.5 0 0 0 -0.181747 -0.942097 1.03633 
247 2.42627 3.35711 3.82755 0.5 0 0 0 -0.0792563 -1.80324 -0.26373 
248 1.72736 2.67639 4.86735 0.5 0 0 0 -0.717031 -1.99975 0.514683 
249 1.67259 3.00146 4.12672 0.5 0 0 0 0.268947 -1.74656 0.717837 
250 1.29946 2.62046 3.9529 0.5 0 0 0 0.753704 -2.08429 1.28438 
259 0.587314 2.82169 3.88904 0.5 0 0 0 0.414868 -1.32139 0.940609 
258 0.0372911 2.95954 4.02069 0.5 0 0 0 -0.312606 -0.790847 -0.239201 
253 0.163213 2.67726 3.94064 0.5 0 0 0 -0.222672 -1.8976 0.00969713 
498 2.4724 3.56393 4.29257 0.5 0 0 0 -1.20938 -2.02098 -0.680349 
255 0.213924 3.66474 4.84726 0.5 0 0 0 0.696237 0.259962 1.04151 
256 2.32356 4.09436 4.60624 0.5 0 0 0 -2.25473 -0.685984 -0.152652 
257 1.27312 4.24124 4.86156 0.5 0 0 0 -0.926711 -1.02027 1.44441 
260 4.00548 -0.156995 0.91983 0.5 0 0 0 -0.224153 -2.77538 0.556824 
261 3.19555 2.28939 1.1298 0.5 0 0 0 -0.766254 0.0920776 1.34741 
262 4.78767 2.0216 0.40429 0.5 0 0 0 1.76561 0.43321 -1.08039 
263 4.86349 0.626838 0.989595 0.5 0 0 0 1.13937 -1.77788 0.856561 
264 3.25883 0.915979 0.201985 0.5 0 0 0 -0.773171 0.95498 -0.970764 
265 4.90555 1.41686 1.11292 0.5 0 0 0 1.84981 0.293389 1.42059 
266 4.83437 0.647196 -0.0129456 0.5 0 0 0 0.867772 -0.263153 -3.22876 
267 3.45727 1.79731 0.886209 0.5 0 0 0 -1.61336 -0.35615 0.38069 
268 2.89322 0.522863 0.844913 0.5 0 0 0 -0.153667 -0.397534 1.69457 
269 3.96981 1.81192 0.224042 0.5 0 0 0 -1.04669 -0.48331 -2.25327 
270 3.93633 1.90246 1.01936 0.5 0 0 0 -0.967675 0.532156 1.32239 
293 3.02089 2.402 0.572196 0.5 0 0 0 -0.796722 -0.433151 0.208552 
272 4.42309 1.79277 0.741691 0.5 0 0 0 0.04717 0.718718 0.202822 
273 4.85214 1.36363 0.800134 0.5 0 0 0 1.4553 -0.322737 -0.105114 
274 2.68345 0.714079 0.824475 0.5 0 0 0 0.231227 -0.0903886 1.49871 
275 2.53787 2.34774 0.0564389 0.5 0 0 0 -0.496765 -1.07389 -2.05807 
276 5.08107 0.0669107 0.787807 0.5 0 0 0 1.14253 -1.66552 0.654477 
294 3.1399 0.0914835 0.349253 0.5 0 0 0 0.150602 -2.31539 -0.195676 
278 3.60826 1.88445 0.935531 0.5 0 0 0 -1.47455 -0.020493 0.739754 
279 3.71217 0.45746 0.171541 0.5 0 0 0 0.354206 -1.32188 -1.49387 
295 2.73142 1.13215 0.898668 0.5 0 0 0 -0.159642 0.170676 0.86898 
281 3.0564 0.151194 0.970878 0.5 0 0 0 -0.451407 -1.93755 1.77535 
282 3.87439 1.69556 1.09783 0.5 0 0 0 -1.31074 0.0497674 1.415 
283 3.80612 2.33927 -0.181297 0.5 0 0 0 -1.10118 -0.928758 -3.77627 
284 4.16863 2.09977 0.500956 0.5 0 0 0 -0.298046 0.731206 -0.333573 
285 3.41145 2.33265 0.439945 0.5 0 0 0 -1.11918 -0.145078 -0.370688 
286 3.72183 0.963262 0.427495 0.5 0 0 0 -1.14002 -0.231024 -0.451725 
287 4.34117 1.0384 0.421514 0.5 0 0 0 -0.486887 -1.2354 -1.495 
288 4.07943 1.6191 1.03377 0.5 0 0 0 -1.1033 0.123625 1.24631 
289 4.36668 1.05292 0.596489 0.5 0 0 0 -0.637121 -1.32407 -0.7875 
290 3.33103 0.992294 0.623108 0.5 0 0 0 -1.22171 0.311932 0.681988 
291 2.90505 1.0038 0.0831312 0.5 0 0 0 -0.432341 1.52785 -1.78156 
297 3.1628 0.422638 1.81526 0.5 0 0 0 -1.29625 -1.55318 0.777139 
298 3.83872 2.08748 2.17162 0.5 0 0 0 -1.1448 -0.142805 1.04438 
299 3.06608 0.732189 2.23275 0.5 0 0 0 -0.80699 -0.563652 1.53062 
323 3.16958 1.7184 1.55879 0.5 0 0 0 -0.673988 -0.15887 1.15612 
301 3.32709 1.70196 2.15388 0.5 0 0 0 -0.572193 0.077412 1.27869 
302 3.70477 0.97047 1.808 0.5 0 0 0 -0.872602 0.195375 1.52376 
303 3.80395 0.847812 1.94421 0.5 0 0 0 -0.641828 0.0391879 1.64929 
292 4.33293 1.2853 1.24701 0.5 0 0 0 -0.639671 -0.24934 1.77514 
305 4.06195 1.45734 1.37118 0.5 0 0 0 -1.02093 0.152801 2.0815 
306 4.61121 1.24738 1.92467 0.5 0 0 0 0.787625 -0.0452674 1.55529 
307 4.02806 0.00289682 2.16168 0.5 0 0 0 -1.9892 -2.04562 -0.125283 
308 4.72506 0.104429 2.27495 0.5 0 0 0 0.0573556 -0.247045 0.0162109 
309 3.95474 0.747126 1.92069 0.5 0 0 0 -0.468729 -0.276001 1.65559 
310 4.61075 2.32872 1.97826 0.5 0 0 0 0.484458 -0.142862 0.410057 
311 3.53785 2.25908 2.09172 0.5 0 0 0 -0.893437 0.158234 1.12886 
321 4.85074 -0.0225713 2.20582 0.5 0 0 0 0.48237 -0.650822 -0.309901 
313 2.56726 1.50595 2.20378 0.5 0 0 0 0.109468 0.00595855 1.31397 
320 2.69246 1.31431 1.87261 0.5 0 0 0 0.0635594 -0.0689438 0.908781 
315 3.26739 0.871674 1.9548 0.5 0 0 0 -0.804984 -0.121825 1.16741 
316 4.50045 1.00423 2.30412 0.5 0 0 0 0.307734 0.0216574 0.921393 
317 4.42454 1.96834 2.33396 0.5 0 0 0 -0.426083 -0.757529 0.42907 
318 3.62756 0.647098 1.4244 0.5 0 0 0 -1.29704 -0.894214 0.71758 
319 3.17122 2.16817 1.97116 0.5 0 0 0 -0.361799 0.25061 1.244 
271 4.89446 1.59839 1.20694 0.5 0 0 0 1.99251 1.05742 1.86758 
19 2.58919 1.86325 1.17351 0.5 0 0 0 0.0130833 -0.264311 0.539882 
280 3.82516 0.808419 1.18765 0.5 0 0 0 -1.36629 -0.816537 0.795726 
300 4.20682 2.38482 1.22813 0.5 0 0 0 -0.0437498 0.850082 1.85769 
296 4.29953 0.620864 1.1735 0.5 0 0 0 -0.391165 -1.69161 0.799775 
277 3.47973 2.13585 1.1768 0.5 0 0 0 -1.08774 0.311778 1.56491 
324 4.20049 1.07209 3.60419 0.5 0 0 0 -1.49448 0.447578 -0.557434 
325 3.13525 0.346652 3.34054 0.5 0 0 0 -3.1253 -1.26457 1.33759 
326 3.66739 1.47199 3.67458 0.5 0 0 0 -1.94327 -0.40552 -0.0547079 
327 4.15864 1.37271 2.56514 0.5 0 0 0 -0.879732 -0.248764 0.532215 
328 3.56053 0.746071 2.82267 0.5 0 0 0 -1.23032 0.197348 0.970859 
329 4.6547 1.8582 2.7612 0.5 0 0 0 0.287419 -1.60675 -0.422577 
330 3.37921 1.61927 3.26274 0.5 0 0 0 -1.49016 -0.393445 0.612957 
331 4.42014 1.68674 3.2659 0.5 0 0 0 -1.11423 -1.26882 -0.407862 
332 4.72993 0.335379 2.57276 0.5 0 0 0 0.295611 0.868825 -0.287297 
333 2.66869 0.745654 3.45057 0.5 0 0 0 -3.12679 -1.5228 2.19028 
334 4.39709 0.492248 3.23252 0.5 0 0 0 -0.533118 0.856182 -1.84102 
335 5.05887 2.33764 2.86349 0.5 0 0 0 3.04187 -1.00713 -0.903802 
336 4.05519 0.349997 3.25553 0.5 0 0 0 -1.75578 0.276349 -0.965863 
350 2.94785 1.6205 2.671 0.5 0 0 0 -0.331936 -0.231883 1.44434 
338 2.75764 1.04701 3.70241 0.5 0 0 0 -3.05273 -1.44822 1.35404 
339 2.70521 0.895142 2.70662 0.5 0 0 0 -1.0301 -1.15818 2.43855 
340 2.93397 1.02898 3.59673 0.5 0 0 0 -2.76059 -1.00176 1.23852 
341 4.47472 1.99479 3.43292 0.5 0 0 0 -1.11102 -1.62624 0.0347151 
342 4.92134 1.88468 3.61398 0.5 0 0 0 1.08783 -1.75797 0.255046 
343 3.24144 1.5906 2.62381 0.5 0 0 0 -0.676342 -0.187432 1.25354 
349 4.19679 -0.0384132 3.21981 0.5 0 0 0 -1.68687 -1.34801 -1.61052 
345 3.47822 0.0426539 3.05536 0.5 0 0 0 -2.73634 -2.21432 0.525297 
346 3.69693 0.812519 3.53319 0.5 0 0 0 -2.44881 0.196025 0.133098 
347 2.80181 1.66491 2.63694 0.5 0 0 0 -0.102916 -0.190715 1.44763 
348 2.63913 1.65882 2.67644 0.5 0 0 0 0.0402689 -0.424357 1.55993 
352 4.9476 1.25163 3.70678 0.5 0 0 0 1.53042 -0.0804161 -0.468119 
469 4.12804 2.45322 2.60915 0.5 0 0 0 -1.94929 -0.327572 -0.22046 
304 2.73537 0.14857 2.52864 0.5 0 0 0 -1.73133 -2.67696 1.93463 
384 4.55124 0.313805 3.78157 0.5 0 0 0 -1.08604 0.7144 -1.93754 
351 4.81681 0.433182 4.13216 0.5 0 0 0 0.535582 1.28441 -0.255436 
381 3.28514 1.873 4.23842 0.5 0 0 0 -1.69192 -1.0593 -1.04758 
353 3.42785 1.25796 4.13506 0.5 0 0 0 -2.41247 -0.741757 -0.231618 
354 3.93464 1.93868 4.94642 0.5 0 0 0 -0.469393 -0.731157 1.15879 
355 4.89446 2.33384 4.00751 0.5 0 0 0 0.313364 -1.36284 1.33103 
356 4.45179 -0.173167 4.76969 0.5 0 0 0 -1.86002 -2.81269 1.58566 
383 4.13178 0.484749 4.99292 0.5 0 0 0 -2.19921 0.864374 2.56464 
358 5.09289 1.5728 4.75784 0.5 0 0 0 1.28527 -0.321782 1.65886 
359 3.01963 1.92092 4.29427 0.5 0 0 0 -1.6471 -1.2944 -1.0777 
360 4.55823 0.294842 4.19704 0.5 0 0 0 -1.20757 0.680673 -0.312368 
361 5.0107 2.27455 4.16296 0.5 0 0 0 0.815353 -1.71608 1.74488 
362 4.17112 0.254776 4.2464 0.5 0 0 0 -3.318 0.0156478 -0.205673 
363 3.91128 0.31909 4.53698 0.5 0 0 0 -4.12037 -0.22901 0.557627 
364 2.66472 1.94634 4.90104 0.5 0 0 0 -2.0335 -1.87522 0.775539 
365 3.16969 1.79581 4.59542 0.5 0 0 0 -1.63184 -1.52829 -0.42907 
366 4.61143 0.911573 4.1486 0.5 0 0 0 -0.16176 1.71031 0.501493 
367 3.81676 -0.0602588 3.84489 0.5 0 0 0 -4.38239 -2.21113 0.189283 
368 4.06429 1.84855 4.28442 0.5 0 0 0 -1.15824 -0.718804 -0.0177396 
369 3.4942 1.48242 4.35656 0.5 0 0 0 -1.8836 -0.953651 -0.468743 
370 2.82998 0.443278 4.66007 0.5 0 0 0 -3.5466 -1.08075 0.0900322 
371 4.72583 0.25074 4.64225 0.5 0 0 0 0.353984 0.645416 1.6131 
382 3.88418 0.944614 3.84084 0.5 0 0 0 -2.45405 0.36214 -0.0352561 
373 4.63288 0.300494 3.94052 0.5 0 0 0 -0.776902 0.734388 -1.37522 
374 4.53401 0.486206 4.0481 0.5 0 0 0 -1.13014 1.24198 -0.778705 
375 5.03449 0.0100928 4.98314 0.5 0 0 0 3.59465 -1.18697 3.2091 
376 4.10392 1.60788 4.6828 0.5 0 0 0 -0.582526 -0.440857 0.453425 
377 4.01537 2.10371 5.10768 0.5 0 0 0 -0.109957 -0.49493 2.13382 
378 2.91759 1.64262 5.01093 0.5 0 0 0 -1.92858 -2.16825 1.57486 
379 3.53377 0.926493 5.07409 0.5 0 0 0 -2.38329 -0.425516 1.83405 
380 3.06476 2.29047 4.29765 0.5 0 0 0 -1.4192 -1.25232 -1.0682 
385 2.72743 3.16667 0.678627 0.5 0 0 0 -0.259396 0.0375808 0.47783 
386 4.46001 4.72631 0.0499687 0.5 0 0 0 0.670207 0.329288 -0.709529 
387 3.86554 3.94207 0.13887 0.5 0 0 0 0.119313 -0.411027 -0.427981 
388 4.3202 4.0172 1.07918 0.5 0 0 0 -0.817686 -0.172833 -1.10384 
389 3.81849 3.08829 0.794956 0.5 0 0 0 -0.593867 0.0886532 0.755365 
390 3.64731 4.11213 0.128382 0.5 0 0 0 0.0900831 -0.597297 0.0534278 
391 5.05323 4.32999 1.0758 0.5 0 0 0 2.14318 1.08713 -1.29524 
392 4.88878 2.67893 0.295457 0.5 0 0 0 1.32129 0.365133 -0.297454 
393 4.52615 4.58373 0.677717 0.5 0 0 0 -0.0148771 1.27494 -0.991516 
394 2.76375 2.92559 1.08837 0.5 0 0 0 0.0172064 -0.151016 1.30108 
395 4.91112 2.95983 0.998608 0.5 0 0 0 1.35499 -0.497214 1.14151 
396 4.08242 3.07659 0.0175058 0.5 0 0 0 -0.343918 0.450811 -1.52529 
397 5.07977 4.04744 0.825042 0.5 0 0 0 2.38241 -0.0625089 -1.63055 
398 2.92734 4.94158 0.00821292 0.5 0 0 0 -0.477127 2.03753 -1.50093 
399 3.38818 4.92149 0.588321 0.5 0 0 0 0.578022 1.09103 -0.330962 
400 3.33768 4.51273 0.419338 0.5 0 0 0 0.19551 -0.603877 0.275919 
401 3.37373 2.65717 0.0719838 0.5 0 0 0 -0.978785 -0.396991 -1.65027 
402 2.72655 3.11912 0.688009 0.5 0 0 0 -0.262865 0.00998764 0.537486 
403 4.76397 3.22272 0.182956 0.5 0 0 0 0.43133 0.481353 -1.34405 
404 4.20748 2.63552 0.142007 0.5 0 0 0 -0.164173 0.531403 -0.893948 
405 4.05946 4.87616 -0.0238899 0.5 0 0 0 0.282808 0.873226 -0.164241 
406 4.20552 3.58906 1.03062 0.5 0 0 0 -0.887374 -0.743101 -0.290766 
407 2.81353 4.2113 -0.0113358 0.5 0 0 0 -0.346718 -0.769304 -1.25043 
408 4.9935 3.11745 0.424442 0.5 0 0 0 1.24831 -0.0506759 -0.253442 
409 3.77205 3.30856 0.562627 0.5 0 0 0 -0.535903 0.0680941 0.0361827 
410 3.87007 2.62726 0.885778 0.5 0 0 0 -0.532543 0.714087 1.23161 
411 4.18382 2.65307 1.06402 0.5 0 0 0 -0.135365 0.559386 1.46062 
412 3.09159 3.18162 0.446709 0.5 0 0 0 -0.480428 0.0500388 0.061494 
413 2.9187 3.71694 0.925146 0.5 0 0 0 -0.225708 -0.363124 0.330756 
414 2.70955 4.48431 0.643286 0.5 0 0 0 -0.107186 -0.930274 0.142364 
415 2.6388 4.93667 1.11349 0.5 0 0 0 -1.07917 0.886349 -0.319893 
417 3.08579 3.60768 0.193224 0.5 0 0 0 -0.43915 -0.300432 -0.622329 
418 4.81607 4.17572 1.6567 0.5 0 0 0 0.59139 -0.344393 0.0452593 
419 2.97104 3.77731 2.20128 0.5 0 0 0 0.527135 -1.67741 0.597771 
420 4.87673 3.94973 2.41375 0.5 0 0 0 0.274842 -1.57634 0.677204 
421 4.8751 4.57039 1.80973 0.5 0 0 0 1.01153 1.67479 -0.455583 
422 4.26911 4.54909 1.75393 0.5 0 0 0 0.210638 0.978854 0.159603 
423 3.64883 4.60708 1.39653 0.5 0 0 0 0.361048 0.13372 -1.23182 
424 4.35686 3.80957 1.43823 0.5 0 0 0 -0.729169 -1.16534 0.52454 
425 2.78397 3.15329 1.33965 0.5 0 0 0 0.223666 -0.293634 1.2822 
426 3.24265 4.5535 2.11577 0.5 0 0 0 0.105243 -0.90841 1.66014 
427 3.29534 4.61705 1.65763 0.5 0 0 0 -0.180085 -0.61071 -0.144502 
428 4.92768 4.3107 2.00987 0.5 0 0 0 0.632378 -0.199144 0.0995258 
429 3.19584 4.83428 1.72876 0.5 0 0 0 -0.356613 0.283538 0.17078 
430 2.95764 4.84836 1.32106 0.5 0 0 0 -0.875945 0.354231 -0.984265 
431 3.50765 2.67592 2.37492 0.5 0 0 0 -0.874489 -0.138909 0.589053 
432 3.95776 2.50817 1.48 0.5 0 0 0 -0.674955 0.427655 1.94291 
433 2.74246 4.35531 2.39777 0.5 0 0 0 -0.216769 -1.01732 0.873554 
434 3.13473 4.50779 1.94043 0.5 0 0 0 -0.332029 -1.07922 0.87069 
435 3.61635 4.6595 1.62656 0.5 0 0 0 0.532146 0.0850913 -0.176532 
436 3.34107 3.27577 2.05507 0.5 0 0 0 -0.14178 -0.940345 0.961138 
437 3.80655 3.98331 1.78453 0.5 0 0 0 -0.714585 -1.5162 0.940782 
438 5.00234 3.5283 1.86043 0.5 0 0 0 1.73064 -1.9327 0.236729 
439 4.48504 4.48045 2.45638 0.5 0 0 0 -0.699919 0.100555 1.44686 
440 2.64624 3.87468 2.23009 0.5 0 0 0 0.374686 -1.1679 0.247908 
441 2.92967 4.74914 2.12022 0.5 0 0 0 -0.681668 -0.00187817 1.10786 
442 3.06368 4.58908 1.3818 0.5 0 0 0 -0.702506 -0.753023 -1.05745 
443 3.87393 4.1195 1.96441 0.5 0 0 0 -0.426161 -1.36554 1.44371 
444 2.67806 4.3564 1.89243 0.5 0 0 0 -0.768881 -0.933502 -0.157711 
445 4.42925 3.75366 1.23855 0.5 0 0 0 -0.571431 -1.03447 -0.0131109 
446 4.16136 3.88014 2.29143 0.5 0 0 0 -0.97181 -1.56503 1.40259 
447 3.98413 3.8338 1.70991 0.5 0 0 0 -1.00344 -1.5069 1.02251 
448 4.54614 2.8292 2.22811 0.5 0 0 0 -0.167332 0.27295 -0.265109 
449 3.08114 3.86142 1.29596 0.5 0 0 0 -0.376897 -0.892151 0.0159991 
450 3.48301 3.36566 1.39672 0.5 0 0 0 -0.555942 -0.723546 1.08941 
416 4.43939 3.86705 1.2623 0.5 0 0 0 -0.553484 -0.823836 -0.16232 
203 2.54258 2.99443 1.48495 0.5 0 0 0 0.543065 -0.349885 1.11904 
322 2.89681 2.52125 1.8635 0.5 0 0 0 0.201424 -0.0968955 1.34301 
314 4.95154 2.49957 1.43986 0.5 0 0 0 2.18026 0.0170285 0.881056 
479 2.67201 3.66333 3.67497 0.5 0 0 0 -0.203284 -1.64076 -0.627248 
453 4.81673 2.73412 3.2535 0.5 0 0 0 0.831742 0.571441 -0.423162 
454 3.96861 3.31053 2.81272 0.5 0 0 0 -1.04516 -0.0947083 0.106195 
455 2.9786 4.28332 3.66018 0.5 0 0 0 -0.72648 -0.931975 -1.02443 
456 2.78681 4.65171 3.10914 0.5 0 0 0 -0.203222 -0.442481 0.326355 
457 3.04669 4.89391 2.94079 0.5 0 0 0 0.553129 0.687036 0.706046 
458 3.38148 3.15475 2.90913 0.5 0 0 0 -0.536571 -0.877608 0.204819 
459 4.79833 4.06688 2.63942 0.5 0 0 0 -0.128141 -1.05995 1.14746 
460 4.3388 2.93317 3.14829 0.5 0 0 0 -1.28463 1.05574 -0.479615 
461 4.46961 4.44766 2.57146 0.5 0 0 0 -0.803998 -0.0313187 1.57324 
462 4.70144 4.9992 2.54255 0.5 0 0 0 0.456901 4.60248 1.38135 
463 4.41338 2.63817 2.73773 0.5 0 0 0 -1.22613 -0.00242571 -0.778308 
464 3.08229 3.82562 3.12878 0.5 0 0 0 0.298978 -1.73459 -0.110323 
465 3.57021 3.93289 3.56067 0.5 0 0 0 0.454575 -1.22722 -1.19873 
466 4.19207 2.57746 3.01757 0.5 0 0 0 -2.12592 -0.251461 -0.640485 
467 3.47467 4.4369 3.46201 0.5 0 0 0 0.871044 -0.333503 -0.872476 
468 4.83205 2.71881 2.53954 0.5 0 0 0 1.39736 0.238147 -0.96672 
344 4.1894 2.52631 3.41191 0.5 0 0 0 -2.05246 -0.49456 0.00249995 
470 4.48469 2.5291 3.64937 0.5 0 0 0 -1.05985 -0.473945 0.538388 
471 3.84038 4.76543 3.03905 0.5 0 0 0 0.428599 1.21798 0.489373 
451 2.79986 3.79809 2.4996 0.5 0 0 0 0.673123 -1.50338 0.668447 
473 2.91846 5.0861 3.74857 0.5 0 0 0 -0.149551 2.67782 0.232595 
474 4.50733 2.85757 3.6255 0.5 0 0 0 -0.710881 1.04253 0.308571 
478 3.98901 2.61315 3.41298 0.5 0 0 0 -2.49929 -0.216037 -0.0580359 
476 4.67836 3.70549 3.01079 0.5 0 0 0 0.0893572 -0.00660522 0.817176 
477 2.80107 4.25512 2.5663 0.5 0 0 0 0.0882307 -1.26936 0.94072 
337 4.00854 2.47712 3.28526 0.5 0 0 0 -2.5671 -0.587904 -0.210836 
475 4.80453 4.05407 3.78608 0.5 0 0 0 0.939237 -0.0504949 -0.1559 
480 3.58954 3.80889 4.79313 0.5 0 0 0 1.28067 -1.32202 0.955222 
481 4.13979 3.02608 4.95779 0.5 0 0 0 -0.268047 -1.47017 2.14228 
482 3.77862 3.59844 4.0078 0.5 0 0 0 0.420643 -0.998518 -1.09697 
483 4.40531 4.8875 4.10611 0.5 0 0 0 0.262958 0.500334 -1.75142 
484 3.17257 4.00242 3.9681 0.5 0 0 0 -0.446845 -1.44896 -1.51114 
485 3.66542 3.93623 4.40885 0.5 0 0 0 1.30961 -0.835967 -0.600766 
486 4.72061 4.70312 4.34975 0.5 0 0 0 -0.0981955 -0.899025 -1.36612 
487 3.2799 3.12528 4.27902 0.5 0 0 0 -0.664683 -1.9818 -0.831743 
488 4.67013 3.1766 4.66623 0.5 0 0 0 0.022285 0.068584 0.971203 
489 3.35018 4.83713 5.08973 0.5 0 0 0 -0.173406 3.09034 3.9834 
490 3.58041 3.44621 4.24509 0.5 0 0 0 -0.0363459 -1.73956 -0.884325 
491 3.71319 4.11091 4.82948 0.5 0 0 0 2.05142 -0.117105 1.33692 
492 2.664 3.19063 4.79124 0.5 0 0 0 -1.28705 -2.59099 0.923004 
493 4.51494 3.66926 4.72374 0.5 0 0 0 1.18579 0.523227 0.678162 
494 3.42613 3.64515 5.12503 0.5 0 0 0 0.7777 -2.09051 3.3119 
495 2.6833 4.06724 4.41671 0.5 0 0 0 -1.05376 -0.908386 -1.15863 
496 2.62237 3.80936 4.95756 0.5 0 0 0 -1.37835 -1.77672 1.45777 
497 3.38169 4.37698 3.9444 0.5 0 0 0 0.446705 -0.250726 -1.31605 
357 3.44984 2.49539 4.63855 0.5 0 0 0 -0.88072 -1.29875 0.135073 
499 3.95607 2.50645 4.05608 0.5 0 0 0 -1.5338 -0.749093 0.251145 
500 4.65467 4.93223 4.97399 0.5 0 0 0 -0.725032 -0.119523 1.6927 
501 4.62616 4.8156 4.90394 0.5 0 0 0 -0.283509 -0.293764 1.29264 
502 2.68186 3.97566 4.77886 0.5 0 0 0 -0.998899 -1.16847 0.287558 
503 2.93974 4.25916 4.55901 0.5 0 0 0 -0.375625 -0.128617 -0.685908 
504 3.55114 3.30535 4.29101 0.5 0 0 0 -0.234638 -1.87479 -0.698616 
505 3.69577 4.8226 4.28552 0.5 0 0 0 1.42012 1.77446 -0.194307 
506 4.09436 4.02173 3.97424 0.5 0 0 0 1.82439 0.0294039 -0.947265 
507 4.9127 2.81898 3.94309 0.5 0 0 0 0.483195 0.990015 0.557275 
508 2.87514 3.92811 4.68635 0.5 0 0 0 -0.391741 -1.40769 -0.269398 
509 3.30514 4.75551 4.40391 0.5 0 0 0 0.178846 1.78584 -0.100197 
510 3.08449 4.49513 4.06087 0.5 0 0 0 -0.596015 0.201671 -1.22207 
511 2.64437 3.03165 4.50455 0.5 0 0 0 -1.02997 -2.20825 -0.126215 
512 2.66599 2.8248 4.36837 0.5 0 0 0 -0.847034 -1.88595 -0.442518 
513 4.86973 3.02688 4.29851 0.5 0 0 0 0.30431 1.03362 0.591083 
ITEM: TIMESTEP
60067
ITEM: NUMBER OF ATOMS
512
ITEM: BOX BOUNDS ss ss ss
-2.1589663964569298e-02 5.0933846546203574e+00
-1.7364439631764822e-01 5.0865807164741392e+00
-1.8176655292622759e-01 5.1255068607205727e+00
ITEM: ATOMS id x y z width_SPH x_COM y_COM z_COM vx vy vz 
2 0.301058 0.775932 0.246861 0.5 0 0 0 -1.37919 -0.579473 0.0688482 
3 0.259431 1.291 0.605722 0.5 0 0 0 -2.08431 -0.964629 0.287776 
4 0.787478 1.24764 1.03676 0.5 0 0 0 -0.386216 -0.3401 0.749178 
5 1.73539 1.8934 0.823939 0.5 0 0 0 0.958495 0.352083 0.221144 
6 0.27419 2.07866 0.848535 0.5 0 0 0 -2.1184 0.86041 1.16649 
7 0.546654 1.58453 0.342544 0.5 0 0 0 -0.688644 -0.372053 -0.682056 
8 1.33606 0.225896 0.773367 0.5 0 0 0 0.0500253 -0.685406 1.18406 
9 1.53469 0.986432 0.331376 0.5 0 0 0 0.774019 0.260675 -0.74735 
10 1.11158 1.53603 -0.0685635 0.5 0 0 0 0.983775 -0.388483 -2.84955 
11 1.39605 1.22774 0.79617 0.5 0 0 0 0.782263 0.130018 0.282655 
38 1.08307 2.32881 0.776652 0.5 0 0 0 0.516807 0.421757 0.862933 
41 2.23084 2.37931 1.0229 0.5 0 0 0 0.351353 -0.202257 0.556552 
14 1.2605 2.06321 0.32927 0.5 0 0 0 1.32259 0.117808 -0.380245 
15 1.54695 0.039471 0.97613 0.5 0 0 0 1.23301 -1.50686 2.12369 
37 0.636901 0.390263 0.353985 0.5 0 0 0 -1.47723 -0.586515 0.379743 
17 1.08138 0.119433 0.519718 0.5 0 0 0 -1.29663 -0.68736 0.538465 
18 1.50826 -0.0164911 0.0458938 0.5 0 0 0 0.021026 -0.949673 -1.15218 
40 1.99514 0.669574 0.604467 0.5 0 0 0 1.39256 -0.197993 0.904824 
20 0.369814 1.75927 1.04789 0.5 0 0 0 -1.73131 0.350016 1.28562 
21 1.878 1.79469 0.745542 0.5 0 0 0 1.08067 0.226342 -0.00309634 
22 0.552785 2.4223 0.40994 0.5 0 0 0 -0.558237 0.212976 0.657488 
39 0.791152 1.5785 0.810201 0.5 0 0 0 0.140691 0.227588 0.408944 
24 0.00340043 0.598283 0.0816945 0.5 0 0 0 -2.72787 -0.779861 -0.133693 
25 1.95437 0.260598 0.581886 0.5 0 0 0 1.68399 -0.755043 1.3642 
26 1.35581 0.89095 0.584786 0.5 0 0 0 0.399558 0.0193158 -0.00984596 
27 0.864669 1.81411 0.900156 0.5 0 0 0 0.377395 0.67088 0.691805 
28 2.15664 0.959748 0.359458 0.5 0 0 0 0.883515 0.501544 -0.229979 
29 2.42448 1.35996 0.269405 0.5 0 0 0 0.107994 1.01773 -1.19043 
30 1.3992 0.242429 0.884066 0.5 0 0 0 0.488738 -0.82177 1.45699 
31 1.65838 1.51848 0.685685 0.5 0 0 0 1.20233 0.362129 0.0102185 
32 1.30154 2.09592 0.250954 0.5 0 0 0 1.4763 0.00634425 -0.708883 
33 1.46276 1.14326 0.721759 0.5 0 0 0 0.856768 0.07012 0.199789 
34 0.622254 2.08924 -0.0271305 0.5 0 0 0 -0.447969 -0.575357 -2.02293 
35 1.77116 0.0448054 -0.128826 0.5 0 0 0 1.17613 -0.864552 -2.25447 
36 0.968307 0.88323 0.0786119 0.5 0 0 0 0.0956121 0.0328149 -1.47961 
144 0.0211916 2.45507 0.114568 0.5 0 0 0 -3.1681 -0.780066 -1.09893 
43 1.54524 0.0677198 1.95232 0.5 0 0 0 1.54677 -2.05889 2.2793 
44 1.36472 2.35713 1.90941 0.5 0 0 0 0.773278 -0.347989 0.53871 
45 1.3338 1.11988 1.48553 0.5 0 0 0 0.476505 -0.19892 1.55748 
46 1.38772 2.23672 2.32626 0.5 0 0 0 0.77306 -0.849667 1.17322 
47 1.3959 1.26087 1.91897 0.5 0 0 0 -0.0998302 -0.503566 2.36782 
48 1.18006 0.812491 1.47866 0.5 0 0 0 0.169866 -0.426948 1.76227 
49 2.47935 2.34211 1.69818 0.5 0 0 0 0.558007 -0.173284 1.19152 
50 0.891246 0.608879 1.6702 0.5 0 0 0 -1.07937 -0.542162 2.51079 
51 1.96893 0.939583 1.80625 0.5 0 0 0 0.474657 -1.0968 1.64682 
52 0.671606 1.64139 1.33341 0.5 0 0 0 -0.669166 0.0976783 1.61561 
53 2.1247 1.44177 1.71791 0.5 0 0 0 0.456182 0.123591 0.952336 
54 0.39018 0.0429137 2.20343 0.5 0 0 0 -1.55321 -1.25148 0.558017 
55 1.73185 1.84185 1.70753 0.5 0 0 0 0.6505 0.164882 0.906626 
16 2.25737 2.0163 1.1787 0.5 0 0 0 0.457624 -0.0719291 0.552918 
57 2.38803 1.07706 1.62869 0.5 0 0 0 0.472603 -0.693359 0.755438 
58 1.78529 0.149186 2.23911 0.5 0 0 0 1.03268 -2.02267 2.71631 
59 1.24236 0.582599 2.3788 0.5 0 0 0 0.260615 -0.272315 3.92131 
60 0.669147 1.69642 1.57453 0.5 0 0 0 -0.979943 -0.22188 2.09606 
61 1.33412 0.300394 1.71433 0.5 0 0 0 0.887264 -1.21201 2.26358 
78 1.05745 1.89882 1.61754 0.5 0 0 0 0.147238 0.000531488 1.16132 
63 2.01583 1.57785 2.03483 0.5 0 0 0 0.300761 -0.0541917 1.40505 
64 0.517034 0.357619 2.37909 0.5 0 0 0 -0.56528 0.530391 2.62109 
65 1.06184 1.77544 2.19874 0.5 0 0 0 -0.468621 -1.40527 2.12132 
66 2.34198 0.861939 2.01784 0.5 0 0 0 0.0264878 -1.35147 1.6745 
67 1.10297 0.688531 2.02629 0.5 0 0 0 -0.327888 -0.221843 3.45705 
68 2.05806 1.47707 1.72368 0.5 0 0 0 0.443859 0.165824 1.00095 
69 1.40306 0.742943 2.26944 0.5 0 0 0 -0.0127199 -0.601948 3.56698 
77 0.387387 1.54418 1.42856 0.5 0 0 0 -2.22891 -0.477399 2.42528 
71 0.737599 0.532101 1.43848 0.5 0 0 0 -1.94545 -0.911208 1.66722 
72 1.00639 2.24107 2.44179 0.5 0 0 0 0.00218372 -1.25804 1.4617 
73 2.05738 1.03318 1.69109 0.5 0 0 0 0.56804 -0.882775 1.23015 
74 2.23184 1.01521 2.36174 0.5 0 0 0 -0.384272 -1.45766 2.51905 
75 0.0297626 2.3112 2.22173 0.5 0 0 0 -2.35305 -1.61491 0.705445 
76 0.971334 1.10814 1.45356 0.5 0 0 0 -0.382583 -0.28127 1.81092 
12 1.34529 1.51116 1.24546 0.5 0 0 0 0.683726 0.377317 0.874133 
13 1.86621 1.32627 1.2581 0.5 0 0 0 0.997 -0.0560583 0.662327 
312 2.49224 -0.0785548 1.66922 0.5 0 0 0 -0.146795 -2.94594 1.29965 
42 1.22906 0.726339 1.23556 0.5 0 0 0 0.353159 -0.502417 1.15911 
79 1.43519 2.24237 3.26306 0.5 0 0 0 0.0223927 -2.2893 1.21436 
80 0.722441 0.183725 2.71178 0.5 0 0 0 1.47956 0.523536 2.97284 
81 1.07278 0.41499 2.90582 0.5 0 0 0 1.62679 0.318603 4.42168 
82 1.30862 1.94323 2.75296 0.5 0 0 0 -0.307577 -2.04014 1.91 
83 1.70365 2.04278 2.87994 0.5 0 0 0 0.281031 -1.52929 1.51928 
84 1.24768 0.84008 3.71741 0.5 0 0 0 1.33461 -3.77954 4.56265 
85 2.02471 1.84019 2.82634 0.5 0 0 0 0.380622 -1.35915 1.64398 
106 1.36418 1.31961 2.61108 0.5 0 0 0 -0.890003 -2.18673 3.25925 
87 0.898791 2.29174 3.34264 0.5 0 0 0 -0.293879 -2.93009 0.785265 
88 1.94611 1.38119 2.97943 0.5 0 0 0 -0.745016 -2.92606 2.85481 
89 1.47552 0.236486 3.78196 0.5 0 0 0 0.219568 1.79092 4.58113 
100 0.580245 2.1647 2.54007 0.5 0 0 0 -0.486525 -1.98826 1.75436 
91 1.72848 1.44583 2.74128 0.5 0 0 0 -0.619507 -2.43808 2.67726 
92 0.127765 2.09689 2.83731 0.5 0 0 0 -1.29454 -2.82368 1.55053 
93 0.715286 0.310074 2.79201 0.5 0 0 0 1.35813 0.930424 3.27143 
94 1.45135 1.94301 2.62581 0.5 0 0 0 0.0977412 -1.59538 1.72399 
95 2.18938 2.14758 3.16346 0.5 0 0 0 0.868252 -1.23576 1.36448 
96 0.949788 1.87737 2.59394 0.5 0 0 0 -0.661382 -2.2622 2.27304 
97 1.79655 0.470843 3.60668 0.5 0 0 0 -2.34261 -1.28814 5.27504 
98 0.273037 1.57183 2.88924 0.5 0 0 0 -0.472609 -2.69562 1.99013 
99 2.15148 1.76572 3.33726 0.5 0 0 0 -0.0623747 -2.43026 1.94134 
105 0.748312 0.114093 3.13351 0.5 0 0 0 2.42393 0.80585 3.07571 
186 0.405523 2.44494 2.60323 0.5 0 0 0 -0.466333 -1.47821 1.20442 
102 1.84309 1.71236 3.01666 0.5 0 0 0 -0.358364 -2.45643 2.17468 
103 0.428595 1.03809 3.214 0.5 0 0 0 1.28691 -1.21717 2.32733 
231 1.26226 2.35114 3.50858 0.5 0 0 0 0.166535 -2.64005 0.961298 
62 2.18333 1.76448 2.56416 0.5 0 0 0 0.450526 -0.647153 1.47222 
131 1.85476 1.65838 3.77351 0.5 0 0 0 -0.993872 -4.30598 2.03116 
56 2.44014 0.522572 2.48152 0.5 0 0 0 -0.939953 -1.83354 2.60194 
107 1.79923 0.179199 4.53984 0.5 0 0 0 -2.45795 2.415 -3.09032 
108 1.07475 1.50089 4.4532 0.5 0 0 0 2.22981 -3.92921 -0.410829 
109 1.8042 0.539854 4.27431 0.5 0 0 0 -4.08328 -0.270188 -1.06218 
110 1.90995 0.686708 4.17965 0.5 0 0 0 -4.6865 -2.33687 0.535293 
139 1.01002 0.53425 4.8421 0.5 0 0 0 4.18344 -0.557591 -2.80631 
112 1.75816 0.698 4.66541 0.5 0 0 0 -1.94902 -1.78473 -4.6696 
113 1.92755 1.25303 4.43647 0.5 0 0 0 -2.16233 -4.87587 -0.595465 
114 0.873015 0.925229 4.48011 0.5 0 0 0 4.9701 -2.0179 -2.19315 
115 1.8402 0.570504 4.46819 0.5 0 0 0 -3.72962 -0.563702 -3.3804 
116 0.780073 0.159625 4.3033 0.5 0 0 0 4.86693 0.45468 -1.14692 
117 0.976233 0.936266 4.21247 0.5 0 0 0 4.88926 -3.28007 -0.842607 
138 0.0273679 1.19266 4.38545 0.5 0 0 0 0.0333242 -1.92583 0.369869 
119 0.767842 1.80936 4.39848 0.5 0 0 0 1.55612 -2.82257 0.538747 
120 1.48918 0.684109 4.13282 0.5 0 0 0 0.29125 -2.81527 1.22389 
121 1.88096 0.771558 3.94802 0.5 0 0 0 -3.88983 -3.61004 3.3858 
122 0.203657 -0.136032 4.07609 0.5 0 0 0 1.17965 -1.13942 0.140553 
123 1.22009 0.098808 4.57303 0.5 0 0 0 3.27551 1.89721 -2.95639 
124 0.694239 0.48942 4.10319 0.5 0 0 0 4.98907 -0.11241 -0.715189 
125 1.57983 0.388114 4.1862 0.5 0 0 0 -1.13371 2.13336 0.184441 
126 1.32391 0.54761 4.31047 0.5 0 0 0 3.62867 -0.260731 -2.29459 
127 1.22247 2.04542 4.70512 0.5 0 0 0 0.529095 -2.49873 0.738639 
128 1.13275 0.893309 4.24917 0.5 0 0 0 4.63113 -3.84386 -1.04815 
129 0.157212 1.59082 4.15841 0.5 0 0 0 1.0024 -2.69924 -0.130465 
130 0.546449 0.828478 4.34958 0.5 0 0 0 3.6029 -1.03143 -1.40426 
137 0.139754 2.14503 3.86316 0.5 0 0 0 -0.174254 -3.34821 -0.349399 
132 2.24816 1.87938 3.83284 0.5 0 0 0 -0.369872 -2.65505 1.08221 
133 1.36569 0.564184 4.27385 0.5 0 0 0 2.91073 -0.547905 -1.67075 
134 1.70918 2.16354 4.92569 0.5 0 0 0 -0.345923 -2.30072 0.356014 
135 2.26418 0.1678 4.66814 0.5 0 0 0 -2.7024 -0.457212 -0.977944 
136 1.59585 1.6178 4.25902 0.5 0 0 0 -0.174884 -5.05043 0.598208 
86 1.99543 1.44375 3.89322 0.5 0 0 0 -1.58176 -4.76341 2.01595 
252 1.97124 2.3346 4.62375 0.5 0 0 0 -0.3804 -2.5046 -0.187752 
372 2.44555 0.703623 4.33782 0.5 0 0 0 -4.58158 -1.3111 -0.490271 
111 1.47988 2.39442 3.94322 0.5 0 0 0 0.573423 -2.60429 1.12599 
90 1.33534 1.2502 3.83518 0.5 0 0 0 0.0442404 -5.92782 2.69804 
104 1.86757 1.0436 3.82196 0.5 0 0 0 -2.65231 -5.30337 3.62843 
118 2.50959 1.6731 4.55116 0.5 0 0 0 -2.00904 -2.35963 -0.414615 
101 1.63831 0.94959 3.80758 0.5 0 0 0 -1.76185 -5.3879 4.47997 
140 2.46899 2.49534 0.521338 0.5 0 0 0 -0.128908 -0.497113 0.0925416 
141 0.96915 3.25075 0.881215 0.5 0 0 0 -0.687572 -0.0542384 0.763198 
142 1.05819 3.61895 0.280843 0.5 0 0 0 0.0762422 0.567439 -0.305162 
143 0.613288 3.01274 0.597916 0.5 0 0 0 -0.779404 -0.0736912 1.18854 
167 1.3425 2.79902 0.68351 0.5 0 0 0 0.862597 -0.285233 0.459328 
168 1.60813 2.59703 0.915717 0.5 0 0 0 0.694611 -0.0649762 0.373867 
146 1.06775 3.21913 0.367264 0.5 0 0 0 0.564994 -0.407094 0.137522 
147 0.573216 4.49282 0.517005 0.5 0 0 0 1.15789 -0.171545 0.303712 
148 1.97431 3.78988 0.433879 0.5 0 0 0 0.683038 -0.368952 -0.379246 
149 0.683852 3.59682 0.0907886 0.5 0 0 0 -0.320007 1.05823 -0.716993 
150 1.89594 4.42723 0.806372 0.5 0 0 0 -0.262443 0.0303717 0.357114 
151 0.0449899 3.44437 0.106179 0.5 0 0 0 -1.64531 0.617858 -0.0464588 
152 1.35725 3.63101 1.14385 0.5 0 0 0 0.113068 -0.00935617 0.199504 
153 2.20121 4.40131 0.258868 0.5 0 0 0 -0.252408 -0.133621 -0.978025 
154 2.33911 4.58275 0.684234 0.5 0 0 0 -0.385013 -0.355659 0.255405 
155 1.29543 3.739 0.711872 0.5 0 0 0 -0.0562994 0.396018 0.295769 
156 0.448862 4.37762 1.0583 0.5 0 0 0 -0.637588 -0.993249 1.1288 
157 2.28879 2.65211 1.12402 0.5 0 0 0 0.333592 -0.230736 0.723492 
158 1.97602 4.15403 0.975271 0.5 0 0 0 0.404541 -0.54037 0.510212 
159 1.30202 3.80287 0.707775 0.5 0 0 0 -0.132018 0.516279 0.258982 
160 2.25978 2.64393 -0.0732961 0.5 0 0 0 -0.478487 -0.501422 -2.67298 
23 0.962133 2.54199 0.248238 0.5 0 0 0 0.775262 -0.19528 -0.04765 
162 1.69243 3.28376 0.688212 0.5 0 0 0 1.10814 -0.41201 0.186949 
163 0.041329 4.44313 0.0101767 0.5 0 0 0 0.227736 -0.442967 -0.609385 
164 2.14712 2.84689 0.191511 0.5 0 0 0 -0.0992034 -0.121543 -1.10242 
165 0.0909484 3.27534 0.313758 0.5 0 0 0 -1.79339 0.168335 0.889051 
166 2.19765 3.29178 0.984014 0.5 0 0 0 0.426632 -0.0728635 0.437579 
169 0.463447 3.13038 2.39827 0.5 0 0 0 -0.761637 0.716188 0.0717019 
170 1.91535 3.15615 2.11444 0.5 0 0 0 0.850001 -0.609234 0.276114 
171 0.073127 4.12224 2.28627 0.5 0 0 0 -2.32462 -0.638976 -1.31686 
172 1.10385 2.49108 1.83479 0.5 0 0 0 0.113718 -0.0897999 0.287142 
173 1.82174 3.36308 1.88121 0.5 0 0 0 0.624471 -0.353031 -0.192796 
174 1.26915 2.64237 1.45142 0.5 0 0 0 0.152455 0.0686035 0.0522415 
175 1.5165 4.31087 1.98113 0.5 0 0 0 0.608818 -0.492247 -0.249131 
176 1.55214 2.54248 1.97066 0.5 0 0 0 1.07774 -0.388547 0.455835 
177 -0.000868034 2.86161 2.38797 0.5 0 0 0 -2.3437 0.446039 0.184777 
178 1.44946 3.12326 1.43829 0.5 0 0 0 0.262668 -0.115135 -0.0447144 
179 2.14586 3.06959 2.45798 0.5 0 0 0 1.21847 -1.04109 0.798676 
180 1.15673 3.75587 1.50516 0.5 0 0 0 -0.81995 -0.0253755 -0.175321 
181 1.90675 4.8254 1.69836 0.5 0 0 0 -0.110061 0.569144 -0.338481 
182 1.13561 4.0265 1.86656 0.5 0 0 0 -0.897741 -0.269055 -0.176371 
183 1.54777 4.578 2.2453 0.5 0 0 0 0.407827 -0.184492 0.381986 
184 0.375309 2.61523 1.7266 0.5 0 0 0 -1.25196 0.28868 -0.281871 
185 1.31385 4.74035 2.2815 0.5 0 0 0 -0.39775 0.234666 0.573736 
204 1.32468 2.72488 2.02243 0.5 0 0 0 0.411348 -0.151401 0.337894 
187 1.38995 2.59811 2.25108 0.5 0 0 0 0.729159 -0.475103 0.785673 
188 1.50496 3.99844 2.40065 0.5 0 0 0 0.211204 -0.474669 0.650962 
189 1.72033 3.51607 2.26762 0.5 0 0 0 0.268696 -0.402692 0.325114 
202 0.972524 3.69504 1.79271 0.5 0 0 0 -1.44565 -0.025454 -0.100567 
191 2.16536 2.98689 2.46313 0.5 0 0 0 1.31926 -1.07885 0.829751 
192 1.88901 3.66891 2.05625 0.5 0 0 0 0.648548 -0.477162 -0.120455 
193 0.891346 3.87886 2.43149 0.5 0 0 0 -1.18048 -0.0753095 0.529382 
194 0.584984 3.06103 2.15149 0.5 0 0 0 -0.561647 0.719646 -0.131397 
195 1.99793 2.84629 1.96781 0.5 0 0 0 1.27019 -0.681291 0.435271 
196 1.34713 4.40977 1.55938 0.5 0 0 0 -0.11289 0.0288058 -0.882897 
190 1.78495 4.93382 1.1726 0.5 0 0 0 -1.13941 1.85129 -0.304658 
198 0.864712 4.5435 2.00967 0.5 0 0 0 -2.11473 0.135876 -0.143086 
199 1.34387 3.07488 2.36975 0.5 0 0 0 -0.0318016 -0.265263 0.531321 
200 2.34843 5.02929 2.31953 0.5 0 0 0 -0.796891 1.59988 0.324396 
201 0.447626 2.72568 2.13465 0.5 0 0 0 -0.558421 0.0893622 0.11342 
70 0.869077 2.53772 2.15016 0.5 0 0 0 -0.00744846 -0.379533 0.682906 
145 2.08491 2.5666 1.35062 0.5 0 0 0 0.613498 -0.220206 0.593893 
161 0.304208 3.15922 1.21597 0.5 0 0 0 -2.20412 0.586625 0.685954 
205 1.20045 3.53231 3.03398 0.5 0 0 0 0.0678488 -0.334015 0.264397 
206 1.96354 4.32896 3.0356 0.5 0 0 0 -0.110269 -0.37447 0.795691 
207 0.125248 4.09144 3.71369 0.5 0 0 0 -0.80888 -0.464166 0.10916 
208 0.843592 2.50923 3.69924 0.5 0 0 0 0.234164 -2.55696 0.728891 
209 1.51897 3.92171 3.16325 0.5 0 0 0 0.196408 -0.11758 0.840602 
210 1.84193 3.57401 3.51447 0.5 0 0 0 0.186009 -0.797563 0.527495 
211 1.88266 3.75203 2.61168 0.5 0 0 0 0.452299 -0.560293 0.722435 
212 1.26728 4.95011 2.96344 0.5 0 0 0 -0.263374 0.34494 0.888383 
213 2.05997 3.14167 2.58517 0.5 0 0 0 0.9266 -0.952225 0.886777 
214 1.24451 3.27321 3.65915 0.5 0 0 0 0.794268 -0.803001 0.932493 
215 0.723581 3.1322 3.31571 0.5 0 0 0 -0.405266 -0.703719 -0.116959 
216 0.445427 3.1858 3.33118 0.5 0 0 0 -1.08578 -0.462269 -0.477951 
217 2.47751 2.71685 2.75587 0.5 0 0 0 1.39734 -1.20608 0.862044 
218 2.3856 5.03043 3.71336 0.5 0 0 0 -0.96466 1.53902 0.410949 
219 1.09024 2.6149 3.18493 0.5 0 0 0 0.202242 -1.69432 0.472063 
220 2.32371 4.8339 2.95769 0.5 0 0 0 -0.618027 0.361565 0.828775 
221 1.05556 3.48504 3.60298 0.5 0 0 0 0.438437 -0.233127 0.805247 
222 2.43947 3.20193 3.0653 0.5 0 0 0 0.899403 -1.4782 0.585508 
223 1.90844 2.5835 3.33421 0.5 0 0 0 1.0039 -1.39157 0.908057 
224 0.518841 4.9229 3.11834 0.5 0 0 0 -0.680197 1.04936 -0.188443 
225 0.511126 3.84252 3.64451 0.5 0 0 0 -0.152881 0.0961619 0.347044 
226 0.947699 4.03003 2.86602 0.5 0 0 0 -0.664866 0.111358 0.686483 
227 1.10353 3.04117 3.11188 0.5 0 0 0 0.291877 -0.946494 0.13591 
228 0.260911 4.35829 2.60106 0.5 0 0 0 -1.13171 -0.263859 -0.40643 
229 0.262292 4.30495 3.51799 0.5 0 0 0 -0.219803 -0.166074 -0.264813 
230 1.60814 2.91279 3.13403 0.5 0 0 0 0.859918 -1.11713 0.637788 
234 1.25336 3.65657 3.14788 0.5 0 0 0 0.170562 -0.177657 0.462578 
232 2.45704 3.29094 3.07976 0.5 0 0 0 0.789109 -1.45299 0.51495 
233 1.25657 4.7676 3.4016 0.5 0 0 0 0.262809 -0.270137 0.631727 
472 2.51544 4.84304 2.81896 0.5 0 0 0 -0.522603 0.376618 0.860416 
251 1.85862 2.53246 3.78308 0.5 0 0 0 0.796292 -1.97062 0.861873 
452 2.41993 3.93784 3.55703 0.5 0 0 0 -0.618548 -0.767727 -0.227198 
254 1.67058 4.93834 3.76207 0.5 0 0 0 -0.108484 -0.00653281 -0.126822 
197 1.56003 4.63702 2.47551 0.5 0 0 0 0.194489 -0.0431834 0.939184 
235 1.25867 4.88886 4.11646 0.5 0 0 0 -0.0651362 -0.422472 -0.500009 
236 2.01963 3.92687 3.99277 0.5 0 0 0 -1.36744 -0.449669 -0.153229 
237 0.594824 2.54955 3.92612 0.5 0 0 0 0.437815 -2.27658 0.911899 
238 0.923659 4.77169 4.37611 0.5 0 0 0 0.150041 -0.39648 -0.108938 
239 0.871881 3.75292 3.98213 0.5 0 0 0 0.547471 0.0329142 1.33279 
240 2.06138 4.5736 4.57908 0.5 0 0 0 -2.31838 1.31112 0.100631 
241 2.18403 4.38619 4.75142 0.5 0 0 0 -2.57584 0.696979 0.680968 
242 0.097283 3.19401 4.41599 0.5 0 0 0 0.712112 -0.0226612 0.530366 
243 -0.0210856 2.72652 4.80956 0.5 0 0 0 0.478525 -2.54414 1.85157 
244 0.523829 4.91629 4.8473 0.5 0 0 0 -0.892539 0.136734 1.0153 
245 1.52927 3.07 4.9543 0.5 0 0 0 -1.28626 -1.12748 1.45294 
246 1.24538 3.71928 4.4173 0.5 0 0 0 -0.181747 -0.942099 1.03633 
247 2.42627 3.35711 3.82754 0.5 0 0 0 -0.0792562 -1.80323 -0.263729 
248 1.72736 2.67639 4.86735 0.5 0 0 0 -0.717029 -1.99975 0.514682 
249 1.67259 3.00146 4.12672 0.5 0 0 0 0.268946 -1.74656 0.717834 
250 1.29946 2.62046 3.9529 0.5 0 0 0 0.753701 -2.08428 1.28437 
259 0.587314 2.82169 3.88904 0.5 0 0 0 0.414869 -1.32139 0.940609 
258 0.0372909 2.95954 4.02069 0.5 0 0 0 -0.312604 -0.790847 -0.2392 
253 0.163213 2.67726 3.94064 0.5 0 0 0 -0.22267 -1.89759 0.00969807 
498 2.4724 3.56393 4.29257 0.5 0 0 0 -1.20938 -2.02097 -0.680346 
255 0.213924 3.66474 4.84726 0.5 0 0 0 0.696233 0.259955 1.04151 
256 2.32356 4.09436 4.60624 0.5 0 0 0 -2.25472 -0.685983 -0.152653 
257 1.27312 4.24124 4.86156 0.5 0 0 0 -0.926709 -1.02027 1.44441 
260 4.00548 -0.156996 0.91983 0.5 0 0 0 -0.224156 -2.77536 0.556824 
261 3.19555 2.28939 1.1298 0.5 0 0 0 -0.76625 0.0920774 1.3474 
262 4.78767 2.0216 0.404289 0.5 0 0 0 1.7656 0.433202 -1.08038 
263 4.86349 0.626838 0.989595 0.5 0 0 0 1.13936 -1.77787 0.856556 
264 3.25883 0.91598 0.201985 0.5 0 0 0 -0.773168 0.954976 -0.970759 
265 4.90555 1.41686 1.11292 0.5 0 0 0 1.8498 0.293387 1.42058 
266 4.83437 0.647196 -0.0129472 0.5 0 0 0 0.867761 -0.263142 -3.22873 
267 3.45727 1.79731 0.88621 0.5 0 0 0 -1.61335 -0.356149 0.380685 
268 2.89322 0.522863 0.844914 0.5 0 0 0 -0.153667 -0.397533 1.69457 
269 3.96981 1.81192 0.224041 0.5 0 0 0 -1.04669 -0.48331 -2.25326 
270 3.93632 1.90246 1.01936 0.5 0 0 0 -0.967667 0.532153 1.32238 
293 3.02089 2.402 0.572196 0.5 0 0 0 -0.796717 -0.43315 0.20855 
272 4.42309 1.79277 0.741691 0.5 0 0 0 0.0471708 0.718714 0.202821 
273 4.85214 1.36363 0.800133 0.5 0 0 0 1.45529 -0.322739 -0.105117 
274 2.68345 0.714079 0.824476 0.5 0 0 0 0.231225 -0.0903905 1.49871 
275 2.53787 2.34774 0.0564379 0.5 0 0 0 -0.49676 -1.07388 -2.05806 
276 5.08107 0.0669099 0.787807 0.5 0 0 0 1.14252 -1.66551 0.654472 
294 3.1399 0.0914824 0.349253 0.5 0 0 0 0.150598 -2.31539 -0.195679 
278 3.60826 1.88445 0.935531 0.5 0 0 0 -1.47454 -0.0204935 0.739748 
279 3.71217 0.45746 0.17154 0.5 0 0 0 0.354207 -1.32188 -1.49386 
295 2.73142 1.13215 0.898669 0.5 0 0 0 -0.159641 0.170673 0.868979 
281 3.0564 0.151193 0.970879 0.5 0 0 0 -0.451406 -1.93754 1.77535 
282 3.87439 1.69556 1.09784 0.5 0 0 0 -1.31073 0.0497658 1.41499 
283 3.80612 2.33927 -0.181299 0.5 0 0 0 -1.10118 -0.928761 -3.77626 
284 4.16863 2.09977 0.500956 0.5 0 0 0 -0.298044 0.731202 -0.33357 
285 3.41145 2.33265 0.439945 0.5 0 0 0 -1.11918 -0.145077 -0.370686 
286 3.72183 0.963262 0.427495 0.5 0 0 0 -1.14002 -0.231022 -0.451719 
287 4.34117 1.0384 0.421513 0.5 0 0 0 -0.48688 -1.2354 -1.495 
288 4.07943 1.6191 1.03377 0.5 0 0 0 -1.10329 0.123623 1.24631 
289 4.36668 1.05292 0.596489 0.5 0 0 0 -0.637115 -1.32407 -0.787496 
290 3.33102 0.992294 0.623108 0.5 0 0 0 -1.22171 0.311929 0.68199 
291 2.90505 1.0038 0.0831303 0.5 0 0 0 -0.432341 1.52784 -1.78156 
297 3.1628 0.422637 1.81526 0.5 0 0 0 -1.29625 -1.55318 0.77714 
298 3.83872 2.08748 2.17162 0.5 0 0 0 -1.14479 -0.142805 1.04438 
299 3.06608 0.732189 2.23275 0.5 0 0 0 -0.80699 -0.563653 1.53062 
323 3.16958 1.7184 1.55879 0.5 0 0 0 -0.673985 -0.158871 1.15612 
301 3.32709 1.70196 2.15389 0.5 0 0 0 -0.572192 0.0774097 1.27868 
302 3.70477 0.97047 1.808 0.5 0 0 0 -0.872598 0.195374 1.52376 
303 3.80395 0.847812 1.94421 0.5 0 0 0 -0.641826 0.0391873 1.64929 
292 4.33293 1.2853 1.24701 0.5 0 0 0 -0.639666 -0.24934 1.77514 
305 4.06195 1.45734 1.37118 0.5 0 0 0 -1.02092 0.1528 2.08149 
306 4.61121 1.24738 1.92467 0.5 0 0 0 0.787621 -0.0452676 1.55528 
307 4.02806 0.00289579 2.16168 0.5 0 0 0 -1.9892 -2.04562 -0.125284 
308 4.72506 0.104428 2.27495 0.5 0 0 0 0.0573534 -0.247043 0.0162101 
309 3.95474 0.747126 1.92069 0.5 0 0 0 -0.468727 -0.276 1.65559 
310 4.61075 2.32872 1.97826 0.5 0 0 0 0.484455 -0.142861 0.410057 
311 3.53785 2.25908 2.09172 0.5 0 0 0 -0.893434 0.158232 1.12885 
321 4.85074 -0.0225716 2.20582 0.5 0 0 0 0.482368 -0.650819 -0.309901 
313 2.56726 1.50595 2.20378 0.5 0 0 0 0.109464 0.00595573 1.31397 
320 2.69246 1.31431 1.87261 0.5 0 0 0 0.0635574 -0.068946 0.908782 
315 3.26738 0.871674 1.9548 0.5 0 0 0 -0.804982 -0.121827 1.16741 
316 4.50045 1.00423 2.30412 0.5 0 0 0 0.30773 0.0216575 0.921389 
317 4.42454 1.96834 2.33396 0.5 0 0 0 -0.426083 -0.757524 0.42907 
318 3.62756 0.647097 1.4244 0.5 0 0 0 -1.29703 -0.894214 0.717577 
319 3.17122 2.16817 1.97116 0.5 0 0 0 -0.3618 0.250607 1.244 
271 4.89446 1.59839 1.20694 0.5 0 0 0 1.99251 1.05742 1.86757 
19 2.58919 1.86325 1.17351 0.5 0 0 0 0.0130837 -0.264311 0.539881 
280 3.82516 0.808419 1.18765 0.5 0 0 0 -1.36629 -0.816535 0.795721 
300 4.20682 2.38482 1.22813 0.5 0 0 0 -0.0437468 0.850075 1.85768 
296 4.29953 0.620864 1.1735 0.5 0 0 0 -0.391161 -1.6916 0.799768 
277 3.47973 2.13585 1.1768 0.5 0 0 0 -1.08773 0.311777 1.5649 
324 4.20049 1.07209 3.60419 0.5 0 0 0 -1.49448 0.447576 -0.557432 
325 3.13525 0.346651 3.34055 0.5 0 0 0 -3.12529 -1.26456 1.33758 
326 3.66739 1.47199 3.67458 0.5 0 0 0 -1.94327 -0.405518 -0.0547065 
327 4.15864 1.37271 2.56514 0.5 0 0 0 -0.879732 -0.248761 0.532215 
328 3.56053 0.746071 2.82267 0.5 0 0 0 -1.23032 0.197345 0.970858 
329 4.6547 1.8582 2.7612 0.5 0 0 0 0.287416 -1.60674 -0.422573 
330 3.37921 1.61927 3.26274 0.5 0 0 0 -1.49015 -0.393445 0.612957 
331 4.42014 1.68674 3.2659 0.5 0 0 0 -1.11423 -1.2688 -0.40786 
332 4.72993 0.335379 2.57276 0.5 0 0 0 0.295609 0.868823 -0.287293 
333 2.66869 0.745653 3.45057 0.5 0 0 0 -3.12679 -1.5228 2.19027 
334 4.39709 0.492249 3.23252 0.5 0 0 0 -0.53312 0.856181 -1.84101 
335 5.05888 2.33763 2.86349 0.5 0 0 0 3.04187 -1.00713 -0.903797 
336 4.05519 0.349997 3.25553 0.5 0 0 0 -1.75577 0.276349 -0.965855 
350 2.94785 1.6205 2.671 0.5 0 0 0 -0.331938 -0.231884 1.44433 
338 2.75764 1.04701 3.70241 0.5 0 0 0 -3.05272 -1.44822 1.35404 
339 2.70521 0.895141 2.70662 0.5 0 0 0 -1.0301 -1.15818 2.43854 
340 2.93397 1.02898 3.59673 0.5 0 0 0 -2.76058 -1.00176 1.23851 
341 4.47472 1.99479 3.43292 0.5 0 0 0 -1.11102 -1.62623 0.0347146 
342 4.92134 1.88468 3.61398 0.5 0 0 0 1.08782 -1.75796 0.255041 
343 3.24144 1.5906 2.62381 0.5 0 0 0 -0.676342 -0.187433 1.25354 
349 4.19679 -0.0384139 3.21981 0.5 0 0 0 -1.68688 -1.34801 -1.61051 
345 3.47822 0.0426528 3.05536 0.5 0 0 0 -2.73634 -2.21432 0.5253 
346 3.69693 0.812519 3.53319 0.5 0 0 0 -2.4488 0.19602 0.133099 
347 2.80181 1.66491 2.63694 0.5 0 0 0 -0.102919 -0.190717 1.44763 
348 2.63913 1.65882 2.67644 0.5 0 0 0 0.0402654 -0.424358 1.55993 
352 4.9476 1.25163 3.70678 0.5 0 0 0 1.53042 -0.0804129 -0.468121 
469 4.12804 2.45322 2.60915 0.5 0 0 0 -1.94928 -0.327574 -0.220454 
304 2.73537 0.148569 2.52864 0.5 0 0 0 -1.73132 -2.67695 1.93462 
384 4.55124 0.313806 3.78157 0.5 0 0 0 -1.08604 0.714398 -1.93753 
351 4.81681 0.433183 4.13216 0.5 0 0 0 0.535583 1.28441 -0.255425 
381 3.28514 1.873 4.23842 0.5 0 0 0 -1.69192 -1.05929 -1.04757 
353 3.42785 1.25796 4.13505 0.5 0 0 0 -2.41246 -0.741759 -0.231613 
354 3.93464 1.93868 4.94642 0.5 0 0 0 -0.469398 -0.731156 1.15878 
355 4.89446 2.33383 4.00751 0.5 0 0 0 0.313357 -1.36283 1.33102 
356 4.45179 -0.173168 4.76969 0.5 0 0 0 -1.86003 -2.81269 1.58564 
383 4.13178 0.484749 4.99292 0.5 0 0 0 -2.1992 0.864372 2.56462 
358 5.0929 1.5728 4.75785 0.5 0 0 0 1.28525 -0.321783 1.65885 
359 3.01963 1.92092 4.29427 0.5 0 0 0 -1.64709 -1.2944 -1.0777 
360 4.55823 0.294842 4.19704 0.5 0 0 0 -1.20758 0.68067 -0.312357 
361 5.01071 2.27455 4.16296 0.5 0 0 0 0.815344 -1.71608 1.74487 
362 4.17112 0.254776 4.2464 0.5 0 0 0 -3.31799 0.0156414 -0.205668 
363 3.91128 0.31909 4.53698 0.5 0 0 0 -4.12035 -0.229017 0.557622 
364 2.66472 1.94634 4.90104 0.5 0 0 0 -2.03349 -1.87522 0.775539 
365 3.16969 1.7958 4.59542 0.5 0 0 0 -1.63184 -1.52829 -0.429067 
366 4.61143 0.911574 4.1486 0.5 0 0 0 -0.161757 1.7103 0.501501 
367 3.81676 -0.0602599 3.84489 0.5 0 0 0 -4.38238 -2.21113 0.189291 
368 4.06429 1.84855 4.28442 0.5 0 0 0 -1.15824 -0.7188 -0.0177398 
369 3.49419 1.48241 4.35656 0.5 0 0 0 -1.8836 -0.953652 -0.468737 
370 2.82997 0.443277 4.66007 0.5 0 0 0 -3.54659 -1.08076 0.0900369 
371 4.72583 0.250741 4.64225 0.5 0 0 0 0.353981 0.645422 1.6131 
382 3.88418 0.944614 3.84084 0.5 0 0 0 -2.45405 0.362134 -0.0352542 
373 4.63288 0.300495 3.94052 0.5 0 0 0 -0.776905 0.734386 -1.37521 
374 4.53401 0.486207 4.0481 0.5 0 0 0 -1.13014 1.24198 -0.778697 
375 5.03449 0.0100922 4.98314 0.5 0 0 0 3.59464 -1.18695 3.20907 
376 4.10392 1.60788 4.6828 0.5 0 0 0 -0.582527 -0.440858 0.453422 
377 4.01537 2.10371 5.10768 0.5 0 0 0 -0.109965 -0.49493 2.13381 
378 2.91758 1.64262 5.01093 0.5 0 0 0 -1.92857 -2.16825 1.57486 
379 3.53377 0.926493 5.07409 0.5 0 0 0 -2.38328 -0.425516 1.83404 
380 3.06476 2.29047 4.29765 0.5 0 0 0 -1.4192 -1.25232 -1.0682 
385 2.72743 3.16667 0.678627 0.5 0 0 0 -0.259395 0.0375799 0.477827 
386 4.46001 4.72631 0.0499683 0.5 0 0 0 0.670201 0.32928 -0.709523 
387 3.86554 3.94207 0.138869 0.5 0 0 0 0.119315 -0.411025 -0.427979 
388 4.3202 4.0172 1.07918 0.5 0 0 0 -0.81768 -0.172829 -1.10384 
389 3.81849 3.08829 0.794957 0.5 0 0 0 -0.593863 0.0886505 0.755359 
390 3.64731 4.11213 0.128382 0.5 0 0 0 0.0900829 -0.597294 0.0534279 
391 5.05324 4.32999 1.0758 0.5 0 0 0 2.14317 1.08712 -1.29523 
392 4.88878 2.67893 0.295457 0.5 0 0 0 1.32127 0.365129 -0.297446 
393 4.52615 4.58373 0.677717 0.5 0 0 0 -0.0148801 1.27493 -0.991502 
394 2.76375 2.92559 1.08837 0.5 0 0 0 0.0172066 -0.151016 1.30107 
395 4.91112 2.95983 0.998609 0.5 0 0 0 1.35498 -0.497211 1.1415 
396 4.08242 3.07659 0.0175051 0.5 0 0 0 -0.343917 0.450807 -1.52528 
397 5.07978 4.04744 0.825041 0.5 0 0 0 2.38241 -0.0625148 -1.63053 
398 2.92734 4.94158 0.00821217 0.5 0 0 0 -0.477131 2.03754 -1.50093 
399 3.38818 4.92149 0.58832 0.5 0 0 0 0.578021 1.09103 -0.330959 
400 3.33768 4.51273 0.419338 0.5 0 0 0 0.19551 -0.603876 0.275919 
401 3.37373 2.65717 0.071983 0.5 0 0 0 -0.978781 -0.396992 -1.65027 
402 2.72655 3.11912 0.68801 0.5 0 0 0 -0.262864 0.00998671 0.537482 
403 4.76397 3.22272 0.182956 0.5 0 0 0 0.431323 0.481353 -1.34404 
404 4.20748 2.63552 0.142007 0.5 0 0 0 -0.164174 0.531398 -0.893937 
405 4.05946 4.87616 -0.02389 0.5 0 0 0 0.282801 0.873222 -0.16424 
406 4.20552 3.58906 1.03062 0.5 0 0 0 -0.887367 -0.743097 -0.290767 
407 2.81353 4.2113 -0.0113364 0.5 0 0 0 -0.346718 -0.769303 -1.25043 
408 4.9935 3.11745 0.424442 0.5 0 0 0 1.2483 -0.0506753 -0.253435 
409 3.77205 3.30856 0.562627 0.5 0 0 0 -0.535899 0.068092 0.0361809 
410 3.87007 2.62726 0.885779 0.5 0 0 0 -0.532539 0.714081 1.2316 
411 4.18382 2.65307 1.06402 0.5 0 0 0 -0.135362 0.55938 1.46061 
412 3.09159 3.18162 0.446709 0.5 0 0 0 -0.480425 0.0500365 0.0614925 
413 2.9187 3.71694 0.925146 0.5 0 0 0 -0.225708 -0.363121 0.330755 
414 2.70955 4.48431 0.643287 0.5 0 0 0 -0.107183 -0.930273 0.142364 
415 2.63879 4.93667 1.11349 0.5 0 0 0 -1.07916 0.886349 -0.319889 
417 3.08579 3.60768 0.193223 0.5 0 0 0 -0.439149 -0.300432 -0.622329 
418 4.81607 4.17572 1.6567 0.5 0 0 0 0.591388 -0.344396 0.04526 
419 2.97104 3.77731 2.20128 0.5 0 0 0 0.527131 -1.6774 0.59777 
420 4.87673 3.94973 2.41375 0.5 0 0 0 0.274839 -1.57634 0.677198 
421 4.8751 4.5704 1.80973 0.5 0 0 0 1.01153 1.67479 -0.455581 
422 4.26911 4.54909 1.75393 0.5 0 0 0 0.210641 0.978854 0.159605 
423 3.64883 4.60708 1.39653 0.5 0 0 0 0.361049 0.133721 -1.23182 
424 4.35686 3.80957 1.43823 0.5 0 0 0 -0.729163 -1.16534 0.524541 
425 2.78397 3.15329 1.33965 0.5 0 0 0 0.223664 -0.293633 1.28219 
426 3.24265 4.5535 2.11577 0.5 0 0 0 0.105245 -0.908407 1.66013 
427 3.29534 4.61705 1.65763 0.5 0 0 0 -0.180084 -0.610709 -0.144501 
428 4.92768 4.3107 2.00987 0.5 0 0 0 0.632372 -0.199147 0.0995269 
429 3.19584 4.83428 1.72876 0.5 0 0 0 -0.356613 0.283538 0.170781 
430 2.95764 4.84836 1.32106 0.5 0 0 0 -0.875943 0.35423 -0.98426 
431 3.50765 2.67592 2.37492 0.5 0 0 0 -0.874486 -0.138911 0.589053 
432 3.95776 2.50817 1.48001 0.5 0 0 0 -0.674951 0.427651 1.9429 
433 2.74246 4.35531 2.39777 0.5 0 0 0 -0.21677 -1.01732 0.87355 
434 3.13473 4.50779 1.94043 0.5 0 0 0 -0.332028 -1.07922 0.870687 
435 3.61635 4.6595 1.62656 0.5 0 0 0 0.532148 0.0850922 -0.176531 
436 3.34107 3.27577 2.05507 0.5 0 0 0 -0.141781 -0.940342 0.961134 
437 3.80655 3.98331 1.78453 0.5 0 0 0 -0.71458 -1.5162 0.940781 
438 5.00234 3.5283 1.86043 0.5 0 0 0 1.73064 -1.93268 0.236722 
439 4.48504 4.48045 2.45638 0.5 0 0 0 -0.699918 0.100551 1.44685 
440 2.64624 3.87468 2.23009 0.5 0 0 0 0.374682 -1.16789 0.247907 
441 2.92967 4.74914 2.12022 0.5 0 0 0 -0.681668 -0.00187715 1.10786 
442 3.06368 4.58908 1.3818 0.5 0 0 0 -0.702504 -0.753023 -1.05744 
443 3.87393 4.11949 1.96441 0.5 0 0 0 -0.426157 -1.36554 1.44371 
444 2.67806 4.3564 1.89243 0.5 0 0 0 -0.768881 -0.933499 -0.157712 
445 4.42925 3.75366 1.23855 0.5 0 0 0 -0.571425 -1.03447 -0.0131107 
446 4.16136 3.88014 2.29143 0.5 0 0 0 -0.971802 -1.56502 1.40259 
447 3.98413 3.8338 1.70991 0.5 0 0 0 -1.00343 -1.50689 1.02251 
448 4.54614 2.8292 2.2281 0.5 0 0 0 -0.167333 0.272946 -0.265105 
449 3.08114 3.86142 1.29596 0.5 0 0 0 -0.376896 -0.892147 0.0159998 
450 3.48301 3.36566 1.39672 0.5 0 0 0 -0.555941 -0.723545 1.0894 
416 4.43939 3.86705 1.2623 0.5 0 0 0 -0.553478 -0.823832 -0.16232 
203 2.54258 2.99443 1.48495 0.5 0 0 0 0.543062 -0.349884 1.11903 
322 2.89681 2.52125 1.8635 0.5 0 0 0 0.201422 -0.0968966 1.34301 
314 4.95154 2.49957 1.43986 0.5 0 0 0 2.18025 0.0170285 0.881052 
479 2.67201 3.66333 3.67497 0.5 0 0 0 -0.203284 -1.64075 -0.627244 
453 4.81673 2.73412 3.2535 0.5 0 0 0 0.831744 0.571436 -0.423161 
454 3.96861 3.31053 2.81272 0.5 0 0 0 -1.04516 -0.094709 0.106195 
455 2.9786 4.28332 3.66018 0.5 0 0 0 -0.726477 -0.931973 -1.02442 
456 2.78681 4.65171 3.10914 0.5 0 0 0 -0.203222 -0.442483 0.326354 
457 3.04669 4.89391 2.94079 0.5 0 0 0 0.553129 0.687035 0.706044 
458 3.38148 3.15475 2.90913 0.5 0 0 0 -0.536571 -0.877607 0.204819 
459 4.79833 4.06688 2.63942 0.5 0 0 0 -0.128144 -1.05995 1.14746 
460 4.3388 2.93317 3.14829 0.5 0 0 0 -1.28463 1.05573 -0.479611 
461 4.46961 4.44766 2.57146 0.5 0 0 0 -0.803996 -0.0313227 1.57323 
462 4.70144 4.9992 2.54255 0.5 0 0 0 0.456904 4.60248 1.38134 
463 4.41338 2.63817 2.73773 0.5 0 0 0 -1.22612 -0.00242968 -0.7783 
464 3.08229 3.82562 3.12878 0.5 0 0 0 0.298974 -1.73459 -0.110321 
465 3.57021 3.93289 3.56067 0.5 0 0 0 0.45457 -1.22721 -1.19872 
466 4.19207 2.57746 3.01757 0.5 0 0 0 -2.12591 -0.251465 -0.640479 
467 3.47467 4.4369 3.46201 0.5 0 0 0 0.87104 -0.333504 -0.87247 
468 4.83205 2.71881 2.53954 0.5 0 0 0 1.39736 0.238143 -0.966713 
344 4.18939 2.52631 3.41191 0.5 0 0 0 -2.05245 -0.494563 0.00250199 
470 4.48469 2.5291 3.64937 0.5 0 0 0 -1.05985 -0.473947 0.538386 
471 3.84038 4.76543 3.03905 0.5 0 0 0 0.428597 1.21798 0.48937 
451 2.79986 3.79809 2.4996 0.5 0 0 0 0.673117 -1.50337 0.668445 
473 2.91846 5.0861 3.74857 0.5 0 0 0 -0.149546 2.67782 0.232598 
474 4.50733 2.85757 3.6255 0.5 0 0 0 -0.710876 1.04252 0.30857 
478 3.98901 2.61315 3.41298 0.5 0 0 0 -2.49928 -0.216042 -0.0580331 
476 4.67836 3.70549 3.01079 0.5 0 0 0 0.0893563 -0.00660652 0.81717 
477 2.80107 4.25512 2.5663 0.5 0 0 0 0.0882286 -1.26936 0.940716 
337 4.00854 2.47712 3.28526 0.5 0 0 0 -2.56709 -0.587906 -0.210832 
475 4.80453 4.05407 3.78608 0.5 0 0 0 0.939236 -0.0504946 -0.155901 
480 3.58954 3.80889 4.79313 0.5 0 0 0 1.28066 -1.32201 0.955217 
481 4.13979 3.02607 4.95779 0.5 0 0 0 -0.268051 -1.47016 2.14227 
482 3.77862 3.59844 4.0078 0.5 0 0 0 0.420636 -0.998513 -1.09696 
483 4.40531 4.8875 4.10611 0.5 0 0 0 0.262956 0.500333 -1.75142 
484 3.17257 4.00242 3.9681 0.5 0 0 0 -0.446841 -1.44896 -1.51113 
485 3.66542 3.93623 4.40885 0.5 0 0 0 1.3096 -0.835961 -0.600764 
486 4.72061 4.70312 4.34975 0.5 0 0 0 -0.0981903 -0.89902 -1.36611 
487 3.2799 3.12528 4.27902 0.5 0 0 0 -0.664682 -1.98179 -0.831741 
488 4.67013 3.1766 4.66623 0.5 0 0 0 0.022278 0.0685779 0.971195 
489 3.35018 4.83713 5.08973 0.5 0 0 0 -0.17343 3.09031 3.98338 
490 3.58041 3.44621 4.24509 0.5 0 0 0 -0.0363499 -1.73956 -0.884321 
491 3.71319 4.11091 4.82948 0.5 0 0 0 2.0514 -0.117101 1.33691 
492 2.664 3.19063 4.79125 0.5 0 0 0 -1.28704 -2.59098 0.923003 
493 4.51494 3.66926 4.72374 0.5 0 0 0 1.18578 0.523223 0.678155 
494 3.42613 3.64515 5.12504 0.5 0 0 0 0.777689 -2.0905 3.3119 
495 2.6833 4.06724 4.41671 0.5 0 0 0 -1.05375 -0.908382 -1.15863 
496 2.62237 3.80936 4.95756 0.5 0 0 0 -1.37834 -1.77671 1.45777 
497 3.38169 4.37698 3.9444 0.5 0 0 0 0.446704 -0.250726 -1.31604 
357 3.44984 2.49539 4.63855 0.5 0 0 0 -0.88072 -1.29875 0.135074 
499 3.95607 2.50645 4.05608 0.5 0 0 0 -1.5338 -0.749093 0.251145 
500 4.65467 4.93223 4.97399 0.5 0 0 0 -0.725027 -0.119523 1.69269 
501 4.62616 4.8156 4.90394 0.5 0 0 0 -0.283508 -0.293765 1.29263 
502 2.68186 3.97566 4.77886 0.5 0 0 0 -0.998889 -1.16846 0.287558 
503 2.93974 4.25916 4.55901 0.5 0 0 0 -0.375616 -0.128612 -0.685904 
504 3.55114 3.30535 4.29101 0.5 0 0 0 -0.234641 -1.87478 -0.698613 
505 3.69577 4.8226 4.28552 0.5 0 0 0 1.42011 1.77444 -0.194307 
506 4.09436 4.02173 3.97424 0.5 0 0 0 1.82438 0.0294045 -0.947258 
507 4.9127 2.81898 3.94309 0.5 0 0 0 0.483191 0.990009 0.557265 
508 2.87514 3.9281 4.68635 0.5 0 0 0 -0.391732 -1.40768 -0.269397 
509 3.30514 4.75551 4.40391 0.5 0 0 0 0.178842 1.78583 -0.100195 
510 3.08449 4.49513 4.06087 0.5 0 0 0 -0.596011 0.20167 -1.22206 
511 2.64437 3.03165 4.50455 0.5 0 0 0 -1.02996 -2.20824 -0.126216 
512 2.66599 2.82479 4.36837 0.5 0 0 0 -0.847031 -1.88595 -0.442519 
513 4.86973 3.02688 4.29851 0.5 0 0 0 0.304304 1.03361 0.591073 
ITEM: TIMESTEP
60068
ITEM: NUMBER OF ATOMS
512
ITEM: BOX BOUNDS ss ss ss
-2.1589663964569298e-02 5.0933846546203574e+00
-1.7364439631764822e-01 5.0865807164741392e+00
-1.8176655292622759e-01 5.1255068607205727e+00
ITEM: ATOMS id x y z width_SPH x_COM y_COM z_COM vx vy vz 
2 0.301057 0.775932 0.246861 0.5 0 0 0 -1.37918 -0.579469 0.0688533 
3 0.25943 1.291 0.605722 0.5 0 0 0 -2.0843 -0.964625 0.287779 
4 0.787478 1.24764 1.03676 0.5 0 0 0 -0.386214 -0.340099 0.749175 
5 1.73539 1.8934 0.823939 0.5 0 0 0 0.958488 0.352081 0.221145 
6 0.274189 2.07866 0.848536 0.5 0 0 0 -2.1184 0.860409 1.16649 
7 0.546654 1.58453 0.342544 0.5 0 0 0 -0.68864 -0.37205 -0.682051 
8 1.33606 0.225896 0.773368 0.5 0 0 0 0.0500248 -0.685405 1.18405 
9 1.53469 0.986432 0.331376 0.5 0 0 0 0.774014 0.260671 -0.74735 
10 1.11158 1.53603 -0.0685649 0.5 0 0 0 0.983773 -0.388482 -2.84955 
11 1.39605 1.22774 0.79617 0.5 0 0 0 0.782256 0.130016 0.282656 
38 1.08307 2.32881 0.776652 0.5 0 0 0 0.516801 0.421754 0.862931 
41 2.23084 2.37931 1.0229 0.5 0 0 0 0.351351 -0.202257 0.556551 
14 1.2605 2.06321 0.32927 0.5 0 0 0 1.32258 0.117807 -0.380243 
15 1.54695 0.0394703 0.976131 0.5 0 0 0 1.23301 -1.50686 2.12369 
37 0.6369 0.390263 0.353985 0.5 0 0 0 -1.47722 -0.586513 0.379746 
17 1.08138 0.119432 0.519718 0.5 0 0 0 -1.29663 -0.687357 0.538464 
18 1.50826 -0.0164915 0.0458933 0.5 0 0 0 0.0210244 -0.949663 -1.15217 
40 1.99514 0.669574 0.604467 0.5 0 0 0 1.39255 -0.197997 0.904822 
20 0.369813 1.75927 1.04789 0.5 0 0 0 -1.7313 0.350016 1.28561 
21 1.878 1.79469 0.745542 0.5 0 0 0 1.08066 0.22634 -0.00309442 
22 0.552784 2.4223 0.40994 0.5 0 0 0 -0.558236 0.212976 0.657489 
39 0.791152 1.5785 0.810201 0.5 0 0 0 0.140691 0.227588 0.408943 
24 0.00339907 0.598283 0.0816944 0.5 0 0 0 -2.72786 -0.779857 -0.133687 
25 1.95437 0.260597 0.581886 0.5 0 0 0 1.68398 -0.755044 1.3642 
26 1.35582 0.89095 0.584786 0.5 0 0 0 0.399553 0.0193124 -0.00984626 
27 0.864669 1.81411 0.900156 0.5 0 0 0 0.377393 0.670878 0.691803 
28 2.15664 0.959748 0.359458 0.5 0 0 0 0.88351 0.501539 -0.229979 
29 2.42448 1.35996 0.269404 0.5 0 0 0 0.107994 1.01772 -1.19043 
30 1.3992 0.242428 0.884067 0.5 0 0 0 0.488737 -0.821769 1.45699 
31 1.65838 1.51848 0.685685 0.5 0 0 0 1.20232 0.362127 0.0102207 
32 1.30154 2.09592 0.250953 0.5 0 0 0 1.4763 0.00634385 -0.708881 
33 1.46276 1.14326 0.721759 0.5 0 0 0 0.856761 0.0701175 0.19979 
34 0.622253 2.08924 -0.0271315 0.5 0 0 0 -0.447968 -0.575354 -2.02293 
35 1.77117 0.0448049 -0.128827 0.5 0 0 0 1.17613 -0.86454 -2.25445 
36 0.968307 0.88323 0.0786112 0.5 0 0 0 0.0956139 0.0328138 -1.47961 
144 0.02119 2.45507 0.114568 0.5 0 0 0 -3.16809 -0.780068 -1.09893 
43 1.54524 0.0677188 1.95232 0.5 0 0 0 1.54677 -2.05888 2.2793 
44 1.36472 2.35713 1.90941 0.5 0 0 0 0.773273 -0.347991 0.538712 
45 1.3338 1.11988 1.48553 0.5 0 0 0 0.476504 -0.198921 1.55748 
46 1.38772 2.23672 2.32626 0.5 0 0 0 0.773058 -0.849667 1.17322 
47 1.3959 1.26087 1.91897 0.5 0 0 0 -0.0998287 -0.503566 2.36782 
48 1.18006 0.812491 1.47866 0.5 0 0 0 0.169869 -0.426947 1.76227 
49 2.47935 2.34211 1.69818 0.5 0 0 0 0.558004 -0.173285 1.19152 
50 0.891246 0.608878 1.6702 0.5 0 0 0 -1.07937 -0.542158 2.51078 
51 1.96893 0.939582 1.80625 0.5 0 0 0 0.474654 -1.0968 1.64682 
52 0.671605 1.64139 1.33341 0.5 0 0 0 -0.669162 0.0976771 1.6156 
53 2.1247 1.44177 1.71791 0.5 0 0 0 0.456178 0.123589 0.952338 
54 0.390179 0.0429131 2.20343 0.5 0 0 0 -1.55322 -1.25148 0.558026 
55 1.73185 1.84185 1.70753 0.5 0 0 0 0.650496 0.164879 0.906627 
16 2.25737 2.0163 1.1787 0.5 0 0 0 0.457622 -0.0719299 0.552918 
57 2.38803 1.07706 1.62869 0.5 0 0 0 0.472599 -0.69336 0.755439 
58 1.78529 0.149185 2.23911 0.5 0 0 0 1.03267 -2.02266 2.7163 
59 1.24236 0.582599 2.37881 0.5 0 0 0 0.260623 -0.27231 3.9213 
60 0.669147 1.69642 1.57453 0.5 0 0 0 -0.979939 -0.221881 2.09605 
61 1.33412 0.300394 1.71433 0.5 0 0 0 0.887267 -1.212 2.26358 
78 1.05745 1.89882 1.61754 0.5 0 0 0 0.147238 0.00052977 1.16132 
63 2.01583 1.57785 2.03483 0.5 0 0 0 0.300758 -0.054194 1.40505 
64 0.517034 0.357619 2.37909 0.5 0 0 0 -0.565274 0.530394 2.6211 
65 1.06184 1.77544 2.19874 0.5 0 0 0 -0.468619 -1.40527 2.12132 
66 2.34198 0.861938 2.01784 0.5 0 0 0 0.0264854 -1.35146 1.6745 
67 1.10297 0.688531 2.02629 0.5 0 0 0 -0.327881 -0.221839 3.45705 
68 2.05806 1.47707 1.72368 0.5 0 0 0 0.443855 0.165822 1.00096 
69 1.40306 0.742942 2.26944 0.5 0 0 0 -0.0127141 -0.601943 3.56697 
77 0.387386 1.54418 1.42856 0.5 0 0 0 -2.22891 -0.4774 2.42528 
71 0.737598 0.532101 1.43848 0.5 0 0 0 -1.94545 -0.911206 1.66722 
72 1.00639 2.24107 2.44179 0.5 0 0 0 0.0021826 -1.25803 1.4617 
73 2.05738 1.03318 1.69109 0.5 0 0 0 0.568036 -0.882776 1.23015 
74 2.23184 1.01521 2.36174 0.5 0 0 0 -0.384272 -1.45766 2.51904 
75 0.0297614 2.3112 2.22173 0.5 0 0 0 -2.35304 -1.61491 0.705443 
76 0.971333 1.10814 1.45356 0.5 0 0 0 -0.38258 -0.281269 1.81092 
12 1.34529 1.51116 1.24546 0.5 0 0 0 0.683722 0.377315 0.874133 
13 1.86621 1.32627 1.2581 0.5 0 0 0 0.996994 -0.0560606 0.662329 
312 2.49224 -0.0785563 1.66922 0.5 0 0 0 -0.146794 -2.94593 1.29965 
42 1.22906 0.726339 1.23556 0.5 0 0 0 0.353159 -0.502417 1.1591 
79 1.43519 2.24236 3.26307 0.5 0 0 0 0.0223926 -2.2893 1.21436 
80 0.722442 0.183725 2.71178 0.5 0 0 0 1.47956 0.523535 2.97285 
81 1.07278 0.41499 2.90582 0.5 0 0 0 1.62679 0.318601 4.42167 
82 1.30862 1.94323 2.75296 0.5 0 0 0 -0.307577 -2.04013 1.90999 
83 1.70365 2.04277 2.87994 0.5 0 0 0 0.28103 -1.52928 1.51927 
84 1.24768 0.840078 3.71742 0.5 0 0 0 1.33461 -3.77951 4.56262 
85 2.02471 1.84019 2.82634 0.5 0 0 0 0.380619 -1.35915 1.64398 
106 1.36418 1.31961 2.61109 0.5 0 0 0 -0.889998 -2.18672 3.25924 
87 0.898791 2.29174 3.34264 0.5 0 0 0 -0.293878 -2.93008 0.785262 
88 1.94611 1.38119 2.97943 0.5 0 0 0 -0.745014 -2.92605 2.8548 
89 1.47552 0.236487 3.78196 0.5 0 0 0 0.219564 1.79093 4.5811 
100 0.580244 2.1647 2.54008 0.5 0 0 0 -0.486523 -1.98825 1.75436 
91 1.72848 1.44583 2.74128 0.5 0 0 0 -0.619505 -2.43807 2.67725 
92 0.127765 2.09689 2.83731 0.5 0 0 0 -1.29454 -2.82367 1.55052 
93 0.715287 0.310075 2.79201 0.5 0 0 0 1.35813 0.93042 3.27143 
94 1.45135 1.94301 2.62581 0.5 0 0 0 0.0977406 -1.59538 1.72399 
95 2.18938 2.14758 3.16346 0.5 0 0 0 0.868247 -1.23576 1.36448 
96 0.949788 1.87737 2.59394 0.5 0 0 0 -0.661381 -2.26219 2.27303 
97 1.79655 0.470842 3.60669 0.5 0 0 0 -2.3426 -1.28812 5.27501 
98 0.273037 1.57183 2.88924 0.5 0 0 0 -0.472602 -2.69561 1.99012 
99 2.15148 1.76572 3.33726 0.5 0 0 0 -0.0623765 -2.43025 1.94134 
105 0.748314 0.114094 3.13352 0.5 0 0 0 2.42392 0.805844 3.07571 
186 0.405522 2.44494 2.60323 0.5 0 0 0 -0.466329 -1.4782 1.20442 
102 1.84309 1.71235 3.01666 0.5 0 0 0 -0.358364 -2.45642 2.17467 
103 0.428595 1.03809 3.214 0.5 0 0 0 1.28691 -1.21716 2.32734 
231 1.26226 2.35114 3.50858 0.5 0 0 0 0.166534 -2.64004 0.961294 
62 2.18333 1.76448 2.56416 0.5 0 0 0 0.450522 -0.647154 1.47222 
131 1.85476 1.65838 3.77351 0.5 0 0 0 -0.99387 -4.30598 2.03115 
56 2.44014 0.522572 2.48152 0.5 0 0 0 -0.939951 -1.83353 2.60193 
107 1.79923 0.179201 4.53984 0.5 0 0 0 -2.45792 2.41499 -3.09029 
108 1.07475 1.50089 4.4532 0.5 0 0 0 2.2298 -3.92921 -0.410828 
109 1.80419 0.539854 4.27431 0.5 0 0 0 -4.08321 -0.270193 -1.06216 
110 1.90995 0.686707 4.17966 0.5 0 0 0 -4.68644 -2.33685 0.535294 
139 1.01002 0.53425 4.8421 0.5 0 0 0 4.18341 -0.557599 -2.80632 
112 1.75816 0.697999 4.66541 0.5 0 0 0 -1.94899 -1.78473 -4.66958 
113 1.92755 1.25303 4.43647 0.5 0 0 0 -2.1623 -4.87586 -0.595465 
114 0.873017 0.925228 4.48011 0.5 0 0 0 4.97006 -2.01791 -2.19315 
115 1.84019 0.570504 4.46819 0.5 0 0 0 -3.72957 -0.563708 -3.38037 
116 0.780075 0.159625 4.3033 0.5 0 0 0 4.86688 0.454673 -1.14691 
117 0.976235 0.936264 4.21247 0.5 0 0 0 4.88921 -3.28006 -0.8426 
138 0.0273679 1.19266 4.38545 0.5 0 0 0 0.0333239 -1.92585 0.369882 
119 0.767843 1.80936 4.39848 0.5 0 0 0 1.55611 -2.82257 0.538747 
120 1.48918 0.684108 4.13282 0.5 0 0 0 0.291252 -2.81524 1.22387 
121 1.88096 0.771556 3.94802 0.5 0 0 0 -3.8898 -3.61001 3.38577 
122 0.203658 -0.136032 4.07609 0.5 0 0 0 1.17965 -1.1394 0.140571 
123 1.22009 0.0988089 4.57302 0.5 0 0 0 3.27547 1.8972 -2.95638 
124 0.694241 0.48942 4.10318 0.5 0 0 0 4.98902 -0.112417 -0.715179 
125 1.57983 0.388115 4.1862 0.5 0 0 0 -1.13368 2.13332 0.184448 
126 1.32391 0.54761 4.31047 0.5 0 0 0 3.62861 -0.260738 -2.29456 
127 1.22247 2.04542 4.70512 0.5 0 0 0 0.529088 -2.49873 0.738639 
128 1.13275 0.893307 4.24917 0.5 0 0 0 4.63109 -3.84385 -1.04814 
129 0.157213 1.59082 4.15841 0.5 0 0 0 1.00241 -2.69924 -0.130461 
130 0.546451 0.828477 4.34958 0.5 0 0 0 3.60286 -1.03144 -1.40425 
137 0.139754 2.14503 3.86316 0.5 0 0 0 -0.174247 -3.3482 -0.349396 
132 2.24816 1.87938 3.83284 0.5 0 0 0 -0.369873 -2.65505 1.0822 
133 1.36569 0.564184 4.27385 0.5 0 0 0 2.91069 -0.547909 -1.67072 
134 1.70918 2.16354 4.92569 0.5 0 0 0 -0.345921 -2.30071 0.356016 
135 2.26417 0.167799 4.66814 0.5 0 0 0 -2.70237 -0.45722 -0.97793 
136 1.59585 1.6178 4.25902 0.5 0 0 0 -0.174882 -5.05042 0.598204 
86 1.99543 1.44375 3.89322 0.5 0 0 0 -1.58175 -4.7634 2.01594 
252 1.97124 2.3346 4.62375 0.5 0 0 0 -0.380397 -2.5046 -0.187753 
372 2.44555 0.703622 4.33782 0.5 0 0 0 -4.58155 -1.3111 -0.490264 
111 1.47988 2.39442 3.94322 0.5 0 0 0 0.573421 -2.60428 1.12598 
90 1.33534 1.2502 3.83518 0.5 0 0 0 0.0442445 -5.9278 2.69802 
104 1.86757 1.0436 3.82196 0.5 0 0 0 -2.65229 -5.30335 3.62842 
118 2.50959 1.6731 4.55116 0.5 0 0 0 -2.00903 -2.35962 -0.414613 
101 1.63831 0.949587 3.80758 0.5 0 0 0 -1.76183 -5.38787 4.47995 
140 2.46899 2.49534 0.521338 0.5 0 0 0 -0.128906 -0.497111 0.0925418 
141 0.969149 3.25075 0.881215 0.5 0 0 0 -0.687574 -0.0542392 0.763197 
142 1.05819 3.61895 0.280843 0.5 0 0 0 0.0762418 0.567435 -0.305164 
143 0.613288 3.01274 0.597917 0.5 0 0 0 -0.779405 -0.0736918 1.18853 
167 1.3425 2.79902 0.683511 0.5 0 0 0 0.862592 -0.285232 0.459326 
168 1.60813 2.59703 0.915717 0.5 0 0 0 0.694606 -0.0649764 0.373867 
146 1.06775 3.21913 0.367264 0.5 0 0 0 0.56499 -0.407095 0.137519 
147 0.573217 4.49282 0.517005 0.5 0 0 0 1.15788 -0.171537 0.303709 
148 1.97431 3.78988 0.433879 0.5 0 0 0 0.683036 -0.368951 -0.379247 
149 0.683852 3.59682 0.0907883 0.5 0 0 0 -0.320004 1.05822 -0.716994 
150 1.89594 4.42723 0.806372 0.5 0 0 0 -0.262441 0.0303707 0.357115 
151 0.0449891 3.44437 0.106179 0.5 0 0 0 -1.6453 0.61785 -0.0464548 
152 1.35725 3.63101 1.14385 0.5 0 0 0 0.113069 -0.00935696 0.199506 
153 2.20121 4.40131 0.258868 0.5 0 0 0 -0.252406 -0.133621 -0.978028 
154 2.3391 4.58275 0.684234 0.5 0 0 0 -0.38501 -0.355659 0.255405 
155 1.29543 3.739 0.711872 0.5 0 0 0 -0.0562991 0.396015 0.29577 
156 0.448862 4.37762 1.0583 0.5 0 0 0 -0.637593 -0.993242 1.12879 
157 2.28879 2.65211 1.12402 0.5 0 0 0 0.333589 -0.230735 0.723489 
158 1.97602 4.15403 0.975272 0.5 0 0 0 0.40454 -0.54037 0.510214 
159 1.30202 3.80288 0.707775 0.5 0 0 0 -0.132017 0.516276 0.258983 
160 2.25978 2.64393 -0.0732974 0.5 0 0 0 -0.478484 -0.501417 -2.67297 
23 0.962134 2.54199 0.248238 0.5 0 0 0 0.775257 -0.19528 -0.0476507 
162 1.69243 3.28376 0.688212 0.5 0 0 0 1.10814 -0.412008 0.186948 
163 0.0413291 4.44313 0.0101764 0.5 0 0 0 0.227735 -0.442957 -0.609383 
164 2.14712 2.84689 0.19151 0.5 0 0 0 -0.0992026 -0.121541 -1.10242 
165 0.0909475 3.27534 0.313759 0.5 0 0 0 -1.79338 0.168329 0.889053 
166 2.19765 3.29178 0.984015 0.5 0 0 0 0.426629 -0.0728622 0.437578 
169 0.463447 3.13038 2.39827 0.5 0 0 0 -0.761633 0.716181 0.0717043 
170 1.91535 3.15614 2.11444 0.5 0 0 0 0.849997 -0.609233 0.276116 
171 0.0731259 4.12224 2.28627 0.5 0 0 0 -2.32462 -0.638975 -1.31685 
172 1.10385 2.49108 1.83479 0.5 0 0 0 0.113714 -0.089802 0.287144 
173 1.82174 3.36308 1.88121 0.5 0 0 0 0.624468 -0.353029 -0.192794 
174 1.26915 2.64237 1.45142 0.5 0 0 0 0.152451 0.0686014 0.0522442 
175 1.5165 4.31087 1.98113 0.5 0 0 0 0.608819 -0.492247 -0.24913 
176 1.55214 2.54248 1.97066 0.5 0 0 0 1.07774 -0.388549 0.455839 
177 -0.000869206 2.86161 2.38797 0.5 0 0 0 -2.34369 0.446036 0.184779 
178 1.44946 3.12326 1.43829 0.5 0 0 0 0.262665 -0.115135 -0.0447112 
179 2.14586 3.06959 2.45799 0.5 0 0 0 1.21846 -1.04109 0.798676 
180 1.15673 3.75587 1.50516 0.5 0 0 0 -0.819947 -0.0253765 -0.175317 
181 1.90675 4.8254 1.69836 0.5 0 0 0 -0.110061 0.569142 -0.338478 
182 1.13561 4.0265 1.86656 0.5 0 0 0 -0.897737 -0.269055 -0.176368 
183 1.54777 4.578 2.2453 0.5 0 0 0 0.407827 -0.184493 0.381983 
184 0.375309 2.61523 1.7266 0.5 0 0 0 -1.25195 0.288676 -0.281867 
185 1.31385 4.74035 2.2815 0.5 0 0 0 -0.397748 0.234665 0.573733 
204 1.32469 2.72488 2.02243 0.5 0 0 0 0.411344 -0.151403 0.337897 
187 1.38995 2.59811 2.25108 0.5 0 0 0 0.729155 -0.475104 0.785674 
188 1.50496 3.99844 2.40065 0.5 0 0 0 0.211204 -0.474669 0.650959 
189 1.72033 3.51607 2.26762 0.5 0 0 0 0.268694 -0.402691 0.325114 
202 0.972523 3.69504 1.79271 0.5 0 0 0 -1.44564 -0.0254557 -0.100564 
191 2.16537 2.98689 2.46313 0.5 0 0 0 1.31925 -1.07885 0.829752 
192 1.88901 3.66891 2.05625 0.5 0 0 0 0.648545 -0.47716 -0.120454 
193 0.891345 3.87886 2.43149 0.5 0 0 0 -1.18048 -0.0753112 0.52938 
194 0.584984 3.06103 2.15149 0.5 0 0 0 -0.561644 0.719639 -0.131394 
195 1.99793 2.84629 1.96781 0.5 0 0 0 1.27019 -0.68129 0.435273 
196 1.34713 4.40977 1.55938 0.5 0 0 0 -0.112888 0.0288057 -0.882891 
190 1.78495 4.93382 1.1726 0.5 0 0 0 -1.13941 1.8513 -0.304658 
198 0.864711 4.5435 2.00967 0.5 0 0 0 -2.11472 0.135876 -0.143086 
199 1.34387 3.07488 2.36975 0.5 0 0 0 -0.0318028 -0.265265 0.531321 
200 2.34843 5.02929 2.31953 0.5 0 0 0 -0.796887 1.59988 0.324392 
201 0.447626 2.72568 2.13465 0.5 0 0 0 -0.558416 0.0893584 0.113422 
70 0.869077 2.53772 2.15016 0.5 0 0 0 -0.00744974 -0.379534 0.682907 
145 2.08491 2.5666 1.35062 0.5 0 0 0 0.613494 -0.220206 0.593893 
161 0.304207 3.15922 1.21597 0.5 0 0 0 -2.20411 0.586621 0.685953 
205 1.20045 3.53231 3.03398 0.5 0 0 0 0.0678488 -0.334018 0.264396 
206 1.96354 4.32896 3.0356 0.5 0 0 0 -0.110268 -0.374471 0.795687 
207 0.125248 4.09144 3.71369 0.5 0 0 0 -0.808878 -0.464167 0.10916 
208 0.843592 2.50923 3.69925 0.5 0 0 0 0.234164 -2.55695 0.728888 
209 1.51897 3.92171 3.16325 0.5 0 0 0 0.196408 -0.117583 0.840599 
210 1.84193 3.57401 3.51447 0.5 0 0 0 0.186009 -0.797565 0.527494 
211 1.88266 3.75203 2.61168 0.5 0 0 0 0.452296 -0.560292 0.722432 
212 1.26728 4.95011 2.96344 0.5 0 0 0 -0.263374 0.344937 0.888377 
213 2.05997 3.14167 2.58517 0.5 0 0 0 0.926595 -0.952224 0.886777 
214 1.24451 3.27321 3.65915 0.5 0 0 0 0.794265 -0.803003 0.932491 
215 0.72358 3.1322 3.31571 0.5 0 0 0 -0.405264 -0.703721 -0.116958 
216 0.445427 3.1858 3.33118 0.5 0 0 0 -1.08577 -0.462271 -0.47795 
217 2.47751 2.71685 2.75587 0.5 0 0 0 1.39733 -1.20608 0.862045 
218 2.3856 5.03043 3.71336 0.5 0 0 0 -0.96465 1.53901 0.410947 
219 1.09024 2.6149 3.18493 0.5 0 0 0 0.202242 -1.69431 0.472063 
220 2.3237 4.8339 2.95769 0.5 0 0 0 -0.618023 0.36156 0.828772 
221 1.05556 3.48504 3.60298 0.5 0 0 0 0.438436 -0.233131 0.805246 
222 2.43947 3.20193 3.0653 0.5 0 0 0 0.899397 -1.4782 0.585507 
223 1.90845 2.5835 3.33421 0.5 0 0 0 1.0039 -1.39157 0.908055 
224 0.518841 4.9229 3.11834 0.5 0 0 0 -0.680199 1.04936 -0.188444 
225 0.511126 3.84252 3.64451 0.5 0 0 0 -0.152879 0.0961577 0.347044 
226 0.947698 4.03003 2.86602 0.5 0 0 0 -0.664864 0.111355 0.686479 
227 1.10353 3.04117 3.11188 0.5 0 0 0 0.291877 -0.946495 0.135912 
228 0.26091 4.35829 2.60106 0.5 0 0 0 -1.13171 -0.263859 -0.406425 
229 0.262292 4.30495 3.51799 0.5 0 0 0 -0.219802 -0.166075 -0.264812 
230 1.60814 2.91279 3.13403 0.5 0 0 0 0.859915 -1.11713 0.637788 
234 1.25336 3.65657 3.14788 0.5 0 0 0 0.170562 -0.177661 0.462577 
232 2.45704 3.29094 3.07976 0.5 0 0 0 0.789104 -1.45298 0.514949 
233 1.25657 4.7676 3.4016 0.5 0 0 0 0.262806 -0.270139 0.631722 
472 2.51544 4.84304 2.81896 0.5 0 0 0 -0.522601 0.376614 0.860412 
251 1.85862 2.53246 3.78308 0.5 0 0 0 0.796289 -1.97062 0.861868 
452 2.41993 3.93784 3.55703 0.5 0 0 0 -0.618547 -0.767725 -0.227197 
254 1.67058 4.93834 3.76207 0.5 0 0 0 -0.108481 -0.00653694 -0.126823 
197 1.56003 4.63702 2.47551 0.5 0 0 0 0.194489 -0.043185 0.939179 
235 1.25867 4.88886 4.11646 0.5 0 0 0 -0.0651374 -0.422473 -0.500006 
236 2.01963 3.92687 3.99277 0.5 0 0 0 -1.36743 -0.44967 -0.15323 
237 0.594824 2.54955 3.92612 0.5 0 0 0 0.437815 -2.27657 0.911897 
238 0.923659 4.77169 4.37611 0.5 0 0 0 0.150035 -0.396479 -0.108936 
239 0.871881 3.75292 3.98213 0.5 0 0 0 0.547467 0.0329091 1.33279 
240 2.06138 4.5736 4.57908 0.5 0 0 0 -2.31836 1.31111 0.100627 
241 2.18403 4.38619 4.75143 0.5 0 0 0 -2.57582 0.696974 0.680965 
242 0.0972834 3.19401 4.41599 0.5 0 0 0 0.712114 -0.0226625 0.530365 
243 -0.0210854 2.72651 4.80956 0.5 0 0 0 0.478526 -2.54414 1.85156 
244 0.523829 4.91629 4.8473 0.5 0 0 0 -0.892536 0.136734 1.0153 
245 1.52927 3.07 4.9543 0.5 0 0 0 -1.28626 -1.12748 1.45294 
246 1.24538 3.71928 4.4173 0.5 0 0 0 -0.181747 -0.942102 1.03632 
247 2.42627 3.35711 3.82754 0.5 0 0 0 -0.0792562 -1.80323 -0.263728 
248 1.72736 2.67639 4.86735 0.5 0 0 0 -0.717026 -1.99975 0.51468 
249 1.67259 3.00146 4.12672 0.5 0 0 0 0.268944 -1.74656 0.71783 
250 1.29946 2.62046 3.9529 0.5 0 0 0 0.753699 -2.08428 1.28437 
259 0.587314 2.82169 3.88904 0.5 0 0 0 0.41487 -1.32139 0.940608 
258 0.0372908 2.95954 4.02069 0.5 0 0 0 -0.312602 -0.790846 -0.239199 
253 0.163213 2.67726 3.94064 0.5 0 0 0 -0.222667 -1.89759 0.00969901 
498 2.4724 3.56393 4.29257 0.5 0 0 0 -1.20937 -2.02097 -0.680344 
255 0.213924 3.66474 4.84726 0.5 0 0 0 0.69623 0.259948 1.0415 
256 2.32356 4.09436 4.60624 0.5 0 0 0 -2.2547 -0.685982 -0.152654 
257 1.27312 4.24124 4.86156 0.5 0 0 0 -0.926707 -1.02027 1.44441 
260 4.00548 -0.156998 0.919831 0.5 0 0 0 -0.224159 -2.77534 0.556823 
261 3.19555 2.28939 1.1298 0.5 0 0 0 -0.766247 0.0920772 1.3474 
262 4.78767 2.0216 0.404289 0.5 0 0 0 1.76559 0.433193 -1.08037 
263 4.86349 0.626837 0.989596 0.5 0 0 0 1.13935 -1.77786 0.856551 
264 3.25883 0.91598 0.201984 0.5 0 0 0 -0.773164 0.954971 -0.970754 
265 4.90556 1.41686 1.11292 0.5 0 0 0 1.84979 0.293386 1.42058 
266 4.83437 0.647196 -0.0129488 0.5 0 0 0 0.86775 -0.26313 -3.2287 
267 3.45727 1.79731 0.88621 0.5 0 0 0 -1.61334 -0.356148 0.380681 
268 2.89322 0.522863 0.844915 0.5 0 0 0 -0.153667 -0.397533 1.69456 
269 3.96981 1.81192 0.224039 0.5 0 0 0 -1.04668 -0.483311 -2.25325 
270 3.93632 1.90246 1.01936 0.5 0 0 0 -0.96766 0.53215 1.32237 
293 3.02089 2.402 0.572197 0.5 0 0 0 -0.796712 -0.433149 0.208548 
272 4.42309 1.79277 0.741691 0.5 0 0 0 0.0471715 0.71871 0.20282 
273 4.85214 1.36363 0.800133 0.5 0 0 0 1.45528 -0.322742 -0.10512 
274 2.68345 0.714079 0.824477 0.5 0 0 0 0.231223 -0.0903925 1.4987 
275 2.53787 2.34774 0.0564369 0.5 0 0 0 -0.496756 -1.07388 -2.05805 
276 5.08107 0.0669091 0.787808 0.5 0 0 0 1.14251 -1.66549 0.654468 
294 3.1399 0.0914812 0.349253 0.5 0 0 0 0.150595 -2.31538 -0.195681 
278 3.60826 1.88445 0.935531 0.5 0 0 0 -1.47453 -0.020494 0.739743 
279 3.71217 0.457459 0.17154 0.5 0 0 0 0.354209 -1.32188 -1.49386 
295 2.73142 1.13215 0.898669 0.5 0 0 0 -0.15964 0.170671 0.868978 
281 3.0564 0.151192 0.97088 0.5 0 0 0 -0.451404 -1.93754 1.77534 
282 3.87439 1.69556 1.09784 0.5 0 0 0 -1.31072 0.0497642 1.41498 
283 3.80612 2.33927 -0.181301 0.5 0 0 0 -1.10118 -0.928764 -3.77625 
284 4.16863 2.09977 0.500956 0.5 0 0 0 -0.298042 0.731198 -0.333567 
285 3.41145 2.33265 0.439944 0.5 0 0 0 -1.11917 -0.145077 -0.370685 
286 3.72183 0.963262 0.427495 0.5 0 0 0 -1.14001 -0.231021 -0.451712 
287 4.34117 1.0384 0.421512 0.5 0 0 0 -0.486874 -1.2354 -1.49499 
288 4.07943 1.6191 1.03377 0.5 0 0 0 -1.10328 0.123621 1.2463 
289 4.36668 1.05292 0.596489 0.5 0 0 0 -0.63711 -1.32407 -0.787493 
290 3.33102 0.992295 0.623109 0.5 0 0 0 -1.2217 0.311926 0.681991 
291 2.90505 1.0038 0.0831294 0.5 0 0 0 -0.43234 1.52783 -1.78156 
297 3.1628 0.422637 1.81526 0.5 0 0 0 -1.29625 -1.55317 0.777141 
298 3.83872 2.08748 2.17162 0.5 0 0 0 -1.14479 -0.142806 1.04438 
299 3.06608 0.732188 2.23275 0.5 0 0 0 -0.80699 -0.563654 1.53062 
323 3.16958 1.7184 1.55879 0.5 0 0 0 -0.673983 -0.158871 1.15612 
301 3.32709 1.70196 2.15389 0.5 0 0 0 -0.572191 0.0774074 1.27868 
302 3.70477 0.97047 1.808 0.5 0 0 0 -0.872595 0.195373 1.52375 
303 3.80395 0.847812 1.94421 0.5 0 0 0 -0.641824 0.0391866 1.64928 
292 4.33293 1.2853 1.24701 0.5 0 0 0 -0.639661 -0.24934 1.77513 
305 4.06195 1.45734 1.37118 0.5 0 0 0 -1.02091 0.152799 2.08148 
306 4.61121 1.24738 1.92467 0.5 0 0 0 0.787617 -0.0452677 1.55527 
307 4.02805 0.00289477 2.16168 0.5 0 0 0 -1.9892 -2.04562 -0.125285 
308 4.72506 0.104428 2.27495 0.5 0 0 0 0.0573512 -0.247041 0.0162094 
309 3.95474 0.747126 1.92069 0.5 0 0 0 -0.468726 -0.276 1.65558 
310 4.61075 2.32872 1.97826 0.5 0 0 0 0.484453 -0.142861 0.410057 
311 3.53785 2.25908 2.09172 0.5 0 0 0 -0.89343 0.158229 1.12885 
321 4.85074 -0.022572 2.20582 0.5 0 0 0 0.482366 -0.650815 -0.309902 
313 2.56726 1.50595 2.20378 0.5 0 0 0 0.109461 0.0059529 1.31397 
320 2.69246 1.31431 1.87261 0.5 0 0 0 0.0635554 -0.0689483 0.908784 
315 3.26738 0.871673 1.9548 0.5 0 0 0 -0.804981 -0.121828 1.16741 
316 4.50045 1.00423 2.30412 0.5 0 0 0 0.307726 0.0216576 0.921385 
317 4.42454 1.96834 2.33396 0.5 0 0 0 -0.426084 -0.757519 0.429071 
318 3.62756 0.647097 1.4244 0.5 0 0 0 -1.29703 -0.894213 0.717573 
319 3.17122 2.16817 1.97116 0.5 0 0 0 -0.3618 0.250605 1.244 
271 4.89446 1.59839 1.20694 0.5 0 0 0 1.9925 1.05742 1.86756 
19 2.58919 1.86325 1.17351 0.5 0 0 0 0.0130842 -0.264311 0.539881 
280 3.82516 0.808419 1.18765 0.5 0 0 0 -1.36628 -0.816533 0.795716 
300 4.20682 2.38482 1.22813 0.5 0 0 0 -0.0437438 0.850068 1.85767 
296 4.29953 0.620863 1.1735 0.5 0 0 0 -0.391156 -1.6916 0.799761 
277 3.47973 2.13585 1.1768 0.5 0 0 0 -1.08772 0.311776 1.56489 
324 4.20049 1.07209 3.60419 0.5 0 0 0 -1.49448 0.447575 -0.55743 
325 3.13524 0.346651 3.34055 0.5 0 0 0 -3.12528 -1.26456 1.33758 
326 3.66739 1.47199 3.67458 0.5 0 0 0 -1.94326 -0.405517 -0.0547052 
327 4.15864 1.37271 2.56514 0.5 0 0 0 -0.879731 -0.248759 0.532215 
328 3.56053 0.746071 2.82267 0.5 0 0 0 -1.23032 0.197343 0.970857 
329 4.6547 1.8582 2.7612 0.5 0 0 0 0.287413 -1.60672 -0.422569 
330 3.37921 1.61927 3.26274 0.5 0 0 0 -1.49015 -0.393444 0.612956 
331 4.42014 1.68674 3.2659 0.5 0 0 0 -1.11423 -1.26879 -0.407859 
332 4.72993 0.33538 2.57276 0.5 0 0 0 0.295607 0.868822 -0.28729 
333 2.66869 0.745652 3.45057 0.5 0 0 0 -3.12679 -1.52279 2.19026 
334 4.39709 0.492249 3.23252 0.5 0 0 0 -0.533122 0.856181 -1.841 
335 5.05888 2.33763 2.86349 0.5 0 0 0 3.04188 -1.00712 -0.903791 
336 4.05519 0.349997 3.25553 0.5 0 0 0 -1.75577 0.27635 -0.965847 
350 2.94785 1.6205 2.671 0.5 0 0 0 -0.33194 -0.231886 1.44433 
338 2.75764 1.04701 3.70241 0.5 0 0 0 -3.05272 -1.44822 1.35404 
339 2.70521 0.895141 2.70662 0.5 0 0 0 -1.0301 -1.15817 2.43853 
340 2.93397 1.02898 3.59673 0.5 0 0 0 -2.76058 -1.00176 1.23851 
341 4.47472 1.99479 3.43292 0.5 0 0 0 -1.11102 -1.62621 0.034714 
342 4.92134 1.88468 3.61398 0.5 0 0 0 1.08782 -1.75794 0.255035 
343 3.24144 1.5906 2.62381 0.5 0 0 0 -0.676342 -0.187435 1.25353 
349 4.19679 -0.0384146 3.2198 0.5 0 0 0 -1.68688 -1.34801 -1.6105 
345 3.47822 0.0426517 3.05536 0.5 0 0 0 -2.73633 -2.21431 0.525302 
346 3.69693 0.812519 3.53319 0.5 0 0 0 -2.4488 0.196015 0.133101 
347 2.80181 1.66491 2.63694 0.5 0 0 0 -0.102922 -0.190719 1.44762 
348 2.63913 1.65882 2.67644 0.5 0 0 0 0.0402618 -0.424359 1.55992 
352 4.9476 1.25163 3.70678 0.5 0 0 0 1.53042 -0.0804097 -0.468122 
469 4.12803 2.45322 2.60915 0.5 0 0 0 -1.94927 -0.327575 -0.220448 
304 2.73537 0.148567 2.52864 0.5 0 0 0 -1.73131 -2.67694 1.93462 
384 4.55124 0.313806 3.78157 0.5 0 0 0 -1.08604 0.714396 -1.93753 
351 4.81681 0.433184 4.13216 0.5 0 0 0 0.535584 1.28441 -0.255414 
381 3.28514 1.873 4.23842 0.5 0 0 0 -1.69191 -1.05929 -1.04757 
353 3.42785 1.25796 4.13505 0.5 0 0 0 -2.41245 -0.741761 -0.231608 
354 3.93464 1.93868 4.94642 0.5 0 0 0 -0.469403 -0.731156 1.15878 
355 4.89446 2.33383 4.00751 0.5 0 0 0 0.313351 -1.36283 1.33101 
356 4.45179 -0.17317 4.76969 0.5 0 0 0 -1.86004 -2.8127 1.58563 
383 4.13178 0.48475 4.99292 0.5 0 0 0 -2.19918 0.86437 2.56461 
358 5.0929 1.5728 4.75785 0.5 0 0 0 1.28524 -0.321785 1.65884 
359 3.01963 1.92092 4.29427 0.5 0 0 0 -1.64709 -1.2944 -1.07769 
360 4.55823 0.294842 4.19704 0.5 0 0 0 -1.20758 0.680667 -0.312347 
361 5.01071 2.27455 4.16296 0.5 0 0 0 0.815334 -1.71607 1.74486 
362 4.17111 0.254776 4.2464 0.5 0 0 0 -3.31799 0.015635 -0.205662 
363 3.91128 0.31909 4.53698 0.5 0 0 0 -4.12034 -0.229024 0.557617 
364 2.66472 1.94634 4.90104 0.5 0 0 0 -2.03349 -1.87522 0.775538 
365 3.16969 1.7958 4.59542 0.5 0 0 0 -1.63184 -1.52829 -0.429063 
366 4.61143 0.911575 4.1486 0.5 0 0 0 -0.161754 1.7103 0.501508 
367 3.81675 -0.060261 3.84489 0.5 0 0 0 -4.38237 -2.21114 0.1893 
368 4.06429 1.84855 4.28442 0.5 0 0 0 -1.15823 -0.718796 -0.01774 
369 3.49419 1.48241 4.35656 0.5 0 0 0 -1.88359 -0.953652 -0.468732 
370 2.82997 0.443277 4.66007 0.5 0 0 0 -3.54658 -1.08077 0.0900416 
371 4.72583 0.250741 4.64225 0.5 0 0 0 0.353977 0.645428 1.6131 
382 3.88418 0.944614 3.84084 0.5 0 0 0 -2.45404 0.362128 -0.0352523 
373 4.63288 0.300495 3.94052 0.5 0 0 0 -0.776908 0.734384 -1.3752 
374 4.53401 0.486207 4.0481 0.5 0 0 0 -1.13014 1.24197 -0.778688 
375 5.03449 0.0100916 4.98314 0.5 0 0 0 3.59464 -1.18693 3.20904 
376 4.10392 1.60788 4.6828 0.5 0 0 0 -0.582528 -0.440859 0.453419 
377 4.01537 2.10371 5.10768 0.5 0 0 0 -0.109973 -0.49493 2.1338 
378 2.91758 1.64262 5.01093 0.5 0 0 0 -1.92857 -2.16825 1.57486 
379 3.53377 0.926493 5.07409 0.5 0 0 0 -2.38328 -0.425515 1.83403 
380 3.06476 2.29047 4.29764 0.5 0 0 0 -1.41919 -1.25231 -1.0682 
385 2.72743 3.16667 0.678628 0.5 0 0 0 -0.259394 0.037579 0.477824 
386 4.46002 4.72631 0.049968 0.5 0 0 0 0.670195 0.329273 -0.709516 
387 3.86554 3.94207 0.138869 0.5 0 0 0 0.119317 -0.411023 -0.427977 
388 4.3202 4.0172 1.07918 0.5 0 0 0 -0.817675 -0.172826 -1.10384 
389 3.81849 3.08829 0.794957 0.5 0 0 0 -0.593859 0.0886479 0.755353 
390 3.64731 4.11213 0.128382 0.5 0 0 0 0.0900827 -0.597291 0.053428 
391 5.05324 4.32999 1.0758 0.5 0 0 0 2.14316 1.08712 -1.29522 
392 4.88879 2.67893 0.295457 0.5 0 0 0 1.32126 0.365124 -0.297438 
393 4.52615 4.58373 0.677716 0.5 0 0 0 -0.0148831 1.27492 -0.991489 
394 2.76375 2.92559 1.08837 0.5 0 0 0 0.0172067 -0.151016 1.30106 
395 4.91112 2.95983 0.998609 0.5 0 0 0 1.35498 -0.497209 1.1415 
396 4.08242 3.07659 0.0175043 0.5 0 0 0 -0.343916 0.450803 -1.52527 
397 5.07978 4.04744 0.82504 0.5 0 0 0 2.3824 -0.0625207 -1.63052 
398 2.92734 4.94158 0.00821141 0.5 0 0 0 -0.477135 2.03754 -1.50094 
399 3.38819 4.92149 0.58832 0.5 0 0 0 0.578019 1.09103 -0.330956 
400 3.33768 4.51273 0.419338 0.5 0 0 0 0.195509 -0.603875 0.27592 
401 3.37373 2.65717 0.0719821 0.5 0 0 0 -0.978777 -0.396993 -1.65026 
402 2.72655 3.11912 0.68801 0.5 0 0 0 -0.262863 0.00998578 0.537479 
403 4.76397 3.22273 0.182955 0.5 0 0 0 0.431316 0.481353 -1.34403 
404 4.20748 2.63553 0.142006 0.5 0 0 0 -0.164175 0.531394 -0.893927 
405 4.05946 4.87616 -0.0238901 0.5 0 0 0 0.282794 0.873219 -0.164239 
406 4.20552 3.58906 1.03062 0.5 0 0 0 -0.887361 -0.743094 -0.290767 
407 2.81353 4.2113 -0.011337 0.5 0 0 0 -0.346718 -0.769303 -1.25044 
408 4.9935 3.11745 0.424441 0.5 0 0 0 1.24829 -0.0506748 -0.253428 
409 3.77205 3.30856 0.562627 0.5 0 0 0 -0.535895 0.0680899 0.036179 
410 3.87007 2.62726 0.885779 0.5 0 0 0 -0.532535 0.714076 1.2316 
411 4.18382 2.65307 1.06402 0.5 0 0 0 -0.135358 0.559374 1.4606 
412 3.09159 3.18162 0.446709 0.5 0 0 0 -0.480423 0.0500343 0.061491 
413 2.9187 3.71694 0.925146 0.5 0 0 0 -0.225707 -0.363119 0.330754 
414 2.70955 4.48431 0.643287 0.5 0 0 0 -0.10718 -0.930271 0.142364 
415 2.63879 4.93667 1.11349 0.5 0 0 0 -1.07916 0.88635 -0.319885 
417 3.08579 3.60768 0.193223 0.5 0 0 0 -0.439148 -0.300433 -0.622329 
418 4.81607 4.17572 1.6567 0.5 0 0 0 0.591386 -0.344398 0.0452608 
419 2.97104 3.77731 2.20128 0.5 0 0 0 0.527126 -1.6774 0.597768 
420 4.87673 3.94973 2.41376 0.5 0 0 0 0.274835 -1.57633 0.677192 
421 4.8751 4.5704 1.80973 0.5 0 0 0 1.01152 1.67479 -0.455579 
422 4.26911 4.54909 1.75393 0.5 0 0 0 0.210643 0.978854 0.159606 
423 3.64884 4.60708 1.39653 0.5 0 0 0 0.361051 0.133722 -1.23181 
424 4.35686 3.80957 1.43823 0.5 0 0 0 -0.729157 -1.16533 0.524541 
425 2.78397 3.15329 1.33965 0.5 0 0 0 0.223662 -0.293632 1.28219 
426 3.24265 4.5535 2.11577 0.5 0 0 0 0.105246 -0.908405 1.66013 
427 3.29534 4.61705 1.65763 0.5 0 0 0 -0.180084 -0.610709 -0.1445 
428 4.92768 4.3107 2.00987 0.5 0 0 0 0.632366 -0.19915 0.0995279 
429 3.19584 4.83428 1.72876 0.5 0 0 0 -0.356612 0.283539 0.170781 
430 2.95764 4.84836 1.32106 0.5 0 0 0 -0.875941 0.35423 -0.984254 
431 3.50765 2.67592 2.37492 0.5 0 0 0 -0.874484 -0.138912 0.589053 
432 3.95776 2.50817 1.48001 0.5 0 0 0 -0.674947 0.427647 1.94289 
433 2.74246 4.35531 2.39777 0.5 0 0 0 -0.216771 -1.01732 0.873545 
434 3.13473 4.50779 1.94043 0.5 0 0 0 -0.332027 -1.07922 0.870684 
435 3.61635 4.6595 1.62656 0.5 0 0 0 0.532149 0.0850931 -0.17653 
436 3.34107 3.27577 2.05507 0.5 0 0 0 -0.141781 -0.94034 0.96113 
437 3.80655 3.98331 1.78453 0.5 0 0 0 -0.714576 -1.51619 0.940779 
438 5.00234 3.5283 1.86043 0.5 0 0 0 1.73064 -1.93267 0.236716 
439 4.48504 4.48045 2.45638 0.5 0 0 0 -0.699918 0.100546 1.44684 
440 2.64624 3.87468 2.23009 0.5 0 0 0 0.374678 -1.16789 0.247907 
441 2.92967 4.74914 2.12022 0.5 0 0 0 -0.681667 -0.00187613 1.10785 
442 3.06368 4.58908 1.3818 0.5 0 0 0 -0.702502 -0.753022 -1.05744 
443 3.87393 4.11949 1.96441 0.5 0 0 0 -0.426152 -1.36553 1.4437 
444 2.67806 4.3564 1.89243 0.5 0 0 0 -0.768881 -0.933496 -0.157712 
445 4.42925 3.75366 1.23855 0.5 0 0 0 -0.571419 -1.03446 -0.0131106 
446 4.16136 3.88014 2.29143 0.5 0 0 0 -0.971794 -1.56501 1.40258 
447 3.98413 3.8338 1.70991 0.5 0 0 0 -1.00342 -1.50689 1.02251 
448 4.54614 2.8292 2.2281 0.5 0 0 0 -0.167334 0.272941 -0.2651 
449 3.08114 3.86142 1.29596 0.5 0 0 0 -0.376896 -0.892144 0.0160005 
450 3.483 3.36566 1.39672 0.5 0 0 0 -0.55594 -0.723543 1.0894 
416 4.43939 3.86705 1.2623 0.5 0 0 0 -0.553472 -0.823828 -0.162319 
203 2.54258 2.99443 1.48495 0.5 0 0 0 0.543058 -0.349883 1.11903 
322 2.89681 2.52125 1.8635 0.5 0 0 0 0.201419 -0.0968978 1.34301 
314 4.95154 2.49957 1.43987 0.5 0 0 0 2.18024 0.0170286 0.881048 
479 2.67201 3.66333 3.67497 0.5 0 0 0 -0.203284 -1.64075 -0.62724 
453 4.81673 2.73412 3.2535 0.5 0 0 0 0.831747 0.571432 -0.42316 
454 3.96861 3.31053 2.81272 0.5 0 0 0 -1.04515 -0.0947097 0.106196 
455 2.9786 4.28331 3.66018 0.5 0 0 0 -0.726475 -0.931971 -1.02441 
456 2.78681 4.65171 3.10914 0.5 0 0 0 -0.203222 -0.442484 0.326354 
457 3.04669 4.89391 2.94079 0.5 0 0 0 0.553128 0.687033 0.706041 
458 3.38148 3.15475 2.90913 0.5 0 0 0 -0.536571 -0.877605 0.20482 
459 4.79833 4.06688 2.63942 0.5 0 0 0 -0.128147 -1.05995 1.14745 
460 4.3388 2.93317 3.14829 0.5 0 0 0 -1.28462 1.05572 -0.479607 
461 4.46961 4.44766 2.57146 0.5 0 0 0 -0.803995 -0.0313267 1.57323 
462 4.70144 4.9992 2.54255 0.5 0 0 0 0.456907 4.60247 1.38133 
463 4.41338 2.63817 2.73773 0.5 0 0 0 -1.22612 -0.00243365 -0.778292 
464 3.08229 3.82562 3.12878 0.5 0 0 0 0.29897 -1.73458 -0.11032 
465 3.57021 3.93289 3.56067 0.5 0 0 0 0.454566 -1.22721 -1.19871 
466 4.19207 2.57746 3.01757 0.5 0 0 0 -2.12591 -0.251469 -0.640472 
467 3.47467 4.4369 3.46201 0.5 0 0 0 0.871035 -0.333504 -0.872463 
468 4.83205 2.71881 2.53954 0.5 0 0 0 1.39736 0.238139 -0.966705 
344 4.18939 2.52631 3.41191 0.5 0 0 0 -2.05244 -0.494565 0.00250404 
470 4.48469 2.5291 3.64937 0.5 0 0 0 -1.05984 -0.473948 0.538384 
471 3.84038 4.76543 3.03905 0.5 0 0 0 0.428596 1.21798 0.489367 
451 2.79986 3.79809 2.4996 0.5 0 0 0 0.673112 -1.50337 0.668443 
473 2.91846 5.0861 3.74857 0.5 0 0 0 -0.149542 2.67781 0.232602 
474 4.50733 2.85757 3.6255 0.5 0 0 0 -0.710871 1.04251 0.308568 
478 3.98901 2.61315 3.41298 0.5 0 0 0 -2.49928 -0.216046 -0.0580302 
476 4.67836 3.70549 3.01079 0.5 0 0 0 0.0893554 -0.00660782 0.817164 
477 2.80107 4.25511 2.5663 0.5 0 0 0 0.0882266 -1.26935 0.940712 
337 4.00854 2.47712 3.28526 0.5 0 0 0 -2.56708 -0.587907 -0.210828 
475 4.80453 4.05407 3.78608 0.5 0 0 0 0.939234 -0.0504943 -0.155902 
480 3.58954 3.80889 4.79313 0.5 0 0 0 1.28065 -1.322 0.955212 
481 4.13979 3.02607 4.95779 0.5 0 0 0 -0.268055 -1.47016 2.14226 
482 3.77862 3.59844 4.0078 0.5 0 0 0 0.420629 -0.998508 -1.09695 
483 4.40531 4.8875 4.10611 0.5 0 0 0 0.262953 0.500332 -1.75141 
484 3.17257 4.00242 3.9681 0.5 0 0 0 -0.446838 -1.44896 -1.51112 
485 3.66542 3.93623 4.40885 0.5 0 0 0 1.30959 -0.835955 -0.600762 
486 4.72061 4.70312 4.34975 0.5 0 0 0 -0.0981851 -0.899016 -1.36611 
487 3.2799 3.12528 4.27902 0.5 0 0 0 -0.664681 -1.98178 -0.831738 
488 4.67013 3.1766 4.66623 0.5 0 0 0 0.0222711 0.0685717 0.971186 
489 3.35018 4.83713 5.08973 0.5 0 0 0 -0.173454 3.09028 3.98336 
490 3.58041 3.44621 4.24508 0.5 0 0 0 -0.0363539 -1.73955 -0.884317 
491 3.71319 4.11091 4.82949 0.5 0 0 0 2.05139 -0.117096 1.33691 
492 2.664 3.19063 4.79125 0.5 0 0 0 -1.28703 -2.59097 0.923001 
493 4.51494 3.66926 4.72374 0.5 0 0 0 1.18577 0.52322 0.678148 
494 3.42613 3.64514 5.12504 0.5 0 0 0 0.777678 -2.0905 3.3119 
495 2.6833 4.06724 4.41671 0.5 0 0 0 -1.05374 -0.908377 -1.15862 
496 2.62237 3.80936 4.95756 0.5 0 0 0 -1.37833 -1.77671 1.45777 
497 3.38169 4.37698 3.9444 0.5 0 0 0 0.446704 -0.250726 -1.31603 
357 3.44984 2.49539 4.63855 0.5 0 0 0 -0.88072 -1.29875 0.135074 
499 3.95607 2.50645 4.05608 0.5 0 0 0 -1.53379 -0.749092 0.251144 
500 4.65467 4.93223 4.97399 0.5 0 0 0 -0.725022 -0.119523 1.69268 
501 4.62616 4.8156 4.90395 0.5 0 0 0 -0.283507 -0.293765 1.29262 
502 2.68186 3.97566 4.77886 0.5 0 0 0 -0.998878 -1.16846 0.287558 
503 2.93974 4.25916 4.55901 0.5 0 0 0 -0.375607 -0.128607 -0.685901 
504 3.55114 3.30535 4.29101 0.5 0 0 0 -0.234644 -1.87477 -0.69861 
505 3.69577 4.8226 4.28552 0.5 0 0 0 1.42009 1.77443 -0.194307 
506 4.09436 4.02173 3.97424 0.5 0 0 0 1.82436 0.0294051 -0.947251 
507 4.9127 2.81898 3.94309 0.5 0 0 0 0.483187 0.990004 0.557256 
508 2.87514 3.9281 4.68635 0.5 0 0 0 -0.391723 -1.40768 -0.269396 
509 3.30514 4.75551 4.40391 0.5 0 0 0 0.178838 1.78583 -0.100192 
510 3.08449 4.49513 4.06087 0.5 0 0 0 -0.596008 0.20167 -1.22205 
511 2.64437 3.03165 4.50455 0.5 0 0 0 -1.02996 -2.20824 -0.126217 
512 2.66599 2.82479 4.36837 0.5 0 0 0 -0.847027 -1.88594 -0.442519 
513 4.86973 3.02688 4.29851 0.5 0 0 0 0.304298 1.0336 0.591064 
ITEM: TIMESTEP
60069
ITEM: NUMBER OF ATOMS
512
ITEM: BOX BOUNDS ss ss ss
-2.1589663964569298e-02 5.0933846546203574e+00
-1.7364439631764822e-01 5.0865807164741392e+00
-1.8176655292622759e-01 5.1255068607205727e+00
ITEM: ATOMS id x y z width_SPH x_COM y_COM z_COM vx vy vz 
2 0.301056 0.775932 0.246861 0.5 0 0 0 -1.37917 -0.579464 0.0688585 
3 0.259429 1.291 0.605722 0.5 0 0 0 -2.08429 -0.964621 0.287782 
4 0.787478 1.24764 1.03676 0.5 0 0 0 -0.386212 -0.340099 0.749172 
5 1.73539 1.8934 0.823939 0.5 0 0 0 0.958482 0.352079 0.221147 
6 0.274188 2.07866 0.848537 0.5 0 0 0 -2.11839 0.860407 1.16648 
7 0.546653 1.58453 0.342544 0.5 0 0 0 -0.688637 -0.372047 -0.682046 
8 1.33606 0.225895 0.773368 0.5 0 0 0 0.0500243 -0.685403 1.18405 
9 1.53469 0.986432 0.331376 0.5 0 0 0 0.774008 0.260667 -0.747351 
10 1.11158 1.53603 -0.0685663 0.5 0 0 0 0.983772 -0.38848 -2.84955 
11 1.39605 1.22774 0.79617 0.5 0 0 0 0.78225 0.130014 0.282658 
38 1.08307 2.32881 0.776653 0.5 0 0 0 0.516796 0.421751 0.862929 
41 2.23084 2.37931 1.0229 0.5 0 0 0 0.351349 -0.202257 0.556549 
14 1.2605 2.06321 0.329269 0.5 0 0 0 1.32257 0.117806 -0.380241 
15 1.54695 0.0394695 0.976132 0.5 0 0 0 1.23301 -1.50686 2.12368 
37 0.636899 0.390263 0.353985 0.5 0 0 0 -1.47721 -0.586511 0.37975 
17 1.08138 0.119432 0.519719 0.5 0 0 0 -1.29662 -0.687353 0.538462 
18 1.50826 -0.016492 0.0458927 0.5 0 0 0 0.0210229 -0.949653 -1.15215 
40 1.99514 0.669574 0.604467 0.5 0 0 0 1.39254 -0.198002 0.90482 
20 0.369813 1.75927 1.04789 0.5 0 0 0 -1.7313 0.350015 1.28561 
21 1.878 1.79469 0.745542 0.5 0 0 0 1.08066 0.226339 -0.00309251 
22 0.552784 2.4223 0.409941 0.5 0 0 0 -0.558235 0.212976 0.657489 
39 0.791152 1.5785 0.810202 0.5 0 0 0 0.14069 0.227588 0.408942 
24 0.0033977 0.598283 0.0816943 0.5 0 0 0 -2.72784 -0.779852 -0.133681 
25 1.95437 0.260597 0.581887 0.5 0 0 0 1.68397 -0.755046 1.3642 
26 1.35582 0.89095 0.584786 0.5 0 0 0 0.399548 0.0193089 -0.00984656 
27 0.86467 1.81411 0.900156 0.5 0 0 0 0.377391 0.670875 0.691801 
28 2.15664 0.959749 0.359458 0.5 0 0 0 0.883504 0.501534 -0.229979 
29 2.42448 1.35996 0.269404 0.5 0 0 0 0.107994 1.01772 -1.19043 
30 1.3992 0.242428 0.884068 0.5 0 0 0 0.488736 -0.821767 1.45698 
31 1.65838 1.51848 0.685685 0.5 0 0 0 1.20231 0.362125 0.0102228 
32 1.30154 2.09592 0.250953 0.5 0 0 0 1.47629 0.00634344 -0.708879 
33 1.46277 1.14326 0.721759 0.5 0 0 0 0.856755 0.070115 0.199792 
34 0.622253 2.08924 -0.0271325 0.5 0 0 0 -0.447966 -0.575352 -2.02293 
35 1.77117 0.0448045 -0.128829 0.5 0 0 0 1.17612 -0.864528 -2.25444 
36 0.968307 0.88323 0.0786104 0.5 0 0 0 0.0956158 0.0328126 -1.47961 
144 0.0211884 2.45507 0.114567 0.5 0 0 0 -3.16808 -0.78007 -1.09892 
43 1.54524 0.0677177 1.95232 0.5 0 0 0 1.54676 -2.05887 2.27929 
44 1.36472 2.35713 1.90941 0.5 0 0 0 0.773269 -0.347993 0.538715 
45 1.3338 1.11988 1.48553 0.5 0 0 0 0.476503 -0.198922 1.55748 
46 1.38772 2.23672 2.32626 0.5 0 0 0 0.773055 -0.849666 1.17322 
47 1.3959 1.26087 1.91897 0.5 0 0 0 -0.0998272 -0.503566 2.36782 
48 1.18006 0.812491 1.47866 0.5 0 0 0 0.169871 -0.426947 1.76227 
49 2.47935 2.34211 1.69818 0.5 0 0 0 0.558001 -0.173286 1.19152 
50 0.891245 0.608878 1.6702 0.5 0 0 0 -1.07936 -0.542155 2.51078 
51 1.96893 0.939582 1.80625 0.5 0 0 0 0.474651 -1.0968 1.64682 
52 0.671605 1.64139 1.33341 0.5 0 0 0 -0.669158 0.0976759 1.6156 
53 2.1247 1.44177 1.71791 0.5 0 0 0 0.456175 0.123586 0.952339 
54 0.390178 0.0429124 2.20343 0.5 0 0 0 -1.55322 -1.25149 0.558034 
55 1.73185 1.84185 1.70753 0.5 0 0 0 0.650492 0.164876 0.906629 
16 2.25737 2.0163 1.1787 0.5 0 0 0 0.45762 -0.0719308 0.552919 
57 2.38803 1.07706 1.62869 0.5 0 0 0 0.472596 -0.693361 0.755441 
58 1.78529 0.149184 2.23912 0.5 0 0 0 1.03267 -2.02265 2.71629 
59 1.24236 0.582599 2.37881 0.5 0 0 0 0.260631 -0.272306 3.92128 
60 0.669146 1.69642 1.57453 0.5 0 0 0 -0.979935 -0.221883 2.09604 
61 1.33412 0.300393 1.71433 0.5 0 0 0 0.887269 -1.212 2.26357 
78 1.05745 1.89882 1.61754 0.5 0 0 0 0.147238 0.000528053 1.16132 
63 2.01583 1.57785 2.03483 0.5 0 0 0 0.300755 -0.0541963 1.40505 
64 0.517034 0.357619 2.37909 0.5 0 0 0 -0.565268 0.530397 2.6211 
65 1.06184 1.77544 2.19874 0.5 0 0 0 -0.468618 -1.40527 2.12131 
66 2.34198 0.861938 2.01784 0.5 0 0 0 0.0264831 -1.35146 1.6745 
67 1.10297 0.688531 2.02629 0.5 0 0 0 -0.327873 -0.221835 3.45704 
68 2.05806 1.47707 1.72368 0.5 0 0 0 0.443852 0.165819 1.00096 
69 1.40306 0.742942 2.26944 0.5 0 0 0 -0.0127082 -0.601939 3.56696 
77 0.387385 1.54418 1.42856 0.5 0 0 0 -2.22891 -0.477402 2.42527 
71 0.737597 0.5321 1.43848 0.5 0 0 0 -1.94544 -0.911204 1.66721 
72 1.00639 2.24107 2.44179 0.5 0 0 0 0.00218148 -1.25803 1.4617 
73 2.05738 1.03318 1.69109 0.5 0 0 0 0.568032 -0.882777 1.23015 
74 2.23184 1.01521 2.36174 0.5 0 0 0 -0.384272 -1.45765 2.51904 
75 0.0297602 2.31119 2.22173 0.5 0 0 0 -2.35304 -1.6149 0.705442 
76 0.971333 1.10814 1.45356 0.5 0 0 0 -0.382578 -0.281268 1.81092 
12 1.34529 1.51116 1.24546 0.5 0 0 0 0.683718 0.377313 0.874132 
13 1.86621 1.32627 1.2581 0.5 0 0 0 0.996989 -0.0560629 0.662331 
312 2.49224 -0.0785577 1.66922 0.5 0 0 0 -0.146792 -2.94592 1.29965 
42 1.22906 0.726339 1.23556 0.5 0 0 0 0.35316 -0.502417 1.1591 
79 1.43519 2.24236 3.26307 0.5 0 0 0 0.0223924 -2.28929 1.21435 
80 0.722442 0.183726 2.71178 0.5 0 0 0 1.47956 0.523533 2.97285 
81 1.07278 0.414991 2.90582 0.5 0 0 0 1.62679 0.318599 4.42166 
82 1.30862 1.94323 2.75296 0.5 0 0 0 -0.307577 -2.04013 1.90999 
83 1.70365 2.04277 2.87994 0.5 0 0 0 0.281029 -1.52928 1.51927 
84 1.24768 0.840076 3.71742 0.5 0 0 0 1.3346 -3.77949 4.56259 
85 2.02471 1.84019 2.82634 0.5 0 0 0 0.380617 -1.35915 1.64398 
106 1.36418 1.31961 2.61109 0.5 0 0 0 -0.889992 -2.18671 3.25923 
87 0.898791 2.29173 3.34264 0.5 0 0 0 -0.293878 -2.93007 0.785258 
88 1.94611 1.38118 2.97943 0.5 0 0 0 -0.745013 -2.92604 2.85479 
89 1.47552 0.236488 3.78196 0.5 0 0 0 0.219559 1.79093 4.58107 
100 0.580244 2.1647 2.54008 0.5 0 0 0 -0.486521 -1.98824 1.75435 
91 1.72848 1.44582 2.74129 0.5 0 0 0 -0.619503 -2.43807 2.67724 
92 0.127764 2.09689 2.83731 0.5 0 0 0 -1.29453 -2.82366 1.55051 
93 0.715287 0.310075 2.79202 0.5 0 0 0 1.35813 0.930417 3.27143 
94 1.45135 1.94301 2.62581 0.5 0 0 0 0.09774 -1.59537 1.72398 
95 2.18938 2.14758 3.16347 0.5 0 0 0 0.868242 -1.23576 1.36448 
96 0.949788 1.87737 2.59394 0.5 0 0 0 -0.661379 -2.26218 2.27303 
97 1.79655 0.470842 3.60669 0.5 0 0 0 -2.34258 -1.2881 5.27499 
98 0.273037 1.57183 2.88924 0.5 0 0 0 -0.472594 -2.69559 1.99012 
99 2.15148 1.76572 3.33726 0.5 0 0 0 -0.0623783 -2.43025 1.94133 
105 0.748315 0.114094 3.13352 0.5 0 0 0 2.42392 0.805838 3.07571 
186 0.405522 2.44494 2.60323 0.5 0 0 0 -0.466325 -1.4782 1.20442 
102 1.84309 1.71235 3.01666 0.5 0 0 0 -0.358364 -2.45642 2.17467 
103 0.428596 1.03809 3.214 0.5 0 0 0 1.28691 -1.21716 2.32734 
231 1.26226 2.35113 3.50859 0.5 0 0 0 0.166533 -2.64003 0.961289 
62 2.18333 1.76448 2.56416 0.5 0 0 0 0.450518 -0.647154 1.47222 
131 1.85476 1.65837 3.77351 0.5 0 0 0 -0.993868 -4.30597 2.03114 
56 2.44014 0.522571 2.48152 0.5 0 0 0 -0.939948 -1.83352 2.60193 
107 1.79923 0.179202 4.53984 0.5 0 0 0 -2.45789 2.41499 -3.09027 
108 1.07475 1.50089 4.4532 0.5 0 0 0 2.22978 -3.9292 -0.410827 
109 1.80419 0.539854 4.27431 0.5 0 0 0 -4.08315 -0.270198 -1.06214 
110 1.90995 0.686705 4.17966 0.5 0 0 0 -4.68638 -2.33684 0.535295 
139 1.01002 0.53425 4.8421 0.5 0 0 0 4.18337 -0.557606 -2.80632 
112 1.75816 0.697998 4.6654 0.5 0 0 0 -1.94896 -1.78473 -4.66956 
113 1.92755 1.25302 4.43647 0.5 0 0 0 -2.16228 -4.87585 -0.595465 
114 0.87302 0.925227 4.48011 0.5 0 0 0 4.97002 -2.01791 -2.19314 
115 1.84019 0.570504 4.46819 0.5 0 0 0 -3.72952 -0.563713 -3.38034 
116 0.780078 0.159625 4.30329 0.5 0 0 0 4.86684 0.454666 -1.1469 
117 0.976238 0.936263 4.21247 0.5 0 0 0 4.88917 -3.28005 -0.842592 
138 0.0273679 1.19266 4.38545 0.5 0 0 0 0.0333236 -1.92586 0.369895 
119 0.767844 1.80936 4.39848 0.5 0 0 0 1.5561 -2.82257 0.538746 
120 1.48918 0.684106 4.13283 0.5 0 0 0 0.291254 -2.8152 1.22385 
121 1.88095 0.771554 3.94803 0.5 0 0 0 -3.88976 -3.60999 3.38575 
122 0.203659 -0.136033 4.07609 0.5 0 0 0 1.17966 -1.13939 0.140589 
123 1.22009 0.0988099 4.57302 0.5 0 0 0 3.27544 1.89719 -2.95637 
124 0.694244 0.48942 4.10318 0.5 0 0 0 4.98898 -0.112423 -0.715168 
125 1.57983 0.388116 4.1862 0.5 0 0 0 -1.13366 2.13329 0.184454 
126 1.32392 0.54761 4.31047 0.5 0 0 0 3.62855 -0.260745 -2.29452 
127 1.22247 2.04542 4.70512 0.5 0 0 0 0.529081 -2.49873 0.738639 
128 1.13276 0.893305 4.24917 0.5 0 0 0 4.63104 -3.84384 -1.04813 
129 0.157213 1.59082 4.15841 0.5 0 0 0 1.00242 -2.69925 -0.130457 
130 0.546452 0.828476 4.34958 0.5 0 0 0 3.60282 -1.03144 -1.40425 
137 0.139754 2.14502 3.86316 0.5 0 0 0 -0.17424 -3.34819 -0.349393 
132 2.24816 1.87938 3.83284 0.5 0 0 0 -0.369875 -2.65504 1.0822 
133 1.36569 0.564184 4.27384 0.5 0 0 0 2.91064 -0.547912 -1.67069 
134 1.70918 2.16354 4.92569 0.5 0 0 0 -0.345919 -2.30071 0.356017 
135 2.26417 0.167799 4.66813 0.5 0 0 0 -2.70235 -0.457227 -0.977916 
136 1.59585 1.6178 4.25902 0.5 0 0 0 -0.174879 -5.05041 0.598201 
86 1.99543 1.44375 3.89323 0.5 0 0 0 -1.58175 -4.7634 2.01594 
252 1.97124 2.33459 4.62375 0.5 0 0 0 -0.380393 -2.50459 -0.187754 
372 2.44555 0.703622 4.33782 0.5 0 0 0 -4.58152 -1.3111 -0.490257 
111 1.47988 2.39442 3.94322 0.5 0 0 0 0.573419 -2.60427 1.12597 
90 1.33534 1.25019 3.83518 0.5 0 0 0 0.0442486 -5.92778 2.69801 
104 1.86756 1.0436 3.82197 0.5 0 0 0 -2.65228 -5.30333 3.6284 
118 2.50959 1.6731 4.55116 0.5 0 0 0 -2.00902 -2.35962 -0.414612 
101 1.63831 0.949584 3.80759 0.5 0 0 0 -1.76182 -5.38784 4.47992 
140 2.46899 2.49534 0.521338 0.5 0 0 0 -0.128904 -0.497109 0.0925419 
141 0.969149 3.25075 0.881215 0.5 0 0 0 -0.687576 -0.05424 0.763196 
142 1.05819 3.61895 0.280843 0.5 0 0 0 0.0762414 0.567431 -0.305166 
143 0.613287 3.01274 0.597917 0.5 0 0 0 -0.779407 -0.0736924 1.18853 
167 1.3425 2.79902 0.683511 0.5 0 0 0 0.862586 -0.285232 0.459325 
168 1.60813 2.59703 0.915717 0.5 0 0 0 0.694602 -0.0649767 0.373866 
146 1.06775 3.21913 0.367264 0.5 0 0 0 0.564987 -0.407095 0.137516 
147 0.573217 4.49282 0.517005 0.5 0 0 0 1.15787 -0.171529 0.303706 
148 1.97431 3.78988 0.433878 0.5 0 0 0 0.683034 -0.368951 -0.379248 
149 0.683851 3.59682 0.0907879 0.5 0 0 0 -0.320002 1.05822 -0.716996 
150 1.89594 4.42723 0.806373 0.5 0 0 0 -0.26244 0.0303696 0.357116 
151 0.0449883 3.44437 0.106179 0.5 0 0 0 -1.64528 0.617842 -0.0464508 
152 1.35725 3.63101 1.14385 0.5 0 0 0 0.113069 -0.00935775 0.199508 
153 2.20121 4.40131 0.258867 0.5 0 0 0 -0.252404 -0.133621 -0.97803 
154 2.3391 4.58275 0.684234 0.5 0 0 0 -0.385006 -0.355659 0.255406 
155 1.29543 3.739 0.711873 0.5 0 0 0 -0.0562988 0.396013 0.29577 
156 0.448862 4.37762 1.0583 0.5 0 0 0 -0.637598 -0.993235 1.12879 
157 2.28879 2.65211 1.12402 0.5 0 0 0 0.333587 -0.230735 0.723487 
158 1.97602 4.15403 0.975272 0.5 0 0 0 0.40454 -0.540369 0.510215 
159 1.30202 3.80288 0.707775 0.5 0 0 0 -0.132017 0.516272 0.258983 
160 2.25978 2.64393 -0.0732987 0.5 0 0 0 -0.478482 -0.501413 -2.67297 
23 0.962134 2.54199 0.248238 0.5 0 0 0 0.775252 -0.195279 -0.0476513 
162 1.69243 3.28376 0.688212 0.5 0 0 0 1.10813 -0.412007 0.186947 
163 0.0413293 4.44313 0.0101761 0.5 0 0 0 0.227733 -0.442948 -0.609382 
164 2.14712 2.84689 0.19151 0.5 0 0 0 -0.0992019 -0.12154 -1.10241 
165 0.0909466 3.27534 0.313759 0.5 0 0 0 -1.79336 0.168323 0.889055 
166 2.19765 3.29178 0.984015 0.5 0 0 0 0.426625 -0.072861 0.437577 
169 0.463447 3.13038 2.39827 0.5 0 0 0 -0.761628 0.716173 0.0717067 
170 1.91535 3.15614 2.11444 0.5 0 0 0 0.849992 -0.609231 0.276118 
171 0.0731247 4.12223 2.28627 0.5 0 0 0 -2.32461 -0.638975 -1.31685 
172 1.10385 2.49108 1.83479 0.5 0 0 0 0.113711 -0.0898041 0.287146 
173 1.82174 3.36308 1.88121 0.5 0 0 0 0.624464 -0.353027 -0.192791 
174 1.26915 2.64237 1.45142 0.5 0 0 0 0.152447 0.0685992 0.0522469 
175 1.5165 4.31087 1.98113 0.5 0 0 0 0.608819 -0.492246 -0.249129 
176 1.55215 2.54248 1.97066 0.5 0 0 0 1.07773 -0.388551 0.455842 
177 -0.000870378 2.86161 2.38797 0.5 0 0 0 -2.34368 0.446032 0.18478 
178 1.44946 3.12326 1.43829 0.5 0 0 0 0.262663 -0.115135 -0.044708 
179 2.14586 3.06959 2.45799 0.5 0 0 0 1.21846 -1.04109 0.798676 
180 1.15672 3.75587 1.50516 0.5 0 0 0 -0.819944 -0.0253776 -0.175313 
181 1.90675 4.8254 1.69836 0.5 0 0 0 -0.110061 0.569141 -0.338475 
182 1.13561 4.0265 1.86656 0.5 0 0 0 -0.897734 -0.269055 -0.176365 
183 1.54777 4.578 2.2453 0.5 0 0 0 0.407828 -0.184494 0.381981 
184 0.375308 2.61523 1.7266 0.5 0 0 0 -1.25194 0.288672 -0.281864 
185 1.31385 4.74035 2.2815 0.5 0 0 0 -0.397746 0.234664 0.57373 
204 1.32469 2.72488 2.02243 0.5 0 0 0 0.41134 -0.151405 0.3379 
187 1.38995 2.59811 2.25108 0.5 0 0 0 0.729152 -0.475105 0.785676 
188 1.50496 3.99844 2.40065 0.5 0 0 0 0.211203 -0.474668 0.650956 
189 1.72033 3.51607 2.26762 0.5 0 0 0 0.268692 -0.40269 0.325114 
202 0.972522 3.69504 1.79271 0.5 0 0 0 -1.44564 -0.0254574 -0.10056 
191 2.16537 2.98689 2.46313 0.5 0 0 0 1.31924 -1.07885 0.829752 
192 1.88901 3.66891 2.05625 0.5 0 0 0 0.648541 -0.477157 -0.120452 
193 0.891345 3.87886 2.43149 0.5 0 0 0 -1.18047 -0.0753128 0.529379 
194 0.584984 3.06103 2.15149 0.5 0 0 0 -0.561641 0.719632 -0.13139 
195 1.99793 2.84629 1.96781 0.5 0 0 0 1.27018 -0.681289 0.435276 
196 1.34713 4.40977 1.55938 0.5 0 0 0 -0.112885 0.0288056 -0.882884 
190 1.78495 4.93382 1.1726 0.5 0 0 0 -1.13941 1.8513 -0.304657 
198 0.86471 4.5435 2.00967 0.5 0 0 0 -2.11472 0.135877 -0.143086 
199 1.34387 3.07488 2.36975 0.5 0 0 0 -0.0318039 -0.265266 0.531322 
200 2.34843 5.02929 2.31953 0.5 0 0 0 -0.796883 1.59988 0.324389 
201 0.447626 2.72568 2.13465 0.5 0 0 0 -0.558411 0.0893547 0.113424 
70 0.869077 2.53772 2.15016 0.5 0 0 0 -0.00745103 -0.379535 0.682908 
145 2.08491 2.5666 1.35062 0.5 0 0 0 0.61349 -0.220206 0.593894 
161 0.304206 3.15922 1.21597 0.5 0 0 0 -2.2041 0.586618 0.685952 
205 1.20045 3.53231 3.03398 0.5 0 0 0 0.0678487 -0.334021 0.264396 
206 1.96354 4.32896 3.0356 0.5 0 0 0 -0.110267 -0.374472 0.795683 
207 0.125248 4.09144 3.71369 0.5 0 0 0 -0.808876 -0.464168 0.10916 
208 0.843592 2.50923 3.69925 0.5 0 0 0 0.234164 -2.55694 0.728884 
209 1.51897 3.92171 3.16326 0.5 0 0 0 0.196407 -0.117585 0.840596 
210 1.84193 3.57401 3.51447 0.5 0 0 0 0.186009 -0.797566 0.527492 
211 1.88266 3.75203 2.61168 0.5 0 0 0 0.452294 -0.560291 0.72243 
212 1.26728 4.95011 2.96344 0.5 0 0 0 -0.263375 0.344934 0.88837 
213 2.05997 3.14167 2.58517 0.5 0 0 0 0.926589 -0.952222 0.886776 
214 1.24451 3.27321 3.65915 0.5 0 0 0 0.794262 -0.803006 0.93249 
215 0.72358 3.1322 3.31571 0.5 0 0 0 -0.405263 -0.703722 -0.116957 
216 0.445426 3.1858 3.33118 0.5 0 0 0 -1.08577 -0.462273 -0.477949 
217 2.47751 2.71685 2.75587 0.5 0 0 0 1.39732 -1.20608 0.862045 
218 2.3856 5.03043 3.71336 0.5 0 0 0 -0.96464 1.539 0.410946 
219 1.09024 2.6149 3.18493 0.5 0 0 0 0.202242 -1.69431 0.472062 
220 2.3237 4.8339 2.95769 0.5 0 0 0 -0.61802 0.361555 0.828768 
221 1.05556 3.48504 3.60298 0.5 0 0 0 0.438435 -0.233135 0.805246 
222 2.43947 3.20193 3.0653 0.5 0 0 0 0.89939 -1.4782 0.585506 
223 1.90845 2.5835 3.33421 0.5 0 0 0 1.0039 -1.39157 0.908054 
224 0.518841 4.9229 3.11834 0.5 0 0 0 -0.6802 1.04936 -0.188446 
225 0.511126 3.84252 3.64451 0.5 0 0 0 -0.152878 0.0961535 0.347044 
226 0.947698 4.03003 2.86602 0.5 0 0 0 -0.664862 0.111352 0.686476 
227 1.10353 3.04116 3.11188 0.5 0 0 0 0.291876 -0.946496 0.135913 
228 0.26091 4.35829 2.60106 0.5 0 0 0 -1.1317 -0.263858 -0.406421 
229 0.262292 4.30495 3.51799 0.5 0 0 0 -0.219801 -0.166075 -0.264812 
230 1.60814 2.91279 3.13403 0.5 0 0 0 0.859912 -1.11713 0.637789 
234 1.25336 3.65657 3.14788 0.5 0 0 0 0.170561 -0.177664 0.462576 
232 2.45704 3.29093 3.07977 0.5 0 0 0 0.789098 -1.45298 0.514949 
233 1.25657 4.7676 3.4016 0.5 0 0 0 0.262804 -0.270142 0.631718 
472 2.51544 4.84304 2.81896 0.5 0 0 0 -0.522598 0.376611 0.860408 
251 1.85862 2.53245 3.78308 0.5 0 0 0 0.796285 -1.97061 0.861864 
452 2.41993 3.93784 3.55703 0.5 0 0 0 -0.618545 -0.767723 -0.227196 
254 1.67058 4.93834 3.76207 0.5 0 0 0 -0.108478 -0.00654106 -0.126823 
197 1.56003 4.63702 2.47551 0.5 0 0 0 0.194489 -0.0431867 0.939175 
235 1.25867 4.88886 4.11646 0.5 0 0 0 -0.0651386 -0.422474 -0.500002 
236 2.01963 3.92687 3.99277 0.5 0 0 0 -1.36743 -0.449671 -0.15323 
237 0.594824 2.54955 3.92612 0.5 0 0 0 0.437815 -2.27656 0.911895 
238 0.923659 4.77169 4.37611 0.5 0 0 0 0.15003 -0.396479 -0.108934 
239 0.871882 3.75292 3.98213 0.5 0 0 0 0.547464 0.0329039 1.33278 
240 2.06138 4.5736 4.57908 0.5 0 0 0 -2.31833 1.3111 0.100624 
241 2.18403 4.38619 4.75143 0.5 0 0 0 -2.5758 0.69697 0.680962 
242 0.0972838 3.19401 4.41599 0.5 0 0 0 0.712116 -0.0226638 0.530365 
243 -0.0210851 2.72651 4.80956 0.5 0 0 0 0.478526 -2.54413 1.85156 
244 0.523828 4.91629 4.8473 0.5 0 0 0 -0.892533 0.136735 1.01529 
245 1.52927 3.07 4.9543 0.5 0 0 0 -1.28626 -1.12748 1.45293 
246 1.24538 3.71928 4.4173 0.5 0 0 0 -0.181747 -0.942104 1.03632 
247 2.42627 3.35711 3.82754 0.5 0 0 0 -0.0792561 -1.80322 -0.263727 
248 1.72736 2.67639 4.86735 0.5 0 0 0 -0.717024 -1.99975 0.514678 
249 1.67259 3.00146 4.12672 0.5 0 0 0 0.268942 -1.74656 0.717827 
250 1.29947 2.62046 3.9529 0.5 0 0 0 0.753696 -2.08427 1.28436 
259 0.587314 2.82169 3.88904 0.5 0 0 0 0.414871 -1.32138 0.940607 
258 0.0372906 2.95954 4.02069 0.5 0 0 0 -0.312599 -0.790846 -0.239198 
253 0.163213 2.67726 3.94064 0.5 0 0 0 -0.222665 -1.89759 0.00969994 
498 2.4724 3.56393 4.29257 0.5 0 0 0 -1.20936 -2.02096 -0.680341 
255 0.213925 3.66474 4.84727 0.5 0 0 0 0.696226 0.259941 1.04149 
256 2.32355 4.09436 4.60624 0.5 0 0 0 -2.25469 -0.685982 -0.152655 
257 1.27312 4.24124 4.86156 0.5 0 0 0 -0.926705 -1.02027 1.44441 
260 4.00548 -0.156999 0.919831 0.5 0 0 0 -0.224162 -2.77532 0.556823 
261 3.19555 2.28939 1.1298 0.5 0 0 0 -0.766243 0.092077 1.34739 
262 4.78768 2.0216 0.404288 0.5 0 0 0 1.76558 0.433185 -1.08037 
263 4.86349 0.626836 0.989596 0.5 0 0 0 1.13935 -1.77785 0.856545 
264 3.25883 0.91598 0.201984 0.5 0 0 0 -0.773161 0.954966 -0.970749 
265 4.90556 1.41686 1.11292 0.5 0 0 0 1.84978 0.293384 1.42057 
266 4.83437 0.647196 -0.0129504 0.5 0 0 0 0.867739 -0.263119 -3.22866 
267 3.45727 1.79731 0.88621 0.5 0 0 0 -1.61334 -0.356148 0.380676 
268 2.89322 0.522863 0.844916 0.5 0 0 0 -0.153667 -0.397532 1.69456 
269 3.96981 1.81192 0.224038 0.5 0 0 0 -1.04668 -0.483311 -2.25325 
270 3.93632 1.90246 1.01937 0.5 0 0 0 -0.967652 0.532148 1.32237 
293 3.02089 2.402 0.572197 0.5 0 0 0 -0.796707 -0.433148 0.208546 
272 4.42309 1.79277 0.741692 0.5 0 0 0 0.0471722 0.718706 0.202819 
273 4.85214 1.36363 0.800133 0.5 0 0 0 1.45527 -0.322744 -0.105122 
274 2.68345 0.714079 0.824478 0.5 0 0 0 0.231221 -0.0903945 1.4987 
275 2.53787 2.34774 0.0564358 0.5 0 0 0 -0.496751 -1.07387 -2.05805 
276 5.08107 0.0669082 0.787808 0.5 0 0 0 1.14249 -1.66548 0.654464 
294 3.1399 0.0914801 0.349253 0.5 0 0 0 0.150591 -2.31538 -0.195683 
278 3.60826 1.88445 0.935532 0.5 0 0 0 -1.47452 -0.0204946 0.739737 
279 3.71217 0.457458 0.171539 0.5 0 0 0 0.35421 -1.32188 -1.49385 
295 2.73142 1.13215 0.89867 0.5 0 0 0 -0.159638 0.170668 0.868977 
281 3.0564 0.151191 0.970881 0.5 0 0 0 -0.451403 -1.93753 1.77534 
282 3.87439 1.69556 1.09784 0.5 0 0 0 -1.31072 0.0497626 1.41498 
283 3.80612 2.33927 -0.181302 0.5 0 0 0 -1.10118 -0.928766 -3.77624 
284 4.16863 2.09977 0.500956 0.5 0 0 0 -0.29804 0.731194 -0.333564 
285 3.41145 2.33265 0.439944 0.5 0 0 0 -1.11916 -0.145077 -0.370684 
286 3.72183 0.963262 0.427494 0.5 0 0 0 -1.14 -0.231019 -0.451706 
287 4.34117 1.0384 0.421512 0.5 0 0 0 -0.486868 -1.23539 -1.49498 
288 4.07943 1.6191 1.03377 0.5 0 0 0 -1.10327 0.123619 1.2463 
289 4.36668 1.05292 0.596488 0.5 0 0 0 -0.637104 -1.32406 -0.787489 
290 3.33102 0.992295 0.623109 0.5 0 0 0 -1.22169 0.311923 0.681992 
291 2.90505 1.0038 0.0831285 0.5 0 0 0 -0.43234 1.52782 -1.78156 
297 3.1628 0.422636 1.81526 0.5 0 0 0 -1.29624 -1.55317 0.777143 
298 3.83872 2.08748 2.17162 0.5 0 0 0 -1.14478 -0.142807 1.04437 
299 3.06608 0.732188 2.23275 0.5 0 0 0 -0.80699 -0.563654 1.53062 
323 3.16957 1.7184 1.55879 0.5 0 0 0 -0.673981 -0.158871 1.15612 
301 3.32709 1.70196 2.15389 0.5 0 0 0 -0.57219 0.0774051 1.27868 
302 3.70477 0.97047 1.808 0.5 0 0 0 -0.872591 0.195372 1.52375 
303 3.80395 0.847812 1.94421 0.5 0 0 0 -0.641822 0.039186 1.64928 
292 4.33293 1.2853 1.24701 0.5 0 0 0 -0.639656 -0.249339 1.77512 
305 4.06195 1.45734 1.37118 0.5 0 0 0 -1.02091 0.152798 2.08147 
306 4.61121 1.24738 1.92467 0.5 0 0 0 0.787613 -0.0452679 1.55526 
307 4.02805 0.00289375 2.16168 0.5 0 0 0 -1.9892 -2.04562 -0.125286 
308 4.72506 0.104428 2.27495 0.5 0 0 0 0.057349 -0.247038 0.0162087 
309 3.95474 0.747125 1.92069 0.5 0 0 0 -0.468724 -0.275999 1.65558 
310 4.61075 2.32872 1.97826 0.5 0 0 0 0.48445 -0.142861 0.410057 
311 3.53785 2.25908 2.09172 0.5 0 0 0 -0.893427 0.158227 1.12885 
321 4.85074 -0.0225723 2.20582 0.5 0 0 0 0.482364 -0.650812 -0.309903 
313 2.56726 1.50595 2.20378 0.5 0 0 0 0.109458 0.00595008 1.31398 
320 2.69246 1.31431 1.87261 0.5 0 0 0 0.0635533 -0.0689506 0.908786 
315 3.26738 0.871673 1.9548 0.5 0 0 0 -0.80498 -0.12183 1.16741 
316 4.50045 1.00423 2.30412 0.5 0 0 0 0.307723 0.0216577 0.92138 
317 4.42454 1.96834 2.33396 0.5 0 0 0 -0.426084 -0.757513 0.429071 
318 3.62756 0.647096 1.4244 0.5 0 0 0 -1.29702 -0.894213 0.71757 
319 3.17122 2.16818 1.97116 0.5 0 0 0 -0.361801 0.250602 1.244 
271 4.89446 1.59839 1.20695 0.5 0 0 0 1.99249 1.05742 1.86756 
19 2.58919 1.86325 1.17351 0.5 0 0 0 0.0130846 -0.264311 0.53988 
280 3.82516 0.808418 1.18765 0.5 0 0 0 -1.36627 -0.816531 0.795712 
300 4.20682 2.38482 1.22813 0.5 0 0 0 -0.0437409 0.850061 1.85766 
296 4.29953 0.620862 1.1735 0.5 0 0 0 -0.391152 -1.69159 0.799754 
277 3.47973 2.13585 1.1768 0.5 0 0 0 -1.08772 0.311775 1.56489 
324 4.20049 1.07209 3.60418 0.5 0 0 0 -1.49447 0.447574 -0.557429 
325 3.13524 0.34665 3.34055 0.5 0 0 0 -3.12527 -1.26456 1.33758 
326 3.66739 1.47199 3.67458 0.5 0 0 0 -1.94326 -0.405516 -0.0547038 
327 4.15863 1.37271 2.56514 0.5 0 0 0 -0.879731 -0.248756 0.532215 
328 3.56053 0.746072 2.82267 0.5 0 0 0 -1.23032 0.19734 0.970856 
329 4.6547 1.8582 2.7612 0.5 0 0 0 0.28741 -1.60671 -0.422565 
330 3.3792 1.61927 3.26274 0.5 0 0 0 -1.49015 -0.393444 0.612956 
331 4.42014 1.68674 3.2659 0.5 0 0 0 -1.11423 -1.26878 -0.407857 
332 4.72993 0.33538 2.57276 0.5 0 0 0 0.295605 0.86882 -0.287286 
333 2.66868 0.745652 3.45057 0.5 0 0 0 -3.12678 -1.52279 2.19026 
334 4.39709 0.49225 3.23252 0.5 0 0 0 -0.533125 0.85618 -1.84099 
335 5.05888 2.33763 2.86349 0.5 0 0 0 3.04188 -1.00712 -0.903785 
336 4.05518 0.349997 3.25553 0.5 0 0 0 -1.75577 0.27635 -0.965839 
350 2.94785 1.6205 2.671 0.5 0 0 0 -0.331943 -0.231888 1.44433 
338 2.75764 1.04701 3.70241 0.5 0 0 0 -3.05271 -1.44822 1.35404 
339 2.70521 0.89514 2.70663 0.5 0 0 0 -1.0301 -1.15817 2.43853 
340 2.93397 1.02898 3.59674 0.5 0 0 0 -2.76058 -1.00177 1.23851 
341 4.47472 1.99479 3.43292 0.5 0 0 0 -1.11102 -1.6262 0.0347134 
342 4.92134 1.88468 3.61398 0.5 0 0 0 1.08781 -1.75793 0.25503 
343 3.24144 1.5906 2.62381 0.5 0 0 0 -0.676342 -0.187437 1.25353 
349 4.19679 -0.0384152 3.2198 0.5 0 0 0 -1.68688 -1.34801 -1.61049 
345 3.47822 0.0426506 3.05536 0.5 0 0 0 -2.73632 -2.21431 0.525304 
346 3.69693 0.812519 3.53319 0.5 0 0 0 -2.44879 0.19601 0.133103 
347 2.80181 1.66491 2.63694 0.5 0 0 0 -0.102925 -0.19072 1.44762 
348 2.63913 1.65881 2.67644 0.5 0 0 0 0.0402583 -0.42436 1.55992 
352 4.9476 1.25163 3.70678 0.5 0 0 0 1.53042 -0.0804065 -0.468123 
469 4.12803 2.45322 2.60915 0.5 0 0 0 -1.94926 -0.327576 -0.220442 
304 2.73536 0.148566 2.52864 0.5 0 0 0 -1.73131 -2.67693 1.93461 
384 4.55124 0.313806 3.78157 0.5 0 0 0 -1.08605 0.714394 -1.93752 
351 4.81681 0.433184 4.13216 0.5 0 0 0 0.535585 1.2844 -0.255403 
381 3.28514 1.873 4.23842 0.5 0 0 0 -1.69191 -1.05929 -1.04756 
353 3.42785 1.25796 4.13505 0.5 0 0 0 -2.41244 -0.741763 -0.231603 
354 3.93464 1.93868 4.94642 0.5 0 0 0 -0.469408 -0.731156 1.15877 
355 4.89446 2.33383 4.00751 0.5 0 0 0 0.313344 -1.36282 1.331 
356 4.45179 -0.173171 4.7697 0.5 0 0 0 -1.86006 -2.8127 1.58561 
383 4.13178 0.48475 4.99292 0.5 0 0 0 -2.19917 0.864368 2.56459 
358 5.0929 1.5728 4.75785 0.5 0 0 0 1.28522 -0.321786 1.65883 
359 3.01963 1.92092 4.29427 0.5 0 0 0 -1.64708 -1.29439 -1.07769 
360 4.55823 0.294843 4.19704 0.5 0 0 0 -1.20758 0.680664 -0.312337 
361 5.01071 2.27455 4.16296 0.5 0 0 0 0.815325 -1.71607 1.74484 
362 4.17111 0.254776 4.2464 0.5 0 0 0 -3.31799 0.0156286 -0.205656 
363 3.91128 0.31909 4.53698 0.5 0 0 0 -4.12033 -0.229031 0.557611 
364 2.66472 1.94633 4.90104 0.5 0 0 0 -2.03348 -1.87522 0.775537 
365 3.16969 1.7958 4.59542 0.5 0 0 0 -1.63183 -1.52829 -0.42906 
366 4.61143 0.911575 4.1486 0.5 0 0 0 -0.161752 1.71029 0.501515 
367 3.81675 -0.0602621 3.84489 0.5 0 0 0 -4.38236 -2.21114 0.189308 
368 4.06429 1.84855 4.28442 0.5 0 0 0 -1.15823 -0.718793 -0.0177402 
369 3.49419 1.48241 4.35656 0.5 0 0 0 -1.88359 -0.953652 -0.468726 
370 2.82997 0.443276 4.66007 0.5 0 0 0 -3.54657 -1.08077 0.0900463 
371 4.72583 0.250741 4.64225 0.5 0 0 0 0.353974 0.645434 1.6131 
382 3.88417 0.944615 3.84084 0.5 0 0 0 -2.45403 0.362121 -0.0352505 
373 4.63288 0.300495 3.94052 0.5 0 0 0 -0.77691 0.734382 -1.37519 
374 4.53401 0.486208 4.0481 0.5 0 0 0 -1.13014 1.24197 -0.778679 
375 5.0345 0.010091 4.98314 0.5 0 0 0 3.59463 -1.18691 3.20901 
376 4.10392 1.60788 4.6828 0.5 0 0 0 -0.582529 -0.440861 0.453417 
377 4.01537 2.10371 5.10768 0.5 0 0 0 -0.109981 -0.49493 2.13379 
378 2.91758 1.64262 5.01093 0.5 0 0 0 -1.92856 -2.16825 1.57486 
379 3.53377 0.926492 5.07409 0.5 0 0 0 -2.38327 -0.425515 1.83402 
380 3.06476 2.29047 4.29764 0.5 0 0 0 -1.41919 -1.25231 -1.06819 
385 2.72743 3.16667 0.678628 0.5 0 0 0 -0.259393 0.0375781 0.47782 
386 4.46002 4.72631 0.0499676 0.5 0 0 0 0.67019 0.329265 -0.70951 
387 3.86554 3.94207 0.138869 0.5 0 0 0 0.119318 -0.411021 -0.427975 
388 4.3202 4.0172 1.07918 0.5 0 0 0 -0.817669 -0.172822 -1.10384 
389 3.81848 3.08829 0.794958 0.5 0 0 0 -0.593855 0.0886453 0.755347 
390 3.64731 4.11213 0.128382 0.5 0 0 0 0.0900825 -0.597288 0.0534281 
391 5.05324 4.32999 1.0758 0.5 0 0 0 2.14316 1.08711 -1.29521 
392 4.88879 2.67893 0.295457 0.5 0 0 0 1.32125 0.36512 -0.297429 
393 4.52615 4.58373 0.677716 0.5 0 0 0 -0.0148861 1.27492 -0.991475 
394 2.76375 2.92559 1.08837 0.5 0 0 0 0.0172069 -0.151016 1.30106 
395 4.91112 2.95983 0.99861 0.5 0 0 0 1.35497 -0.497207 1.14149 
396 4.08242 3.07659 0.0175036 0.5 0 0 0 -0.343915 0.450799 -1.52526 
397 5.07978 4.04744 0.82504 0.5 0 0 0 2.38239 -0.0625266 -1.63051 
398 2.92734 4.94158 0.00821066 0.5 0 0 0 -0.477139 2.03754 -1.50094 
399 3.38819 4.92149 0.58832 0.5 0 0 0 0.578017 1.09103 -0.330953 
400 3.33768 4.51273 0.419338 0.5 0 0 0 0.195508 -0.603874 0.27592 
401 3.37373 2.65717 0.0719813 0.5 0 0 0 -0.978772 -0.396993 -1.65026 
402 2.72655 3.11912 0.68801 0.5 0 0 0 -0.262862 0.00998484 0.537475 
403 4.76397 3.22273 0.182954 0.5 0 0 0 0.43131 0.481353 -1.34402 
404 4.20748 2.63553 0.142006 0.5 0 0 0 -0.164176 0.531389 -0.893917 
405 4.05946 4.87616 -0.0238901 0.5 0 0 0 0.282787 0.873216 -0.164238 
406 4.20552 3.58906 1.03062 0.5 0 0 0 -0.887354 -0.74309 -0.290768 
407 2.81353 4.2113 -0.0113377 0.5 0 0 0 -0.346718 -0.769302 -1.25044 
408 4.9935 3.11745 0.424441 0.5 0 0 0 1.24828 -0.0506742 -0.253421 
409 3.77205 3.30856 0.562627 0.5 0 0 0 -0.535891 0.0680879 0.0361772 
410 3.87007 2.62726 0.88578 0.5 0 0 0 -0.532531 0.71407 1.23159 
411 4.18382 2.65307 1.06402 0.5 0 0 0 -0.135355 0.559369 1.46059 
412 3.09159 3.18162 0.446709 0.5 0 0 0 -0.48042 0.050032 0.0614896 
413 2.9187 3.71694 0.925146 0.5 0 0 0 -0.225707 -0.363117 0.330754 
414 2.70955 4.48431 0.643287 0.5 0 0 0 -0.107177 -0.93027 0.142364 
415 2.63879 4.93667 1.11349 0.5 0 0 0 -1.07916 0.88635 -0.319881 
417 3.08579 3.60768 0.193223 0.5 0 0 0 -0.439148 -0.300433 -0.622328 
418 4.81607 4.17572 1.6567 0.5 0 0 0 0.591384 -0.3444 0.0452615 
419 2.97104 3.77731 2.20128 0.5 0 0 0 0.527122 -1.67739 0.597766 
420 4.87673 3.94973 2.41376 0.5 0 0 0 0.274832 -1.57633 0.677186 
421 4.8751 4.5704 1.80973 0.5 0 0 0 1.01152 1.67479 -0.455577 
422 4.26911 4.54909 1.75393 0.5 0 0 0 0.210645 0.978854 0.159608 
423 3.64884 4.60708 1.39653 0.5 0 0 0 0.361052 0.133723 -1.23181 
424 4.35686 3.80957 1.43823 0.5 0 0 0 -0.729151 -1.16533 0.524541 
425 2.78397 3.15329 1.33966 0.5 0 0 0 0.22366 -0.293631 1.28218 
426 3.24265 4.5535 2.11578 0.5 0 0 0 0.105247 -0.908403 1.66012 
427 3.29534 4.61705 1.65763 0.5 0 0 0 -0.180083 -0.610708 -0.1445 
428 4.92768 4.3107 2.00987 0.5 0 0 0 0.632361 -0.199153 0.099529 
429 3.19584 4.83428 1.72876 0.5 0 0 0 -0.356612 0.283539 0.170782 
430 2.95764 4.84836 1.32106 0.5 0 0 0 -0.875938 0.354229 -0.984248 
431 3.50765 2.67592 2.37492 0.5 0 0 0 -0.874482 -0.138914 0.589053 
432 3.95776 2.50817 1.48001 0.5 0 0 0 -0.674944 0.427643 1.94288 
433 2.74246 4.3553 2.39778 0.5 0 0 0 -0.216772 -1.01731 0.873541 
434 3.13473 4.50779 1.94043 0.5 0 0 0 -0.332026 -1.07921 0.870682 
435 3.61635 4.6595 1.62656 0.5 0 0 0 0.53215 0.085094 -0.176528 
436 3.34107 3.27576 2.05507 0.5 0 0 0 -0.141782 -0.940337 0.961127 
437 3.80655 3.9833 1.78454 0.5 0 0 0 -0.714571 -1.51619 0.940777 
438 5.00235 3.5283 1.86043 0.5 0 0 0 1.73063 -1.93266 0.23671 
439 4.48504 4.48045 2.45638 0.5 0 0 0 -0.699917 0.100541 1.44684 
440 2.64624 3.87468 2.23009 0.5 0 0 0 0.374674 -1.16788 0.247906 
441 2.92967 4.74914 2.12022 0.5 0 0 0 -0.681666 -0.00187511 1.10785 
442 3.06368 4.58908 1.3818 0.5 0 0 0 -0.702501 -0.753022 -1.05743 
443 3.87393 4.11949 1.96441 0.5 0 0 0 -0.426148 -1.36553 1.4437 
444 2.67806 4.3564 1.89243 0.5 0 0 0 -0.768881 -0.933493 -0.157712 
445 4.42925 3.75365 1.23855 0.5 0 0 0 -0.571413 -1.03446 -0.0131104 
446 4.16136 3.88014 2.29143 0.5 0 0 0 -0.971787 -1.565 1.40257 
447 3.98413 3.8338 1.70991 0.5 0 0 0 -1.00342 -1.50688 1.02251 
448 4.54614 2.8292 2.2281 0.5 0 0 0 -0.167335 0.272937 -0.265095 
449 3.08114 3.86142 1.29596 0.5 0 0 0 -0.376896 -0.89214 0.0160013 
450 3.483 3.36566 1.39672 0.5 0 0 0 -0.555938 -0.723541 1.08939 
416 4.43939 3.86705 1.2623 0.5 0 0 0 -0.553467 -0.823825 -0.162319 
203 2.54258 2.99443 1.48495 0.5 0 0 0 0.543055 -0.349882 1.11903 
322 2.89681 2.52125 1.86351 0.5 0 0 0 0.201417 -0.0968989 1.34301 
314 4.95154 2.49957 1.43987 0.5 0 0 0 2.18023 0.0170286 0.881045 
479 2.67201 3.66333 3.67497 0.5 0 0 0 -0.203283 -1.64075 -0.627236 
453 4.81673 2.73412 3.2535 0.5 0 0 0 0.83175 0.571427 -0.423159 
454 3.96861 3.31053 2.81272 0.5 0 0 0 -1.04515 -0.0947104 0.106196 
455 2.9786 4.28331 3.66018 0.5 0 0 0 -0.726472 -0.931968 -1.0244 
456 2.78681 4.65171 3.10914 0.5 0 0 0 -0.203223 -0.442485 0.326354 
457 3.04669 4.89391 2.94079 0.5 0 0 0 0.553128 0.687032 0.706039 
458 3.38148 3.15475 2.90913 0.5 0 0 0 -0.536571 -0.877603 0.20482 
459 4.79833 4.06688 2.63942 0.5 0 0 0 -0.12815 -1.05994 1.14744 
460 4.3388 2.93317 3.14829 0.5 0 0 0 -1.28461 1.05571 -0.479603 
461 4.46961 4.44766 2.57147 0.5 0 0 0 -0.803993 -0.0313307 1.57322 
462 4.70144 4.99921 2.54255 0.5 0 0 0 0.45691 4.60247 1.38132 
463 4.41338 2.63817 2.73773 0.5 0 0 0 -1.22611 -0.00243763 -0.778284 
464 3.08229 3.82562 3.12878 0.5 0 0 0 0.298966 -1.73457 -0.110318 
465 3.57021 3.93289 3.56067 0.5 0 0 0 0.454561 -1.22721 -1.1987 
466 4.19207 2.57746 3.01757 0.5 0 0 0 -2.1259 -0.251472 -0.640465 
467 3.47467 4.4369 3.46201 0.5 0 0 0 0.87103 -0.333504 -0.872457 
468 4.83205 2.71881 2.53954 0.5 0 0 0 1.39736 0.238135 -0.966697 
344 4.18939 2.52631 3.41191 0.5 0 0 0 -2.05243 -0.494568 0.00250608 
470 4.48469 2.5291 3.64937 0.5 0 0 0 -1.05984 -0.47395 0.538382 
471 3.84038 4.76543 3.03905 0.5 0 0 0 0.428594 1.21797 0.489363 
451 2.79986 3.79809 2.4996 0.5 0 0 0 0.673107 -1.50336 0.668441 
473 2.91846 5.08611 3.74857 0.5 0 0 0 -0.149537 2.67781 0.232605 
474 4.50733 2.85757 3.6255 0.5 0 0 0 -0.710866 1.0425 0.308567 
478 3.98901 2.61315 3.41298 0.5 0 0 0 -2.49927 -0.21605 -0.0580274 
476 4.67836 3.70549 3.01079 0.5 0 0 0 0.0893544 -0.00660912 0.817159 
477 2.80107 4.25511 2.5663 0.5 0 0 0 0.0882246 -1.26935 0.940708 
337 4.00854 2.47712 3.28526 0.5 0 0 0 -2.56707 -0.587909 -0.210823 
475 4.80453 4.05407 3.78608 0.5 0 0 0 0.939233 -0.050494 -0.155903 
480 3.58954 3.80889 4.79313 0.5 0 0 0 1.28064 -1.322 0.955207 
481 4.13979 3.02607 4.95779 0.5 0 0 0 -0.26806 -1.47016 2.14225 
482 3.77862 3.59844 4.0078 0.5 0 0 0 0.420623 -0.998503 -1.09695 
483 4.40531 4.8875 4.10611 0.5 0 0 0 0.262951 0.500331 -1.7514 
484 3.17257 4.00242 3.9681 0.5 0 0 0 -0.446834 -1.44895 -1.5111 
485 3.66542 3.93623 4.40885 0.5 0 0 0 1.30958 -0.835948 -0.600759 
486 4.72061 4.70312 4.34975 0.5 0 0 0 -0.0981799 -0.899011 -1.3661 
487 3.27989 3.12528 4.27902 0.5 0 0 0 -0.664681 -1.98177 -0.831736 
488 4.67013 3.1766 4.66623 0.5 0 0 0 0.0222641 0.0685656 0.971178 
489 3.35018 4.83713 5.08973 0.5 0 0 0 -0.173478 3.09025 3.98334 
490 3.58041 3.44621 4.24508 0.5 0 0 0 -0.0363579 -1.73954 -0.884313 
491 3.71319 4.11091 4.82949 0.5 0 0 0 2.05137 -0.117091 1.3369 
492 2.664 3.19062 4.79125 0.5 0 0 0 -1.28703 -2.59097 0.923 
493 4.51495 3.66926 4.72374 0.5 0 0 0 1.18576 0.523216 0.678141 
494 3.42613 3.64514 5.12504 0.5 0 0 0 0.777667 -2.09049 3.3119 
495 2.6833 4.06724 4.41671 0.5 0 0 0 -1.05374 -0.908372 -1.15862 
496 2.62237 3.80935 4.95756 0.5 0 0 0 -1.37833 -1.7767 1.45777 
497 3.38169 4.37698 3.9444 0.5 0 0 0 0.446703 -0.250726 -1.31602 
357 3.44984 2.49539 4.63855 0.5 0 0 0 -0.880721 -1.29874 0.135075 
499 3.95607 2.50645 4.05608 0.5 0 0 0 -1.53378 -0.749092 0.251144 
500 4.65467 4.93223 4.97399 0.5 0 0 0 -0.725016 -0.119523 1.69267 
501 4.62616 4.8156 4.90395 0.5 0 0 0 -0.283506 -0.293766 1.29261 
502 2.68186 3.97566 4.77886 0.5 0 0 0 -0.998868 -1.16845 0.287558 
503 2.93974 4.25916 4.55901 0.5 0 0 0 -0.375598 -0.128602 -0.685897 
504 3.55114 3.30535 4.29101 0.5 0 0 0 -0.234647 -1.87477 -0.698607 
505 3.69577 4.8226 4.28552 0.5 0 0 0 1.42007 1.77441 -0.194307 
506 4.09436 4.02173 3.97424 0.5 0 0 0 1.82435 0.0294057 -0.947244 
507 4.9127 2.81898 3.94309 0.5 0 0 0 0.483183 0.989998 0.557247 
508 2.87514 3.9281 4.68635 0.5 0 0 0 -0.391714 -1.40767 -0.269395 
509 3.30514 4.75551 4.40391 0.5 0 0 0 0.178834 1.78582 -0.10019 
510 3.08449 4.49513 4.06087 0.5 0 0 0 -0.596004 0.201669 -1.22204 
511 2.64437 3.03165 4.50455 0.5 0 0 0 -1.02995 -2.20823 -0.126218 
512 2.66599 2.82479 4.36837 0.5 0 0 0 -0.847023 -1.88594 -0.44252 
513 4.86973 3.02688 4.29851 0.5 0 0 0 0.304292 1.0336 0.591054 
ITEM: TIMESTEP
60070
ITEM: NUMBER OF ATOMS
512
ITEM: BOX BOUNDS ss ss ss
-2.1589663964569298e-02 5.0933846546203574e+00
-1.7364439631764822e-01 5.0865807164741392e+00
-1.8176655292622759e-01 5.1255068607205727e+00
ITEM: ATOMS id x y z width_SPH x_COM y_COM z_COM vx vy vz 
2 0.301055 0.775931 0.246861 0.5 0 0 0 -1.37915 -0.57946 0.0688637 
3 0.259427 1.291 0.605722 0.5 0 0 0 -2.08428 -0.964616 0.287785 
4 0.787478 1.24764 1.03677 0.5 0 0 0 -0.386211 -0.340098 0.74917 
5 1.73539 1.8934 0.823939 0.5 0 0 0 0.958476 0.352077 0.221148 
6 0.274187 2.07866 0.848537 0.5 0 0 0 -2.11839 0.860405 1.16648 
7 0.546653 1.58453 0.342543 0.5 0 0 0 -0.688633 -0.372044 -0.682041 
8 1.33606 0.225895 0.773369 0.5 0 0 0 0.0500238 -0.685401 1.18404 
9 1.53469 0.986432 0.331375 0.5 0 0 0 0.774002 0.260662 -0.747351 
10 1.11159 1.53603 -0.0685677 0.5 0 0 0 0.98377 -0.388479 -2.84955 
11 1.39605 1.22774 0.79617 0.5 0 0 0 0.782243 0.130012 0.282659 
38 1.08307 2.32881 0.776653 0.5 0 0 0 0.51679 0.421748 0.862927 
41 2.23084 2.37931 1.0229 0.5 0 0 0 0.351347 -0.202257 0.556547 
14 1.2605 2.06321 0.329269 0.5 0 0 0 1.32257 0.117806 -0.380239 
15 1.54695 0.0394688 0.976133 0.5 0 0 0 1.23301 -1.50685 2.12368 
37 0.636899 0.390262 0.353985 0.5 0 0 0 -1.4772 -0.586508 0.379754 
17 1.08138 0.119432 0.519719 0.5 0 0 0 -1.29662 -0.687349 0.538461 
18 1.50826 -0.0164925 0.0458921 0.5 0 0 0 0.0210213 -0.949643 -1.15214 
40 1.99514 0.669573 0.604468 0.5 0 0 0 1.39254 -0.198006 0.904817 
20 0.369812 1.75927 1.04789 0.5 0 0 0 -1.73129 0.350014 1.2856 
21 1.878 1.79469 0.745542 0.5 0 0 0 1.08065 0.226337 -0.00309059 
22 0.552784 2.4223 0.409941 0.5 0 0 0 -0.558234 0.212976 0.65749 
39 0.791152 1.5785 0.810202 0.5 0 0 0 0.14069 0.227588 0.408941 
24 0.00339634 0.598282 0.0816943 0.5 0 0 0 -2.72782 -0.779847 -0.133676 
25 1.95437 0.260597 0.581888 0.5 0 0 0 1.68397 -0.755047 1.36419 
26 1.35582 0.89095 0.584786 0.5 0 0 0 0.399543 0.0193055 -0.00984686 
27 0.86467 1.81411 0.900157 0.5 0 0 0 0.37739 0.670873 0.691799 
28 2.15664 0.959749 0.359458 0.5 0 0 0 0.883499 0.501528 -0.229979 
29 2.42448 1.35996 0.269403 0.5 0 0 0 0.107994 1.01771 -1.19042 
30 1.3992 0.242428 0.884069 0.5 0 0 0 0.488735 -0.821766 1.45698 
31 1.65838 1.51848 0.685685 0.5 0 0 0 1.2023 0.362123 0.0102249 
32 1.30154 2.09592 0.250953 0.5 0 0 0 1.47628 0.00634304 -0.708878 
33 1.46277 1.14326 0.721759 0.5 0 0 0 0.856748 0.0701124 0.199793 
34 0.622253 2.08924 -0.0271335 0.5 0 0 0 -0.447964 -0.575349 -2.02292 
35 1.77117 0.0448041 -0.12883 0.5 0 0 0 1.17612 -0.864516 -2.25442 
36 0.968307 0.88323 0.0786097 0.5 0 0 0 0.0956176 0.0328115 -1.4796 
144 0.0211868 2.45507 0.114566 0.5 0 0 0 -3.16807 -0.780073 -1.09892 
43 1.54525 0.0677167 1.95233 0.5 0 0 0 1.54676 -2.05887 2.27928 
44 1.36472 2.35713 1.90941 0.5 0 0 0 0.773265 -0.347994 0.538717 
45 1.3338 1.11988 1.48553 0.5 0 0 0 0.476503 -0.198922 1.55748 
46 1.38772 2.23672 2.32626 0.5 0 0 0 0.773053 -0.849665 1.17322 
47 1.3959 1.26087 1.91897 0.5 0 0 0 -0.0998258 -0.503565 2.36781 
48 1.18006 0.81249 1.47866 0.5 0 0 0 0.169873 -0.426946 1.76227 
49 2.47935 2.34211 1.69818 0.5 0 0 0 0.557997 -0.173286 1.19152 
50 0.891244 0.608878 1.6702 0.5 0 0 0 -1.07935 -0.542152 2.51078 
51 1.96893 0.939581 1.80625 0.5 0 0 0 0.474648 -1.0968 1.64682 
52 0.671605 1.64139 1.33341 0.5 0 0 0 -0.669154 0.0976747 1.61559 
53 2.1247 1.44177 1.71791 0.5 0 0 0 0.456171 0.123584 0.952341 
54 0.390177 0.0429118 2.20343 0.5 0 0 0 -1.55322 -1.2515 0.558043 
55 1.73185 1.84185 1.70753 0.5 0 0 0 0.650488 0.164873 0.906631 
16 2.25737 2.0163 1.1787 0.5 0 0 0 0.457618 -0.0719316 0.552919 
57 2.38803 1.07706 1.62869 0.5 0 0 0 0.472592 -0.693362 0.755443 
58 1.78529 0.149183 2.23912 0.5 0 0 0 1.03266 -2.02264 2.71628 
59 1.24236 0.582599 2.37881 0.5 0 0 0 0.260639 -0.272302 3.92127 
60 0.669146 1.69642 1.57453 0.5 0 0 0 -0.979931 -0.221884 2.09604 
61 1.33412 0.300392 1.71433 0.5 0 0 0 0.887272 -1.21199 2.26357 
78 1.05745 1.89882 1.61754 0.5 0 0 0 0.147237 0.000526335 1.16131 
63 2.01584 1.57785 2.03483 0.5 0 0 0 0.300752 -0.0541987 1.40505 
64 0.517033 0.357619 2.37909 0.5 0 0 0 -0.565262 0.5304 2.62111 
65 1.06184 1.77544 2.19874 0.5 0 0 0 -0.468617 -1.40527 2.12131 
66 2.34198 0.861937 2.01784 0.5 0 0 0 0.0264808 -1.35146 1.6745 
67 1.10297 0.688531 2.0263 0.5 0 0 0 -0.327865 -0.22183 3.45704 
68 2.05806 1.47707 1.72368 0.5 0 0 0 0.443848 0.165817 1.00096 
69 1.40306 0.742942 2.26944 0.5 0 0 0 -0.0127024 -0.601935 3.56695 
77 0.387384 1.54418 1.42856 0.5 0 0 0 -2.2289 -0.477403 2.42527 
71 0.737596 0.5321 1.43848 0.5 0 0 0 -1.94544 -0.911202 1.66721 
72 1.00639 2.24107 2.44179 0.5 0 0 0 0.00218036 -1.25803 1.46169 
73 2.05738 1.03318 1.69109 0.5 0 0 0 0.568029 -0.882777 1.23016 
74 2.23184 1.01521 2.36174 0.5 0 0 0 -0.384272 -1.45765 2.51903 
75 0.0297591 2.31119 2.22174 0.5 0 0 0 -2.35303 -1.6149 0.705441 
76 0.971333 1.10814 1.45356 0.5 0 0 0 -0.382575 -0.281268 1.81091 
12 1.34529 1.51116 1.24546 0.5 0 0 0 0.683714 0.377311 0.874132 
13 1.86621 1.32627 1.2581 0.5 0 0 0 0.996983 -0.0560653 0.662333 
312 2.49224 -0.0785592 1.66922 0.5 0 0 0 -0.14679 -2.94591 1.29965 
42 1.22906 0.726339 1.23556 0.5 0 0 0 0.35316 -0.502417 1.1591 
79 1.43519 2.24236 3.26307 0.5 0 0 0 0.0223923 -2.28928 1.21435 
80 0.722443 0.183726 2.71179 0.5 0 0 0 1.47956 0.523532 2.97285 
81 1.07278 0.414991 2.90582 0.5 0 0 0 1.62679 0.318596 4.42164 
82 1.30862 1.94323 2.75297 0.5 0 0 0 -0.307577 -2.04012 1.90998 
83 1.70365 2.04277 2.87994 0.5 0 0 0 0.281028 -1.52928 1.51927 
84 1.24768 0.840075 3.71742 0.5 0 0 0 1.3346 -3.77947 4.56256 
85 2.02471 1.84019 2.82634 0.5 0 0 0 0.380614 -1.35915 1.64397 
106 1.36418 1.31961 2.61109 0.5 0 0 0 -0.889986 -2.1867 3.25922 
87 0.898791 2.29173 3.34264 0.5 0 0 0 -0.293877 -2.93006 0.785255 
88 1.94611 1.38118 2.97943 0.5 0 0 0 -0.745011 -2.92604 2.85478 
89 1.47552 0.236488 3.78196 0.5 0 0 0 0.219554 1.79093 4.58104 
100 0.580244 2.1647 2.54008 0.5 0 0 0 -0.486519 -1.98824 1.75435 
91 1.72848 1.44582 2.74129 0.5 0 0 0 -0.619501 -2.43806 2.67723 
92 0.127763 2.09689 2.83731 0.5 0 0 0 -1.29452 -2.82364 1.55051 
93 0.715288 0.310076 2.79202 0.5 0 0 0 1.35813 0.930414 3.27143 
94 1.45135 1.94301 2.62581 0.5 0 0 0 0.0977395 -1.59537 1.72398 
95 2.18938 2.14758 3.16347 0.5 0 0 0 0.868237 -1.23576 1.36448 
96 0.949787 1.87737 2.59394 0.5 0 0 0 -0.661378 -2.26217 2.27302 
97 1.79654 0.470841 3.60669 0.5 0 0 0 -2.34256 -1.28808 5.27497 
98 0.273036 1.57183 2.88925 0.5 0 0 0 -0.472587 -2.69557 1.99011 
99 2.15148 1.76572 3.33726 0.5 0 0 0 -0.0623801 -2.43024 1.94133 
105 0.748316 0.114094 3.13352 0.5 0 0 0 2.42391 0.805832 3.0757 
186 0.405522 2.44494 2.60323 0.5 0 0 0 -0.466321 -1.47819 1.20441 
102 1.84309 1.71235 3.01666 0.5 0 0 0 -0.358364 -2.45641 2.17466 
103 0.428596 1.03809 3.214 0.5 0 0 0 1.28691 -1.21716 2.32734 
231 1.26226 2.35113 3.50859 0.5 0 0 0 0.166532 -2.64002 0.961284 
62 2.18333 1.76448 2.56416 0.5 0 0 0 0.450514 -0.647155 1.47222 
131 1.85476 1.65837 3.77351 0.5 0 0 0 -0.993866 -4.30597 2.03113 
56 2.44014 0.52257 2.48153 0.5 0 0 0 -0.939946 -1.83351 2.60192 
107 1.79923 0.179203 4.53984 0.5 0 0 0 -2.45786 2.41498 -3.09025 
108 1.07475 1.50088 4.4532 0.5 0 0 0 2.22976 -3.9292 -0.410827 
109 1.80419 0.539854 4.27431 0.5 0 0 0 -4.08309 -0.270202 -1.06212 
110 1.90995 0.686704 4.17966 0.5 0 0 0 -4.68633 -2.33682 0.535296 
139 1.01002 0.53425 4.8421 0.5 0 0 0 4.18333 -0.557614 -2.80633 
112 1.75816 0.697997 4.6654 0.5 0 0 0 -1.94893 -1.78474 -4.66954 
113 1.92755 1.25302 4.43647 0.5 0 0 0 -2.16226 -4.87584 -0.595464 
114 0.873022 0.925226 4.48011 0.5 0 0 0 4.96998 -2.01792 -2.19313 
115 1.84019 0.570503 4.46819 0.5 0 0 0 -3.72947 -0.563719 -3.38031 
116 0.78008 0.159626 4.30329 0.5 0 0 0 4.86679 0.45466 -1.1469 
117 0.97624 0.936261 4.21247 0.5 0 0 0 4.88912 -3.28005 -0.842584 
138 0.0273679 1.19266 4.38545 0.5 0 0 0 0.0333233 -1.92588 0.369908 
119 0.767844 1.80936 4.39848 0.5 0 0 0 1.55609 -2.82256 0.538746 
120 1.48918 0.684105 4.13283 0.5 0 0 0 0.291255 -2.81517 1.22384 
121 1.88095 0.771553 3.94803 0.5 0 0 0 -3.88972 -3.60996 3.38573 
122 0.203659 -0.136034 4.07609 0.5 0 0 0 1.17966 -1.13938 0.140607 
123 1.2201 0.0988108 4.57302 0.5 0 0 0 3.2754 1.89719 -2.95636 
124 0.694246 0.48942 4.10318 0.5 0 0 0 4.98893 -0.112429 -0.715158 
125 1.57983 0.388117 4.1862 0.5 0 0 0 -1.13363 2.13325 0.184461 
126 1.32392 0.54761 4.31047 0.5 0 0 0 3.62849 -0.260752 -2.29449 
127 1.22247 2.04542 4.70512 0.5 0 0 0 0.529074 -2.49873 0.738639 
128 1.13276 0.893303 4.24917 0.5 0 0 0 4.63099 -3.84382 -1.04812 
129 0.157214 1.59081 4.15841 0.5 0 0 0 1.00243 -2.69925 -0.130454 
130 0.546454 0.828476 4.34958 0.5 0 0 0 3.60278 -1.03144 -1.40424 
137 0.139754 2.14502 3.86316 0.5 0 0 0 -0.174233 -3.34818 -0.34939 
132 2.24816 1.87938 3.83285 0.5 0 0 0 -0.369877 -2.65504 1.0822 
133 1.3657 0.564184 4.27384 0.5 0 0 0 2.91059 -0.547915 -1.67066 
134 1.70918 2.16354 4.92569 0.5 0 0 0 -0.345917 -2.30071 0.356019 
135 2.26417 0.167799 4.66813 0.5 0 0 0 -2.70232 -0.457234 -0.977903 
136 1.59585 1.6178 4.25902 0.5 0 0 0 -0.174877 -5.0504 0.598198 
86 1.99543 1.44375 3.89323 0.5 0 0 0 -1.58174 -4.76339 2.01593 
252 1.97124 2.33459 4.62375 0.5 0 0 0 -0.38039 -2.50458 -0.187755 
372 2.44555 0.703621 4.33782 0.5 0 0 0 -4.58149 -1.31111 -0.49025 
111 1.47988 2.39442 3.94322 0.5 0 0 0 0.573418 -2.60426 1.12597 
90 1.33534 1.25019 3.83518 0.5 0 0 0 0.0442527 -5.92776 2.69799 
104 1.86756 1.04359 3.82197 0.5 0 0 0 -2.65226 -5.30331 3.62838 
118 2.50959 1.6731 4.55116 0.5 0 0 0 -2.00902 -2.35961 -0.41461 
101 1.63831 0.949582 3.80759 0.5 0 0 0 -1.7618 -5.38781 4.47989 
140 2.46899 2.49534 0.521338 0.5 0 0 0 -0.128903 -0.497107 0.0925421 
141 0.969148 3.25075 0.881216 0.5 0 0 0 -0.687578 -0.0542408 0.763196 
142 1.05819 3.61895 0.280843 0.5 0 0 0 0.076241 0.567427 -0.305168 
143 0.613287 3.01274 0.597918 0.5 0 0 0 -0.779409 -0.073693 1.18853 
167 1.3425 2.79902 0.683511 0.5 0 0 0 0.862581 -0.285231 0.459323 
168 1.60813 2.59703 0.915717 0.5 0 0 0 0.694597 -0.0649769 0.373866 
146 1.06775 3.21913 0.367264 0.5 0 0 0 0.564983 -0.407096 0.137514 
147 0.573218 4.49282 0.517005 0.5 0 0 0 1.15787 -0.171521 0.303704 
148 1.97431 3.78988 0.433878 0.5 0 0 0 0.683033 -0.368951 -0.379249 
149 0.683851 3.59682 0.0907875 0.5 0 0 0 -0.319999 1.05821 -0.716997 
150 1.89594 4.42723 0.806373 0.5 0 0 0 -0.262438 0.0303685 0.357118 
151 0.0449874 3.44437 0.106179 0.5 0 0 0 -1.64526 0.617833 -0.0464468 
152 1.35725 3.63101 1.14385 0.5 0 0 0 0.11307 -0.00935853 0.199511 
153 2.20121 4.40131 0.258867 0.5 0 0 0 -0.252402 -0.13362 -0.978033 
154 2.3391 4.58275 0.684234 0.5 0 0 0 -0.385003 -0.355658 0.255406 
155 1.29543 3.739 0.711873 0.5 0 0 0 -0.0562985 0.39601 0.295771 
156 0.448861 4.37762 1.0583 0.5 0 0 0 -0.637603 -0.993228 1.12879 
157 2.28879 2.65211 1.12402 0.5 0 0 0 0.333585 -0.230734 0.723484 
158 1.97602 4.15403 0.975272 0.5 0 0 0 0.404539 -0.540368 0.510217 
159 1.30202 3.80288 0.707775 0.5 0 0 0 -0.132016 0.516269 0.258984 
160 2.25978 2.64392 -0.0733001 0.5 0 0 0 -0.478479 -0.501409 -2.67296 
23 0.962134 2.54199 0.248238 0.5 0 0 0 0.775247 -0.195279 -0.0476519 
162 1.69243 3.28375 0.688212 0.5 0 0 0 1.10813 -0.412005 0.186946 
163 0.0413294 4.44313 0.0101758 0.5 0 0 0 0.227732 -0.442938 -0.609381 
164 2.14712 2.84689 0.191509 0.5 0 0 0 -0.0992011 -0.121538 -1.10241 
165 0.0909457 3.27534 0.31376 0.5 0 0 0 -1.79335 0.168317 0.889057 
166 2.19765 3.29178 0.984015 0.5 0 0 0 0.426622 -0.0728598 0.437576 
169 0.463446 3.13038 2.39827 0.5 0 0 0 -0.761623 0.716166 0.071709 
170 1.91535 3.15614 2.11444 0.5 0 0 0 0.849988 -0.60923 0.27612 
171 0.0731235 4.12223 2.28627 0.5 0 0 0 -2.3246 -0.638974 -1.31684 
172 1.10385 2.49108 1.83479 0.5 0 0 0 0.113707 -0.0898063 0.287148 
173 1.82174 3.36308 1.88121 0.5 0 0 0 0.62446 -0.353025 -0.192788 
174 1.26915 2.64237 1.45142 0.5 0 0 0 0.152443 0.0685971 0.0522496 
175 1.5165 4.31087 1.98113 0.5 0 0 0 0.608819 -0.492245 -0.249128 
176 1.55215 2.54248 1.97066 0.5 0 0 0 1.07773 -0.388552 0.455845 
177 -0.000871549 2.86161 2.38797 0.5 0 0 0 -2.34368 0.446028 0.184782 
178 1.44946 3.12326 1.43829 0.5 0 0 0 0.26266 -0.115135 -0.0447047 
179 2.14586 3.06959 2.45799 0.5 0 0 0 1.21845 -1.04109 0.798676 
180 1.15672 3.75587 1.50516 0.5 0 0 0 -0.819942 -0.0253787 -0.175309 
181 1.90675 4.8254 1.69836 0.5 0 0 0 -0.11006 0.569139 -0.338473 
182 1.13561 4.0265 1.86656 0.5 0 0 0 -0.89773 -0.269055 -0.176362 
183 1.54777 4.578 2.2453 0.5 0 0 0 0.407828 -0.184495 0.381978 
184 0.375307 2.61523 1.7266 0.5 0 0 0 -1.25194 0.288669 -0.28186 
185 1.31385 4.74035 2.28151 0.5 0 0 0 -0.397744 0.234662 0.573727 
204 1.32469 2.72488 2.02243 0.5 0 0 0 0.411336 -0.151407 0.337902 
187 1.38995 2.59811 2.25108 0.5 0 0 0 0.729148 -0.475107 0.785678 
188 1.50496 3.99844 2.40065 0.5 0 0 0 0.211202 -0.474668 0.650953 
189 1.72033 3.51607 2.26762 0.5 0 0 0 0.26869 -0.402689 0.325114 
202 0.972522 3.69504 1.79271 0.5 0 0 0 -1.44564 -0.0254591 -0.100557 
191 2.16537 2.98689 2.46313 0.5 0 0 0 1.31924 -1.07884 0.829752 
192 1.88901 3.66891 2.05625 0.5 0 0 0 0.648537 -0.477155 -0.120451 
193 0.891344 3.87886 2.43149 0.5 0 0 0 -1.18047 -0.0753144 0.529378 
194 0.584984 3.06103 2.15149 0.5 0 0 0 -0.561637 0.719625 -0.131387 
195 1.99793 2.84629 1.96781 0.5 0 0 0 1.27018 -0.681288 0.435279 
196 1.34713 4.40977 1.55938 0.5 0 0 0 -0.112883 0.0288055 -0.882878 
190 1.78495 4.93382 1.1726 0.5 0 0 0 -1.13941 1.8513 -0.304657 
198 0.864709 4.5435 2.00967 0.5 0 0 0 -2.11471 0.135878 -0.143085 
199 1.34387 3.07488 2.36975 0.5 0 0 0 -0.031805 -0.265268 0.531323 
200 2.34843 5.02929 2.31953 0.5 0 0 0 -0.796879 1.59988 0.324385 
201 0.447625 2.72568 2.13465 0.5 0 0 0 -0.558407 0.0893509 0.113426 
70 0.869077 2.53772 2.15016 0.5 0 0 0 -0.00745232 -0.379536 0.682908 
145 2.08491 2.5666 1.35062 0.5 0 0 0 0.613487 -0.220206 0.593894 
161 0.304205 3.15922 1.21597 0.5 0 0 0 -2.20409 0.586614 0.68595 
205 1.20045 3.53231 3.03398 0.5 0 0 0 0.0678487 -0.334024 0.264396 
206 1.96354 4.32896 3.0356 0.5 0 0 0 -0.110266 -0.374473 0.79568 
207 0.125247 4.09144 3.71369 0.5 0 0 0 -0.808874 -0.46417 0.10916 
208 0.843592 2.50923 3.69925 0.5 0 0 0 0.234163 -2.55693 0.72888 
209 1.51897 3.92171 3.16326 0.5 0 0 0 0.196407 -0.117587 0.840592 
210 1.84193 3.57401 3.51447 0.5 0 0 0 0.186008 -0.797567 0.527491 
211 1.88266 3.75203 2.61168 0.5 0 0 0 0.452291 -0.56029 0.722427 
212 1.26728 4.95011 2.96344 0.5 0 0 0 -0.263375 0.34493 0.888364 
213 2.05997 3.14167 2.58517 0.5 0 0 0 0.926584 -0.952221 0.886775 
214 1.24451 3.27321 3.65915 0.5 0 0 0 0.79426 -0.803009 0.932488 
215 0.72358 3.1322 3.31571 0.5 0 0 0 -0.405261 -0.703724 -0.116956 
216 0.445426 3.1858 3.33118 0.5 0 0 0 -1.08577 -0.462275 -0.477948 
217 2.47751 2.71685 2.75587 0.5 0 0 0 1.39731 -1.20608 0.862045 
218 2.3856 5.03043 3.71336 0.5 0 0 0 -0.96463 1.539 0.410944 
219 1.09024 2.6149 3.18493 0.5 0 0 0 0.202242 -1.6943 0.472061 
220 2.3237 4.8339 2.95769 0.5 0 0 0 -0.618016 0.36155 0.828764 
221 1.05556 3.48504 3.60298 0.5 0 0 0 0.438433 -0.23314 0.805245 
222 2.43947 3.20193 3.0653 0.5 0 0 0 0.899384 -1.47819 0.585506 
223 1.90845 2.5835 3.33421 0.5 0 0 0 1.00389 -1.39156 0.908053 
224 0.51884 4.9229 3.11834 0.5 0 0 0 -0.680202 1.04936 -0.188447 
225 0.511126 3.84252 3.64451 0.5 0 0 0 -0.152876 0.0961493 0.347044 
226 0.947698 4.03003 2.86602 0.5 0 0 0 -0.66486 0.11135 0.686473 
227 1.10353 3.04116 3.11188 0.5 0 0 0 0.291876 -0.946496 0.135915 
228 0.260909 4.35829 2.60106 0.5 0 0 0 -1.13169 -0.263858 -0.406417 
229 0.262292 4.30495 3.51799 0.5 0 0 0 -0.219799 -0.166076 -0.264812 
230 1.60814 2.91279 3.13403 0.5 0 0 0 0.859908 -1.11713 0.637789 
234 1.25336 3.65657 3.14788 0.5 0 0 0 0.170561 -0.177667 0.462575 
232 2.45704 3.29093 3.07977 0.5 0 0 0 0.789092 -1.45297 0.514948 
233 1.25657 4.7676 3.4016 0.5 0 0 0 0.262801 -0.270144 0.631714 
472 2.51544 4.84304 2.81896 0.5 0 0 0 -0.522596 0.376607 0.860404 
251 1.85862 2.53245 3.78308 0.5 0 0 0 0.796282 -1.97061 0.86186 
452 2.41993 3.93784 3.55703 0.5 0 0 0 -0.618543 -0.767721 -0.227194 
254 1.67058 4.93834 3.76207 0.5 0 0 0 -0.108475 -0.00654518 -0.126824 
197 1.56003 4.63702 2.47551 0.5 0 0 0 0.19449 -0.0431884 0.93917 
235 1.25867 4.88886 4.11646 0.5 0 0 0 -0.0651397 -0.422475 -0.499999 
236 2.01963 3.92687 3.99277 0.5 0 0 0 -1.36742 -0.449672 -0.153231 
237 0.594824 2.54955 3.92612 0.5 0 0 0 0.437815 -2.27655 0.911893 
238 0.923659 4.77169 4.37611 0.5 0 0 0 0.150024 -0.396479 -0.108932 
239 0.871882 3.75292 3.98213 0.5 0 0 0 0.547461 0.0328988 1.33278 
240 2.06138 4.57361 4.57908 0.5 0 0 0 -2.3183 1.31109 0.100621 
241 2.18403 4.38619 4.75143 0.5 0 0 0 -2.57578 0.696965 0.680959 
242 0.0972841 3.19401 4.41599 0.5 0 0 0 0.712118 -0.0226651 0.530365 
243 -0.0210849 2.72651 4.80956 0.5 0 0 0 0.478527 -2.54413 1.85156 
244 0.523828 4.91629 4.8473 0.5 0 0 0 -0.89253 0.136736 1.01528 
245 1.52927 3.07 4.95431 0.5 0 0 0 -1.28626 -1.12748 1.45293 
246 1.24538 3.71928 4.4173 0.5 0 0 0 -0.181747 -0.942106 1.03632 
247 2.42627 3.3571 3.82754 0.5 0 0 0 -0.0792561 -1.80322 -0.263726 
248 1.72735 2.67639 4.86735 0.5 0 0 0 -0.717022 -1.99975 0.514676 
249 1.67259 3.00146 4.12672 0.5 0 0 0 0.268941 -1.74656 0.717823 
250 1.29947 2.62046 3.9529 0.5 0 0 0 0.753693 -2.08426 1.28436 
259 0.587315 2.82169 3.88904 0.5 0 0 0 0.414873 -1.32138 0.940606 
258 0.0372905 2.95954 4.02069 0.5 0 0 0 -0.312597 -0.790845 -0.239198 
253 0.163213 2.67726 3.94064 0.5 0 0 0 -0.222662 -1.89758 0.00970088 
498 2.4724 3.56393 4.29257 0.5 0 0 0 -1.20935 -2.02096 -0.680339 
255 0.213925 3.66474 4.84727 0.5 0 0 0 0.696223 0.259934 1.04148 
256 2.32355 4.09436 4.60624 0.5 0 0 0 -2.25468 -0.685981 -0.152656 
257 1.27312 4.24124 4.86156 0.5 0 0 0 -0.926702 -1.02027 1.44441 
260 4.00548 -0.157001 0.919831 0.5 0 0 0 -0.224165 -2.77529 0.556823 
261 3.19555 2.28939 1.1298 0.5 0 0 0 -0.766239 0.0920767 1.34739 
262 4.78768 2.0216 0.404288 0.5 0 0 0 1.76556 0.433176 -1.08036 
263 4.86349 0.626835 0.989596 0.5 0 0 0 1.13934 -1.77784 0.85654 
264 3.25883 0.915981 0.201983 0.5 0 0 0 -0.773158 0.954961 -0.970743 
265 4.90556 1.41686 1.11292 0.5 0 0 0 1.84978 0.293382 1.42056 
266 4.83437 0.647196 -0.012952 0.5 0 0 0 0.867728 -0.263108 -3.22863 
267 3.45727 1.79731 0.88621 0.5 0 0 0 -1.61333 -0.356147 0.380672 
268 2.89322 0.522862 0.844916 0.5 0 0 0 -0.153666 -0.397532 1.69455 
269 3.96981 1.81192 0.224037 0.5 0 0 0 -1.04667 -0.483311 -2.25324 
270 3.93632 1.90246 1.01937 0.5 0 0 0 -0.967645 0.532145 1.32236 
293 3.02089 2.402 0.572197 0.5 0 0 0 -0.796702 -0.433146 0.208544 
272 4.42309 1.79277 0.741692 0.5 0 0 0 0.047173 0.718701 0.202818 
273 4.85215 1.36363 0.800133 0.5 0 0 0 1.45527 -0.322746 -0.105125 
274 2.68345 0.714078 0.824478 0.5 0 0 0 0.231219 -0.0903964 1.4987 
275 2.53787 2.34774 0.0564348 0.5 0 0 0 -0.496747 -1.07387 -2.05804 
276 5.08107 0.0669074 0.787808 0.5 0 0 0 1.14248 -1.66546 0.65446 
294 3.1399 0.0914789 0.349253 0.5 0 0 0 0.150587 -2.31537 -0.195686 
278 3.60826 1.88445 0.935532 0.5 0 0 0 -1.47452 -0.0204951 0.739731 
279 3.71217 0.457458 0.171538 0.5 0 0 0 0.354212 -1.32187 -1.49385 
295 2.73142 1.13215 0.89867 0.5 0 0 0 -0.159637 0.170665 0.868976 
281 3.0564 0.15119 0.970881 0.5 0 0 0 -0.451401 -1.93752 1.77533 
282 3.87439 1.69556 1.09784 0.5 0 0 0 -1.31071 0.049761 1.41497 
283 3.80612 2.33927 -0.181304 0.5 0 0 0 -1.10118 -0.928769 -3.77623 
284 4.16863 2.09977 0.500956 0.5 0 0 0 -0.298037 0.731189 -0.33356 
285 3.41145 2.33265 0.439944 0.5 0 0 0 -1.11916 -0.145077 -0.370683 
286 3.72183 0.963261 0.427494 0.5 0 0 0 -1.13999 -0.231017 -0.451699 
287 4.34117 1.0384 0.421511 0.5 0 0 0 -0.486862 -1.23539 -1.49497 
288 4.07943 1.6191 1.03377 0.5 0 0 0 -1.10327 0.123616 1.24629 
289 4.36668 1.05292 0.596488 0.5 0 0 0 -0.637098 -1.32406 -0.787485 
290 3.33102 0.992295 0.623109 0.5 0 0 0 -1.22168 0.31192 0.681993 
291 2.90505 1.00381 0.0831276 0.5 0 0 0 -0.432339 1.52781 -1.78155 
297 3.1628 0.422635 1.81526 0.5 0 0 0 -1.29624 -1.55317 0.777144 
298 3.83872 2.08748 2.17162 0.5 0 0 0 -1.14478 -0.142807 1.04437 
299 3.06608 0.732188 2.23275 0.5 0 0 0 -0.806991 -0.563655 1.53062 
323 3.16957 1.7184 1.55879 0.5 0 0 0 -0.673978 -0.158872 1.15611 
301 3.32709 1.70196 2.15389 0.5 0 0 0 -0.572189 0.0774028 1.27868 
302 3.70477 0.97047 1.808 0.5 0 0 0 -0.872588 0.195371 1.52374 
303 3.80395 0.847812 1.94421 0.5 0 0 0 -0.64182 0.0391853 1.64927 
292 4.33293 1.2853 1.24701 0.5 0 0 0 -0.639651 -0.249339 1.77511 
305 4.06195 1.45734 1.37118 0.5 0 0 0 -1.0209 0.152797 2.08146 
306 4.61121 1.24738 1.92467 0.5 0 0 0 0.787608 -0.0452681 1.55525 
307 4.02805 0.00289273 2.16168 0.5 0 0 0 -1.98919 -2.04561 -0.125287 
308 4.72506 0.104428 2.27495 0.5 0 0 0 0.0573468 -0.247036 0.0162079 
309 3.95474 0.747125 1.92069 0.5 0 0 0 -0.468723 -0.275999 1.65557 
310 4.61075 2.32872 1.97826 0.5 0 0 0 0.484447 -0.142861 0.410058 
311 3.53785 2.25908 2.09172 0.5 0 0 0 -0.893423 0.158225 1.12885 
321 4.85074 -0.0225726 2.20582 0.5 0 0 0 0.482361 -0.650809 -0.309903 
313 2.56726 1.50595 2.20378 0.5 0 0 0 0.109455 0.00594726 1.31398 
320 2.69246 1.31431 1.87261 0.5 0 0 0 0.0635513 -0.0689529 0.908787 
315 3.26738 0.871673 1.9548 0.5 0 0 0 -0.804979 -0.121832 1.16741 
316 4.50045 1.00423 2.30412 0.5 0 0 0 0.307719 0.0216578 0.921376 
317 4.42454 1.96834 2.33396 0.5 0 0 0 -0.426084 -0.757508 0.429071 
318 3.62756 0.647096 1.42441 0.5 0 0 0 -1.29701 -0.894212 0.717567 
319 3.17122 2.16818 1.97117 0.5 0 0 0 -0.361801 0.250599 1.244 
271 4.89446 1.59839 1.20695 0.5 0 0 0 1.99248 1.05741 1.86755 
19 2.58919 1.86325 1.17351 0.5 0 0 0 0.0130851 -0.264311 0.53988 
280 3.82516 0.808418 1.18766 0.5 0 0 0 -1.36626 -0.81653 0.795707 
300 4.20682 2.38482 1.22813 0.5 0 0 0 -0.0437379 0.850054 1.85765 
296 4.29953 0.620861 1.1735 0.5 0 0 0 -0.391148 -1.69158 0.799747 
277 3.47973 2.13585 1.1768 0.5 0 0 0 -1.08771 0.311774 1.56488 
324 4.20049 1.07209 3.60418 0.5 0 0 0 -1.49447 0.447572 -0.557427 
325 3.13524 0.346649 3.34055 0.5 0 0 0 -3.12525 -1.26455 1.33757 
326 3.66739 1.47199 3.67458 0.5 0 0 0 -1.94325 -0.405514 -0.0547025 
327 4.15863 1.37271 2.56514 0.5 0 0 0 -0.879731 -0.248754 0.532215 
328 3.56053 0.746072 2.82267 0.5 0 0 0 -1.23032 0.197337 0.970854 
329 4.6547 1.8582 2.7612 0.5 0 0 0 0.287407 -1.6067 -0.422561 
330 3.3792 1.61927 3.26274 0.5 0 0 0 -1.49015 -0.393443 0.612955 
331 4.42014 1.68674 3.2659 0.5 0 0 0 -1.11423 -1.26876 -0.407855 
332 4.72993 0.335381 2.57276 0.5 0 0 0 0.295603 0.868818 -0.287283 
333 2.66868 0.745651 3.45057 0.5 0 0 0 -3.12678 -1.52279 2.19025 
334 4.39709 0.49225 3.23252 0.5 0 0 0 -0.533127 0.856179 -1.84098 
335 5.05888 2.33763 2.86349 0.5 0 0 0 3.04188 -1.00711 -0.903779 
336 4.05518 0.349997 3.25553 0.5 0 0 0 -1.75577 0.27635 -0.965831 
350 2.94785 1.6205 2.671 0.5 0 0 0 -0.331945 -0.23189 1.44433 
338 2.75763 1.04701 3.70241 0.5 0 0 0 -3.05271 -1.44822 1.35403 
339 2.70521 0.89514 2.70663 0.5 0 0 0 -1.0301 -1.15817 2.43852 
340 2.93396 1.02898 3.59674 0.5 0 0 0 -2.76057 -1.00177 1.23851 
341 4.47472 1.99479 3.43292 0.5 0 0 0 -1.11102 -1.62619 0.0347128 
342 4.92134 1.88468 3.61398 0.5 0 0 0 1.08781 -1.75791 0.255024 
343 3.24144 1.5906 2.62381 0.5 0 0 0 -0.676342 -0.187439 1.25353 
349 4.19679 -0.0384159 3.2198 0.5 0 0 0 -1.68688 -1.34801 -1.61048 
345 3.47822 0.0426495 3.05536 0.5 0 0 0 -2.73632 -2.2143 0.525306 
346 3.69693 0.81252 3.53319 0.5 0 0 0 -2.44879 0.196005 0.133105 
347 2.80181 1.66491 2.63694 0.5 0 0 0 -0.102929 -0.190722 1.44762 
348 2.63913 1.65881 2.67644 0.5 0 0 0 0.0402547 -0.424362 1.55992 
352 4.9476 1.25163 3.70678 0.5 0 0 0 1.53041 -0.0804033 -0.468125 
469 4.12803 2.45322 2.60915 0.5 0 0 0 -1.94926 -0.327578 -0.220436 
304 2.73536 0.148565 2.52864 0.5 0 0 0 -1.7313 -2.67692 1.9346 
384 4.55124 0.313807 3.78157 0.5 0 0 0 -1.08605 0.714392 -1.93751 
351 4.81681 0.433185 4.13216 0.5 0 0 0 0.535587 1.2844 -0.255392 
381 3.28514 1.873 4.23841 0.5 0 0 0 -1.69191 -1.05928 -1.04756 
353 3.42785 1.25796 4.13505 0.5 0 0 0 -2.41243 -0.741764 -0.231598 
354 3.93464 1.93868 4.94642 0.5 0 0 0 -0.469414 -0.731156 1.15876 
355 4.89446 2.33383 4.00751 0.5 0 0 0 0.313338 -1.36282 1.33099 
356 4.45179 -0.173173 4.7697 0.5 0 0 0 -1.86007 -2.8127 1.58559 
383 4.13178 0.48475 4.99292 0.5 0 0 0 -2.19915 0.864366 2.56458 
358 5.0929 1.5728 4.75785 0.5 0 0 0 1.28521 -0.321788 1.65882 
359 3.01963 1.92092 4.29427 0.5 0 0 0 -1.64708 -1.29439 -1.07768 
360 4.55822 0.294843 4.19704 0.5 0 0 0 -1.20758 0.680661 -0.312327 
361 5.01071 2.27455 4.16296 0.5 0 0 0 0.815315 -1.71606 1.74483 
362 4.17111 0.254776 4.2464 0.5 0 0 0 -3.31798 0.0156222 -0.205651 
363 3.91127 0.31909 4.53698 0.5 0 0 0 -4.12031 -0.229038 0.557606 
364 2.66472 1.94633 4.90104 0.5 0 0 0 -2.03348 -1.87522 0.775537 
365 3.16969 1.7958 4.59542 0.5 0 0 0 -1.63183 -1.52828 -0.429057 
366 4.61143 0.911576 4.1486 0.5 0 0 0 -0.161749 1.71028 0.501522 
367 3.81675 -0.0602633 3.84489 0.5 0 0 0 -4.38235 -2.21115 0.189317 
368 4.06429 1.84855 4.28442 0.5 0 0 0 -1.15823 -0.718789 -0.0177404 
369 3.49419 1.48241 4.35656 0.5 0 0 0 -1.88358 -0.953653 -0.46872 
370 2.82997 0.443276 4.66007 0.5 0 0 0 -3.54656 -1.08078 0.090051 
371 4.72583 0.250742 4.64225 0.5 0 0 0 0.353971 0.64544 1.6131 
382 3.88417 0.944615 3.84084 0.5 0 0 0 -2.45403 0.362115 -0.0352486 
373 4.63288 0.300496 3.94052 0.5 0 0 0 -0.776913 0.73438 -1.37519 
374 4.53401 0.486208 4.0481 0.5 0 0 0 -1.13014 1.24196 -0.77867 
375 5.0345 0.0100904 4.98314 0.5 0 0 0 3.59462 -1.1869 3.20898 
376 4.10392 1.60788 4.6828 0.5 0 0 0 -0.58253 -0.440862 0.453414 
377 4.01537 2.10371 5.10768 0.5 0 0 0 -0.109988 -0.49493 2.13378 
378 2.91758 1.64262 5.01093 0.5 0 0 0 -1.92856 -2.16825 1.57487 
379 3.53377 0.926492 5.07409 0.5 0 0 0 -2.38327 -0.425514 1.83401 
380 3.06476 2.29046 4.29764 0.5 0 0 0 -1.41919 -1.25231 -1.06819 
385 2.72743 3.16667 0.678628 0.5 0 0 0 -0.259392 0.0375772 0.477817 
386 4.46002 4.72631 0.0499673 0.5 0 0 0 0.670184 0.329257 -0.709504 
387 3.86554 3.94207 0.138869 0.5 0 0 0 0.11932 -0.411019 -0.427974 
388 4.3202 4.0172 1.07918 0.5 0 0 0 -0.817664 -0.172819 -1.10384 
389 3.81848 3.08829 0.794958 0.5 0 0 0 -0.593851 0.0886427 0.755341 
390 3.64731 4.11213 0.128382 0.5 0 0 0 0.0900823 -0.597284 0.0534282 
391 5.05324 4.32999 1.0758 0.5 0 0 0 2.14315 1.08711 -1.2952 
392 4.88879 2.67893 0.295457 0.5 0 0 0 1.32123 0.365116 -0.297421 
393 4.52615 4.58373 0.677715 0.5 0 0 0 -0.0148891 1.27491 -0.991462 
394 2.76375 2.92559 1.08837 0.5 0 0 0 0.017207 -0.151017 1.30105 
395 4.91112 2.95983 0.998611 0.5 0 0 0 1.35496 -0.497205 1.14149 
396 4.08242 3.07659 0.0175028 0.5 0 0 0 -0.343915 0.450795 -1.52525 
397 5.07978 4.04744 0.825039 0.5 0 0 0 2.38238 -0.0625325 -1.6305 
398 2.92734 4.94158 0.00820991 0.5 0 0 0 -0.477143 2.03754 -1.50094 
399 3.38819 4.92149 0.58832 0.5 0 0 0 0.578016 1.09103 -0.33095 
400 3.33768 4.51273 0.419339 0.5 0 0 0 0.195508 -0.603874 0.27592 
401 3.37373 2.65717 0.0719805 0.5 0 0 0 -0.978768 -0.396994 -1.65025 
402 2.72655 3.11912 0.68801 0.5 0 0 0 -0.262861 0.00998391 0.537471 
403 4.76397 3.22273 0.182954 0.5 0 0 0 0.431303 0.481353 -1.34401 
404 4.20748 2.63553 0.142005 0.5 0 0 0 -0.164177 0.531385 -0.893906 
405 4.05946 4.87616 -0.0238902 0.5 0 0 0 0.28278 0.873213 -0.164237 
406 4.20552 3.58906 1.03062 0.5 0 0 0 -0.887347 -0.743086 -0.290769 
407 2.81353 4.2113 -0.0113383 0.5 0 0 0 -0.346719 -0.769301 -1.25044 
408 4.9935 3.11745 0.424441 0.5 0 0 0 1.24827 -0.0506737 -0.253413 
409 3.77205 3.30856 0.562627 0.5 0 0 0 -0.535886 0.0680858 0.0361753 
410 3.87007 2.62727 0.885781 0.5 0 0 0 -0.532527 0.714064 1.23158 
411 4.18382 2.65307 1.06402 0.5 0 0 0 -0.135352 0.559363 1.46058 
412 3.09159 3.18162 0.446709 0.5 0 0 0 -0.480418 0.0500298 0.0614881 
413 2.9187 3.71694 0.925146 0.5 0 0 0 -0.225707 -0.363114 0.330753 
414 2.70955 4.4843 0.643287 0.5 0 0 0 -0.107174 -0.930268 0.142364 
415 2.63879 4.93667 1.11349 0.5 0 0 0 -1.07915 0.886351 -0.319877 
417 3.08579 3.60768 0.193222 0.5 0 0 0 -0.439147 -0.300434 -0.622328 
418 4.81607 4.17572 1.6567 0.5 0 0 0 0.591382 -0.344402 0.0452623 
419 2.97104 3.77731 2.20128 0.5 0 0 0 0.527118 -1.67738 0.597764 
420 4.87673 3.94973 2.41376 0.5 0 0 0 0.274829 -1.57632 0.67718 
421 4.87511 4.5704 1.80973 0.5 0 0 0 1.01151 1.67479 -0.455574 
422 4.26911 4.54909 1.75393 0.5 0 0 0 0.210647 0.978854 0.159609 
423 3.64884 4.60708 1.39653 0.5 0 0 0 0.361054 0.133724 -1.23181 
424 4.35686 3.80957 1.43823 0.5 0 0 0 -0.729145 -1.16532 0.524542 
425 2.78397 3.15329 1.33966 0.5 0 0 0 0.223659 -0.29363 1.28218 
426 3.24265 4.5535 2.11578 0.5 0 0 0 0.105249 -0.9084 1.66012 
427 3.29534 4.61705 1.65763 0.5 0 0 0 -0.180083 -0.610708 -0.144499 
428 4.92768 4.31069 2.00987 0.5 0 0 0 0.632355 -0.199156 0.09953 
429 3.19584 4.83428 1.72876 0.5 0 0 0 -0.356612 0.28354 0.170783 
430 2.95764 4.84836 1.32106 0.5 0 0 0 -0.875936 0.354229 -0.984242 
431 3.50765 2.67592 2.37492 0.5 0 0 0 -0.87448 -0.138915 0.589053 
432 3.95776 2.50817 1.48001 0.5 0 0 0 -0.67494 0.427639 1.94287 
433 2.74246 4.3553 2.39778 0.5 0 0 0 -0.216773 -1.01731 0.873537 
434 3.13473 4.50779 1.94043 0.5 0 0 0 -0.332026 -1.07921 0.870679 
435 3.61635 4.6595 1.62656 0.5 0 0 0 0.532151 0.085095 -0.176527 
436 3.34107 3.27576 2.05507 0.5 0 0 0 -0.141782 -0.940335 0.961123 
437 3.80655 3.9833 1.78454 0.5 0 0 0 -0.714567 -1.51618 0.940776 
438 5.00235 3.5283 1.86043 0.5 0 0 0 1.73063 -1.93265 0.236704 
439 4.48504 4.48045 2.45638 0.5 0 0 0 -0.699917 0.100536 1.44683 
440 2.64624 3.87468 2.23009 0.5 0 0 0 0.37467 -1.16788 0.247905 
441 2.92967 4.74914 2.12022 0.5 0 0 0 -0.681666 -0.00187409 1.10784 
442 3.06368 4.58908 1.3818 0.5 0 0 0 -0.702499 -0.753022 -1.05743 
443 3.87393 4.11949 1.96441 0.5 0 0 0 -0.426143 -1.36552 1.4437 
444 2.67806 4.3564 1.89243 0.5 0 0 0 -0.768881 -0.93349 -0.157712 
445 4.42925 3.75365 1.23855 0.5 0 0 0 -0.571407 -1.03446 -0.0131103 
446 4.16136 3.88014 2.29143 0.5 0 0 0 -0.971779 -1.56499 1.40256 
447 3.98413 3.8338 1.70991 0.5 0 0 0 -1.00341 -1.50688 1.02251 
448 4.54614 2.8292 2.2281 0.5 0 0 0 -0.167336 0.272932 -0.26509 
449 3.08114 3.86142 1.29596 0.5 0 0 0 -0.376896 -0.892137 0.016002 
450 3.483 3.36566 1.39672 0.5 0 0 0 -0.555937 -0.723539 1.08939 
416 4.43939 3.86705 1.2623 0.5 0 0 0 -0.553461 -0.823821 -0.162318 
203 2.54258 2.99443 1.48495 0.5 0 0 0 0.543052 -0.349881 1.11903 
322 2.89681 2.52125 1.86351 0.5 0 0 0 0.201414 -0.0969001 1.343 
314 4.95154 2.49957 1.43987 0.5 0 0 0 2.18022 0.0170286 0.881041 
479 2.67201 3.66333 3.67497 0.5 0 0 0 -0.203283 -1.64074 -0.627232 
453 4.81673 2.73412 3.2535 0.5 0 0 0 0.831752 0.571422 -0.423158 
454 3.96861 3.31053 2.81272 0.5 0 0 0 -1.04514 -0.0947111 0.106196 
455 2.9786 4.28331 3.66018 0.5 0 0 0 -0.726469 -0.931966 -1.0244 
456 2.78681 4.65171 3.10914 0.5 0 0 0 -0.203223 -0.442486 0.326353 
457 3.04669 4.89391 2.94079 0.5 0 0 0 0.553127 0.687031 0.706037 
458 3.38148 3.15475 2.90913 0.5 0 0 0 -0.536571 -0.877601 0.204821 
459 4.79833 4.06688 2.63942 0.5 0 0 0 -0.128153 -1.05994 1.14743 
460 4.3388 2.93317 3.14829 0.5 0 0 0 -1.2846 1.0557 -0.479599 
461 4.46961 4.44766 2.57147 0.5 0 0 0 -0.803992 -0.0313347 1.57321 
462 4.70144 4.99921 2.54255 0.5 0 0 0 0.456913 4.60247 1.38131 
463 4.41338 2.63817 2.73773 0.5 0 0 0 -1.22611 -0.0024416 -0.778276 
464 3.08229 3.82562 3.12878 0.5 0 0 0 0.298962 -1.73456 -0.110316 
465 3.57021 3.93289 3.56067 0.5 0 0 0 0.454556 -1.2272 -1.19869 
466 4.19206 2.57746 3.01757 0.5 0 0 0 -2.12589 -0.251476 -0.640459 
467 3.47467 4.4369 3.46201 0.5 0 0 0 0.871026 -0.333504 -0.872451 
468 4.83205 2.71881 2.53954 0.5 0 0 0 1.39736 0.238131 -0.966689 
344 4.18939 2.52631 3.41191 0.5 0 0 0 -2.05242 -0.494571 0.00250812 
470 4.48469 2.5291 3.64937 0.5 0 0 0 -1.05984 -0.473952 0.53838 
471 3.84038 4.76543 3.03905 0.5 0 0 0 0.428592 1.21797 0.48936 
451 2.79986 3.79809 2.49961 0.5 0 0 0 0.673101 -1.50335 0.668439 
473 2.91846 5.08611 3.74857 0.5 0 0 0 -0.149533 2.6778 0.232608 
474 4.50733 2.85757 3.6255 0.5 0 0 0 -0.710862 1.04249 0.308565 
478 3.989 2.61315 3.41298 0.5 0 0 0 -2.49926 -0.216055 -0.0580246 
476 4.67836 3.70549 3.01079 0.5 0 0 0 0.0893535 -0.00661042 0.817153 
477 2.80107 4.25511 2.5663 0.5 0 0 0 0.0882225 -1.26934 0.940704 
337 4.00853 2.47712 3.28526 0.5 0 0 0 -2.56706 -0.587911 -0.210819 
475 4.80453 4.05407 3.78608 0.5 0 0 0 0.939232 -0.0504937 -0.155904 
480 3.58954 3.80888 4.79313 0.5 0 0 0 1.28063 -1.32199 0.955202 
481 4.13979 3.02607 4.95779 0.5 0 0 0 -0.268064 -1.47015 2.14225 
482 3.77862 3.59844 4.0078 0.5 0 0 0 0.420616 -0.998498 -1.09694 
483 4.40531 4.8875 4.10611 0.5 0 0 0 0.262948 0.50033 -1.7514 
484 3.17257 4.00242 3.9681 0.5 0 0 0 -0.446831 -1.44895 -1.51109 
485 3.66543 3.93623 4.40885 0.5 0 0 0 1.30958 -0.835942 -0.600757 
486 4.72061 4.70312 4.34975 0.5 0 0 0 -0.0981747 -0.899006 -1.3661 
487 3.27989 3.12527 4.27902 0.5 0 0 0 -0.66468 -1.98177 -0.831733 
488 4.67013 3.1766 4.66623 0.5 0 0 0 0.0222572 0.0685594 0.971169 
489 3.35018 4.83713 5.08974 0.5 0 0 0 -0.173502 3.09022 3.98332 
490 3.58041 3.44621 4.24508 0.5 0 0 0 -0.0363619 -1.73954 -0.884308 
491 3.71319 4.11091 4.82949 0.5 0 0 0 2.05135 -0.117086 1.33689 
492 2.664 3.19062 4.79125 0.5 0 0 0 -1.28702 -2.59096 0.922998 
493 4.51495 3.66926 4.72374 0.5 0 0 0 1.18575 0.523213 0.678135 
494 3.42613 3.64514 5.12504 0.5 0 0 0 0.777656 -2.09048 3.3119 
495 2.6833 4.06724 4.41671 0.5 0 0 0 -1.05373 -0.908367 -1.15861 
496 2.62237 3.80935 4.95757 0.5 0 0 0 -1.37832 -1.7767 1.45777 
497 3.38169 4.37698 3.9444 0.5 0 0 0 0.446702 -0.250726 -1.31601 
357 3.44984 2.49539 4.63855 0.5 0 0 0 -0.880721 -1.29874 0.135075 
499 3.95607 2.50645 4.05608 0.5 0 0 0 -1.53378 -0.749091 0.251144 
500 4.65467 4.93223 4.97399 0.5 0 0 0 -0.725011 -0.119523 1.69266 
501 4.62616 4.8156 4.90395 0.5 0 0 0 -0.283505 -0.293766 1.2926 
502 2.68186 3.97566 4.77886 0.5 0 0 0 -0.998857 -1.16845 0.287558 
503 2.93974 4.25916 4.55901 0.5 0 0 0 -0.375588 -0.128597 -0.685893 
504 3.55114 3.30535 4.29101 0.5 0 0 0 -0.23465 -1.87476 -0.698604 
505 3.69577 4.8226 4.28552 0.5 0 0 0 1.42006 1.7744 -0.194307 
506 4.09436 4.02173 3.97423 0.5 0 0 0 1.82433 0.0294063 -0.947236 
507 4.9127 2.81898 3.94309 0.5 0 0 0 0.48318 0.989992 0.557237 
508 2.87514 3.9281 4.68635 0.5 0 0 0 -0.391705 -1.40766 -0.269394 
509 3.30514 4.75551 4.40391 0.5 0 0 0 0.17883 1.78581 -0.100188 
510 3.08449 4.49513 4.06087 0.5 0 0 0 -0.596 0.201669 -1.22203 
511 2.64437 3.03165 4.50455 0.5 0 0 0 -1.02995 -2.20822 -0.12622 
512 2.66599 2.82479 4.36837 0.5 0 0 0 -0.847019 -1.88593 -0.44252 
513 4.86973 3.02688 4.29851 0.5 0 0 0 0.304286 1.03359 0.591044 
ITEM: TIMESTEP
60071
ITEM: NUMBER OF ATOMS
512
ITEM: BOX BOUNDS ss ss ss
-2.1589663964569298e-02 5.0933846546203574e+00
-1.7364439631764822e-01 5.0865807164741392e+00
-1.8176655292622759e-01 5.1255068607205727e+00
ITEM: ATOMS id x y z width_SPH x_COM y_COM z_COM vx vy vz 
2 0.301055 0.775931 0.246861 0.5 0 0 0 -1.37914 -0.579456 0.0688689 
3 0.259426 1.291 0.605722 0.5 0 0 0 -2.08427 -0.964612 0.287788 
4 0.787478 1.24764 1.03677 0.5 0 0 0 -0.386209 -0.340098 0.749167 
5 1.73539 1.8934 0.823939 0.5 0 0 0 0.958469 0.352074 0.22115 
6 0.274186 2.07866 0.848538 0.5 0 0 0 -2.11838 0.860403 1.16648 
7 0.546653 1.58453 0.342543 0.5 0 0 0 -0.688629 -0.372041 -0.682037 
8 1.33606 0.225895 0.773369 0.5 0 0 0 0.0500233 -0.6854 1.18404 
9 1.53469 0.986433 0.331375 0.5 0 0 0 0.773997 0.260658 -0.747351 
10 1.11159 1.53603 -0.0685692 0.5 0 0 0 0.983769 -0.388477 -2.84955 
11 1.39605 1.22774 0.79617 0.5 0 0 0 0.782237 0.13001 0.282661 
38 1.08307 2.32881 0.776654 0.5 0 0 0 0.516784 0.421745 0.862926 
41 2.23084 2.37931 1.0229 0.5 0 0 0 0.351345 -0.202256 0.556546 
14 1.2605 2.06321 0.329269 0.5 0 0 0 1.32256 0.117805 -0.380237 
15 1.54695 0.039468 0.976134 0.5 0 0 0 1.23301 -1.50685 2.12367 
37 0.636898 0.390262 0.353986 0.5 0 0 0 -1.47719 -0.586506 0.379758 
17 1.08138 0.119431 0.519719 0.5 0 0 0 -1.29662 -0.687345 0.538459 
18 1.50826 -0.016493 0.0458915 0.5 0 0 0 0.0210198 -0.949633 -1.15213 
40 1.99514 0.669573 0.604468 0.5 0 0 0 1.39253 -0.198011 0.904815 
20 0.369811 1.75927 1.0479 0.5 0 0 0 -1.73129 0.350013 1.2856 
21 1.878 1.79469 0.745542 0.5 0 0 0 1.08064 0.226335 -0.00308868 
22 0.552784 2.4223 0.409941 0.5 0 0 0 -0.558232 0.212975 0.65749 
39 0.791152 1.5785 0.810202 0.5 0 0 0 0.14069 0.227588 0.40894 
24 0.00339497 0.598282 0.0816942 0.5 0 0 0 -2.72781 -0.779842 -0.13367 
25 1.95437 0.260596 0.581888 0.5 0 0 0 1.68396 -0.755049 1.36419 
26 1.35582 0.89095 0.584786 0.5 0 0 0 0.399538 0.0193021 -0.00984716 
27 0.86467 1.81411 0.900157 0.5 0 0 0 0.377388 0.670871 0.691797 
28 2.15664 0.959749 0.359458 0.5 0 0 0 0.883493 0.501523 -0.22998 
29 2.42448 1.35996 0.269403 0.5 0 0 0 0.107994 1.0177 -1.19042 
30 1.3992 0.242427 0.884069 0.5 0 0 0 0.488735 -0.821764 1.45697 
31 1.65838 1.51848 0.685685 0.5 0 0 0 1.2023 0.36212 0.010227 
32 1.30154 2.09592 0.250952 0.5 0 0 0 1.47627 0.00634264 -0.708876 
33 1.46277 1.14326 0.72176 0.5 0 0 0 0.856741 0.0701099 0.199794 
34 0.622253 2.08924 -0.0271345 0.5 0 0 0 -0.447963 -0.575346 -2.02292 
35 1.77117 0.0448036 -0.128831 0.5 0 0 0 1.17612 -0.864504 -2.25441 
36 0.968307 0.88323 0.078609 0.5 0 0 0 0.0956195 0.0328104 -1.4796 
144 0.0211852 2.45507 0.114566 0.5 0 0 0 -3.16806 -0.780075 -1.09892 
43 1.54525 0.0677157 1.95233 0.5 0 0 0 1.54676 -2.05886 2.27928 
44 1.36473 2.35713 1.90941 0.5 0 0 0 0.77326 -0.347996 0.538719 
45 1.33381 1.11988 1.48553 0.5 0 0 0 0.476502 -0.198923 1.55748 
46 1.38772 2.23672 2.32626 0.5 0 0 0 0.77305 -0.849665 1.17322 
47 1.3959 1.26087 1.91898 0.5 0 0 0 -0.0998243 -0.503565 2.36781 
48 1.18006 0.81249 1.47866 0.5 0 0 0 0.169876 -0.426945 1.76227 
49 2.47935 2.34211 1.69818 0.5 0 0 0 0.557994 -0.173287 1.19152 
50 0.891244 0.608878 1.6702 0.5 0 0 0 -1.07935 -0.542149 2.51078 
51 1.96893 0.939581 1.80625 0.5 0 0 0 0.474645 -1.0968 1.64681 
52 0.671604 1.64139 1.33341 0.5 0 0 0 -0.66915 0.0976736 1.61559 
53 2.1247 1.44177 1.71791 0.5 0 0 0 0.456167 0.123582 0.952343 
54 0.390176 0.0429112 2.20343 0.5 0 0 0 -1.55322 -1.2515 0.558052 
55 1.73185 1.84185 1.70753 0.5 0 0 0 0.650484 0.164869 0.906633 
16 2.25737 2.0163 1.1787 0.5 0 0 0 0.457615 -0.0719325 0.552919 
57 2.38803 1.07706 1.62869 0.5 0 0 0 0.472589 -0.693363 0.755444 
58 1.78529 0.149182 2.23912 0.5 0 0 0 1.03266 -2.02263 2.71627 
59 1.24236 0.582599 2.37881 0.5 0 0 0 0.260646 -0.272297 3.92126 
60 0.669145 1.69642 1.57453 0.5 0 0 0 -0.979927 -0.221885 2.09603 
61 1.33412 0.300392 1.71433 0.5 0 0 0 0.887275 -1.21199 2.26357 
78 1.05745 1.89882 1.61754 0.5 0 0 0 0.147237 0.000524617 1.16131 
63 2.01584 1.57785 2.03483 0.5 0 0 0 0.30075 -0.054201 1.40505 
64 0.517033 0.35762 2.37909 0.5 0 0 0 -0.565256 0.530402 2.62112 
65 1.06184 1.77543 2.19874 0.5 0 0 0 -0.468616 -1.40526 2.12131 
66 2.34198 0.861936 2.01784 0.5 0 0 0 0.0264785 -1.35146 1.6745 
67 1.10297 0.688531 2.0263 0.5 0 0 0 -0.327857 -0.221826 3.45703 
68 2.05806 1.47707 1.72368 0.5 0 0 0 0.443845 0.165814 1.00096 
69 1.40306 0.742941 2.26944 0.5 0 0 0 -0.0126965 -0.601931 3.56694 
77 0.387383 1.54418 1.42856 0.5 0 0 0 -2.2289 -0.477404 2.42526 
71 0.737595 0.5321 1.43848 0.5 0 0 0 -1.94544 -0.911201 1.66721 
72 1.00639 2.24107 2.44179 0.5 0 0 0 0.00217924 -1.25802 1.46169 
73 2.05738 1.03318 1.69109 0.5 0 0 0 0.568025 -0.882778 1.23016 
74 2.23184 1.01521 2.36175 0.5 0 0 0 -0.384273 -1.45765 2.51903 
75 0.0297579 2.31119 2.22174 0.5 0 0 0 -2.35303 -1.6149 0.705439 
76 0.971333 1.10814 1.45356 0.5 0 0 0 -0.382573 -0.281267 1.81091 
12 1.34529 1.51116 1.24546 0.5 0 0 0 0.68371 0.377308 0.874132 
13 1.86621 1.32627 1.2581 0.5 0 0 0 0.996978 -0.0560676 0.662334 
312 2.49224 -0.0785607 1.66922 0.5 0 0 0 -0.146788 -2.9459 1.29964 
42 1.22906 0.726338 1.23556 0.5 0 0 0 0.35316 -0.502417 1.1591 
79 1.43519 2.24236 3.26307 0.5 0 0 0 0.0223922 -2.28927 1.21435 
80 0.722444 0.183726 2.71179 0.5 0 0 0 1.47956 0.523531 2.97285 
81 1.07278 0.414991 2.90583 0.5 0 0 0 1.62679 0.318594 4.42163 
82 1.30862 1.94322 2.75297 0.5 0 0 0 -0.307576 -2.04011 1.90997 
83 1.70365 2.04277 2.87995 0.5 0 0 0 0.281027 -1.52927 1.51927 
84 1.24768 0.840073 3.71742 0.5 0 0 0 1.3346 -3.77945 4.56253 
85 2.02471 1.84019 2.82635 0.5 0 0 0 0.380611 -1.35914 1.64397 
106 1.36418 1.31961 2.61109 0.5 0 0 0 -0.88998 -2.18669 3.2592 
87 0.898791 2.29173 3.34264 0.5 0 0 0 -0.293876 -2.93005 0.785251 
88 1.94611 1.38118 2.97944 0.5 0 0 0 -0.74501 -2.92603 2.85477 
89 1.47552 0.236489 3.78197 0.5 0 0 0 0.21955 1.79093 4.58102 
100 0.580244 2.1647 2.54008 0.5 0 0 0 -0.486516 -1.98823 1.75434 
91 1.72848 1.44582 2.74129 0.5 0 0 0 -0.619499 -2.43805 2.67722 
92 0.127763 2.09689 2.83731 0.5 0 0 0 -1.29452 -2.82363 1.5505 
93 0.715289 0.310076 2.79202 0.5 0 0 0 1.35813 0.930411 3.27143 
94 1.45135 1.943 2.62581 0.5 0 0 0 0.0977389 -1.59537 1.72398 
95 2.18938 2.14758 3.16347 0.5 0 0 0 0.868232 -1.23575 1.36448 
96 0.949787 1.87737 2.59394 0.5 0 0 0 -0.661376 -2.26216 2.27301 
97 1.79654 0.47084 3.60669 0.5 0 0 0 -2.34255 -1.28806 5.27495 
98 0.273036 1.57183 2.88925 0.5 0 0 0 -0.472579 -2.69556 1.9901 
99 2.15148 1.76572 3.33726 0.5 0 0 0 -0.0623819 -2.43024 1.94132 
105 0.748317 0.114095 3.13352 0.5 0 0 0 2.4239 0.805825 3.0757 
186 0.405522 2.44494 2.60323 0.5 0 0 0 -0.466317 -1.47819 1.20441 
102 1.84309 1.71235 3.01667 0.5 0 0 0 -0.358364 -2.4564 2.17465 
103 0.428597 1.03809 3.21401 0.5 0 0 0 1.2869 -1.21716 2.32734 
231 1.26226 2.35113 3.50859 0.5 0 0 0 0.166531 -2.64001 0.96128 
62 2.18333 1.76448 2.56416 0.5 0 0 0 0.45051 -0.647156 1.47222 
131 1.85476 1.65837 3.77351 0.5 0 0 0 -0.993864 -4.30596 2.03112 
56 2.44014 0.522569 2.48153 0.5 0 0 0 -0.939944 -1.8335 2.60191 
107 1.79923 0.179204 4.53983 0.5 0 0 0 -2.45783 2.41497 -3.09023 
108 1.07475 1.50088 4.4532 0.5 0 0 0 2.22974 -3.92919 -0.410826 
109 1.80419 0.539854 4.27431 0.5 0 0 0 -4.08302 -0.270207 -1.0621 
110 1.90994 0.686703 4.17966 0.5 0 0 0 -4.68627 -2.33681 0.535297 
139 1.01002 0.534249 4.8421 0.5 0 0 0 4.18329 -0.557621 -2.80634 
112 1.75816 0.697996 4.6654 0.5 0 0 0 -1.9489 -1.78474 -4.66953 
113 1.92755 1.25302 4.43647 0.5 0 0 0 -2.16224 -4.87583 -0.595464 
114 0.873025 0.925225 4.48011 0.5 0 0 0 4.96993 -2.01792 -2.19313 
115 1.84019 0.570503 4.46818 0.5 0 0 0 -3.72942 -0.563725 -3.38028 
116 0.780082 0.159626 4.30329 0.5 0 0 0 4.86675 0.454653 -1.14689 
117 0.976243 0.936259 4.21247 0.5 0 0 0 4.88908 -3.28004 -0.842576 
138 0.027368 1.19266 4.38545 0.5 0 0 0 0.0333231 -1.92589 0.369921 
119 0.767845 1.80936 4.39848 0.5 0 0 0 1.55608 -2.82256 0.538746 
120 1.48918 0.684104 4.13283 0.5 0 0 0 0.291257 -2.81514 1.22382 
121 1.88095 0.771551 3.94803 0.5 0 0 0 -3.88968 -3.60994 3.38571 
122 0.20366 -0.136034 4.07609 0.5 0 0 0 1.17966 -1.13936 0.140626 
123 1.2201 0.0988117 4.57302 0.5 0 0 0 3.27537 1.89718 -2.95635 
124 0.694249 0.48942 4.10318 0.5 0 0 0 4.98889 -0.112436 -0.715148 
125 1.57983 0.388118 4.1862 0.5 0 0 0 -1.13361 2.13322 0.184468 
126 1.32392 0.547609 4.31047 0.5 0 0 0 3.62843 -0.260759 -2.29445 
127 1.22247 2.04542 4.70512 0.5 0 0 0 0.529067 -2.49873 0.738639 
128 1.13276 0.893301 4.24917 0.5 0 0 0 4.63094 -3.84381 -1.04811 
129 0.157214 1.59081 4.15841 0.5 0 0 0 1.00244 -2.69925 -0.13045 
130 0.546456 0.828475 4.34958 0.5 0 0 0 3.60274 -1.03144 -1.40423 
137 0.139754 2.14502 3.86316 0.5 0 0 0 -0.174226 -3.34817 -0.349386 
132 2.24816 1.87938 3.83285 0.5 0 0 0 -0.369879 -2.65504 1.08219 
133 1.3657 0.564183 4.27384 0.5 0 0 0 2.91054 -0.547919 -1.67064 
134 1.70918 2.16354 4.92569 0.5 0 0 0 -0.345915 -2.3007 0.35602 
135 2.26417 0.167799 4.66813 0.5 0 0 0 -2.70229 -0.457242 -0.977889 
136 1.59585 1.61779 4.25902 0.5 0 0 0 -0.174874 -5.05039 0.598195 
86 1.99543 1.44375 3.89323 0.5 0 0 0 -1.58174 -4.76339 2.01592 
252 1.97124 2.33459 4.62375 0.5 0 0 0 -0.380386 -2.50458 -0.187756 
372 2.44554 0.70362 4.33782 0.5 0 0 0 -4.58146 -1.31111 -0.490243 
111 1.47988 2.39442 3.94322 0.5 0 0 0 0.573416 -2.60425 1.12596 
90 1.33534 1.25019 3.83518 0.5 0 0 0 0.0442568 -5.92774 2.69798 
104 1.86756 1.04359 3.82197 0.5 0 0 0 -2.65225 -5.30329 3.62837 
118 2.50959 1.6731 4.55116 0.5 0 0 0 -2.00901 -2.35961 -0.414609 
101 1.63831 0.949579 3.80759 0.5 0 0 0 -1.76178 -5.38778 4.47987 
140 2.46899 2.49534 0.521338 0.5 0 0 0 -0.128901 -0.497106 0.0925422 
141 0.969148 3.25075 0.881216 0.5 0 0 0 -0.68758 -0.0542416 0.763195 
142 1.05819 3.61895 0.280843 0.5 0 0 0 0.0762406 0.567424 -0.30517 
143 0.613287 3.01274 0.597918 0.5 0 0 0 -0.779411 -0.0736935 1.18852 
167 1.3425 2.79902 0.683511 0.5 0 0 0 0.862576 -0.28523 0.459322 
168 1.60813 2.59703 0.915717 0.5 0 0 0 0.694593 -0.0649772 0.373866 
146 1.06775 3.21913 0.367264 0.5 0 0 0 0.56498 -0.407096 0.137511 
147 0.573218 4.49282 0.517005 0.5 0 0 0 1.15786 -0.171512 0.303701 
148 1.97431 3.78988 0.433878 0.5 0 0 0 0.683031 -0.368951 -0.37925 
149 0.683851 3.59682 0.0907872 0.5 0 0 0 -0.319997 1.05821 -0.716999 
150 1.89594 4.42723 0.806373 0.5 0 0 0 -0.262436 0.0303674 0.357119 
151 0.0449866 3.44437 0.106179 0.5 0 0 0 -1.64525 0.617825 -0.0464429 
152 1.35725 3.63101 1.14385 0.5 0 0 0 0.11307 -0.00935932 0.199513 
153 2.20121 4.40131 0.258866 0.5 0 0 0 -0.2524 -0.13362 -0.978036 
154 2.3391 4.58275 0.684234 0.5 0 0 0 -0.385 -0.355658 0.255406 
155 1.29543 3.739 0.711873 0.5 0 0 0 -0.0562982 0.396007 0.295771 
156 0.448861 4.37762 1.0583 0.5 0 0 0 -0.637608 -0.993221 1.12878 
157 2.28879 2.65211 1.12402 0.5 0 0 0 0.333583 -0.230734 0.723482 
158 1.97602 4.15403 0.975272 0.5 0 0 0 0.404539 -0.540367 0.510218 
159 1.30202 3.80288 0.707775 0.5 0 0 0 -0.132015 0.516266 0.258984 
160 2.25978 2.64392 -0.0733014 0.5 0 0 0 -0.478477 -0.501405 -2.67295 
23 0.962135 2.54199 0.248238 0.5 0 0 0 0.775242 -0.195279 -0.0476525 
162 1.69243 3.28375 0.688212 0.5 0 0 0 1.10812 -0.412004 0.186946 
163 0.0413295 4.44313 0.0101755 0.5 0 0 0 0.22773 -0.442929 -0.60938 
164 2.14712 2.84689 0.191508 0.5 0 0 0 -0.0992004 -0.121537 -1.1024 
165 0.0909448 3.27534 0.31376 0.5 0 0 0 -1.79334 0.168311 0.889059 
166 2.19765 3.29178 0.984015 0.5 0 0 0 0.426619 -0.0728585 0.437575 
169 0.463446 3.13038 2.39827 0.5 0 0 0 -0.761619 0.716159 0.0717114 
170 1.91535 3.15614 2.11444 0.5 0 0 0 0.849983 -0.609228 0.276121 
171 0.0731224 4.12223 2.28627 0.5 0 0 0 -2.32459 -0.638973 -1.31683 
172 1.10385 2.49108 1.83479 0.5 0 0 0 0.113704 -0.0898084 0.28715 
173 1.82174 3.36307 1.88121 0.5 0 0 0 0.624456 -0.353023 -0.192786 
174 1.26915 2.64237 1.45142 0.5 0 0 0 0.152439 0.068595 0.0522523 
175 1.5165 4.31087 1.98113 0.5 0 0 0 0.608819 -0.492245 -0.249127 
176 1.55215 2.54248 1.97066 0.5 0 0 0 1.07772 -0.388554 0.455848 
177 -0.000872721 2.86161 2.38797 0.5 0 0 0 -2.34367 0.446025 0.184783 
178 1.44946 3.12326 1.43829 0.5 0 0 0 0.262658 -0.115135 -0.0447015 
179 2.14586 3.06959 2.45799 0.5 0 0 0 1.21844 -1.04109 0.798676 
180 1.15672 3.75587 1.50516 0.5 0 0 0 -0.819939 -0.0253798 -0.175305 
181 1.90675 4.8254 1.69836 0.5 0 0 0 -0.11006 0.569138 -0.33847 
182 1.13561 4.0265 1.86656 0.5 0 0 0 -0.897726 -0.269056 -0.176359 
183 1.54777 4.578 2.2453 0.5 0 0 0 0.407828 -0.184496 0.381975 
184 0.375307 2.61523 1.7266 0.5 0 0 0 -1.25193 0.288665 -0.281856 
185 1.31385 4.74035 2.28151 0.5 0 0 0 -0.397743 0.234661 0.573724 
204 1.32469 2.72488 2.02243 0.5 0 0 0 0.411332 -0.151409 0.337905 
187 1.38995 2.5981 2.25108 0.5 0 0 0 0.729144 -0.475108 0.78568 
188 1.50496 3.99844 2.40065 0.5 0 0 0 0.211202 -0.474668 0.650951 
189 1.72033 3.51607 2.26762 0.5 0 0 0 0.268687 -0.402688 0.325114 
202 0.972521 3.69504 1.79271 0.5 0 0 0 -1.44563 -0.0254607 -0.100554 
191 2.16537 2.98689 2.46313 0.5 0 0 0 1.31923 -1.07884 0.829752 
192 1.88901 3.66891 2.05625 0.5 0 0 0 0.648533 -0.477152 -0.12045 
193 0.891344 3.87886 2.4315 0.5 0 0 0 -1.18046 -0.0753161 0.529376 
194 0.584983 3.06103 2.15149 0.5 0 0 0 -0.561634 0.719617 -0.131383 
195 1.99794 2.84629 1.96781 0.5 0 0 0 1.27017 -0.681287 0.435282 
196 1.34713 4.40977 1.55938 0.5 0 0 0 -0.112881 0.0288054 -0.882871 
190 1.78495 4.93382 1.1726 0.5 0 0 0 -1.13941 1.8513 -0.304656 
198 0.864708 4.5435 2.00967 0.5 0 0 0 -2.1147 0.135878 -0.143085 
199 1.34387 3.07488 2.36975 0.5 0 0 0 -0.0318061 -0.265269 0.531324 
200 2.34843 5.02929 2.31953 0.5 0 0 0 -0.796875 1.59987 0.324381 
201 0.447625 2.72568 2.13465 0.5 0 0 0 -0.558402 0.0893471 0.113428 
70 0.869077 2.53772 2.15016 0.5 0 0 0 -0.0074536 -0.379537 0.682909 
145 2.08491 2.5666 1.35062 0.5 0 0 0 0.613483 -0.220206 0.593894 
161 0.304204 3.15922 1.21597 0.5 0 0 0 -2.20408 0.586611 0.685949 
205 1.20045 3.53231 3.03398 0.5 0 0 0 0.0678487 -0.334027 0.264395 
206 1.96354 4.32896 3.0356 0.5 0 0 0 -0.110265 -0.374474 0.795676 
207 0.125247 4.09144 3.71369 0.5 0 0 0 -0.808871 -0.464171 0.10916 
208 0.843592 2.50923 3.69925 0.5 0 0 0 0.234163 -2.55692 0.728877 
209 1.51897 3.92171 3.16326 0.5 0 0 0 0.196407 -0.117589 0.840589 
210 1.84193 3.57401 3.51447 0.5 0 0 0 0.186008 -0.797568 0.527489 
211 1.88266 3.75203 2.61169 0.5 0 0 0 0.452289 -0.560289 0.722424 
212 1.26728 4.95011 2.96344 0.5 0 0 0 -0.263375 0.344927 0.888357 
213 2.05997 3.14167 2.58517 0.5 0 0 0 0.926579 -0.95222 0.886774 
214 1.24451 3.27321 3.65915 0.5 0 0 0 0.794257 -0.803011 0.932487 
215 0.72358 3.1322 3.31571 0.5 0 0 0 -0.405259 -0.703725 -0.116955 
216 0.445425 3.1858 3.33118 0.5 0 0 0 -1.08576 -0.462277 -0.477947 
217 2.47751 2.71685 2.75587 0.5 0 0 0 1.3973 -1.20607 0.862045 
218 2.3856 5.03043 3.71336 0.5 0 0 0 -0.964619 1.53899 0.410942 
219 1.09024 2.61489 3.18493 0.5 0 0 0 0.202241 -1.6943 0.472061 
220 2.3237 4.8339 2.95769 0.5 0 0 0 -0.618012 0.361545 0.828761 
221 1.05556 3.48504 3.60298 0.5 0 0 0 0.438432 -0.233144 0.805244 
222 2.43947 3.20193 3.0653 0.5 0 0 0 0.899377 -1.47819 0.585505 
223 1.90845 2.5835 3.33421 0.5 0 0 0 1.00389 -1.39156 0.908051 
224 0.51884 4.9229 3.11834 0.5 0 0 0 -0.680203 1.04936 -0.188448 
225 0.511126 3.84252 3.64451 0.5 0 0 0 -0.152875 0.0961451 0.347043 
226 0.947697 4.03003 2.86602 0.5 0 0 0 -0.664858 0.111347 0.686469 
227 1.10353 3.04116 3.11188 0.5 0 0 0 0.291875 -0.946497 0.135917 
228 0.260909 4.35829 2.60106 0.5 0 0 0 -1.13169 -0.263857 -0.406413 
229 0.262291 4.30495 3.51799 0.5 0 0 0 -0.219798 -0.166077 -0.264812 
230 1.60814 2.91279 3.13403 0.5 0 0 0 0.859905 -1.11713 0.637789 
234 1.25336 3.65657 3.14788 0.5 0 0 0 0.170561 -0.17767 0.462574 
232 2.45704 3.29093 3.07977 0.5 0 0 0 0.789086 -1.45297 0.514948 
233 1.25657 4.7676 3.4016 0.5 0 0 0 0.262799 -0.270146 0.63171 
472 2.51544 4.84304 2.81896 0.5 0 0 0 -0.522594 0.376603 0.8604 
251 1.85862 2.53245 3.78308 0.5 0 0 0 0.796279 -1.9706 0.861855 
452 2.41993 3.93784 3.55703 0.5 0 0 0 -0.618541 -0.767719 -0.227193 
254 1.67058 4.93834 3.76207 0.5 0 0 0 -0.108472 -0.0065493 -0.126825 
197 1.56003 4.63702 2.47551 0.5 0 0 0 0.19449 -0.04319 0.939165 
235 1.25867 4.88885 4.11646 0.5 0 0 0 -0.0651409 -0.422476 -0.499996 
236 2.01963 3.92687 3.99277 0.5 0 0 0 -1.36741 -0.449674 -0.153232 
237 0.594825 2.54954 3.92612 0.5 0 0 0 0.437815 -2.27655 0.911891 
238 0.923659 4.77169 4.37611 0.5 0 0 0 0.150019 -0.396478 -0.10893 
239 0.871882 3.75292 3.98213 0.5 0 0 0 0.547458 0.0328936 1.33277 
240 2.06138 4.57361 4.57908 0.5 0 0 0 -2.31828 1.31108 0.100618 
241 2.18403 4.38619 4.75143 0.5 0 0 0 -2.57576 0.696961 0.680956 
242 0.0972845 3.19401 4.41599 0.5 0 0 0 0.71212 -0.0226665 0.530365 
243 -0.0210846 2.72651 4.80956 0.5 0 0 0 0.478528 -2.54413 1.85155 
244 0.523827 4.91629 4.8473 0.5 0 0 0 -0.892527 0.136736 1.01528 
245 1.52927 3.07 4.95431 0.5 0 0 0 -1.28625 -1.12748 1.45293 
246 1.24538 3.71928 4.4173 0.5 0 0 0 -0.181748 -0.942109 1.03631 
247 2.42627 3.3571 3.82754 0.5 0 0 0 -0.079256 -1.80322 -0.263725 
248 1.72735 2.67639 4.86735 0.5 0 0 0 -0.717019 -1.99975 0.514675 
249 1.67259 3.00146 4.12672 0.5 0 0 0 0.268939 -1.74655 0.717819 
250 1.29947 2.62046 3.9529 0.5 0 0 0 0.75369 -2.08426 1.28435 
259 0.587315 2.82169 3.88904 0.5 0 0 0 0.414874 -1.32137 0.940605 
258 0.0372903 2.95954 4.02069 0.5 0 0 0 -0.312595 -0.790845 -0.239197 
253 0.163213 2.67725 3.94064 0.5 0 0 0 -0.22266 -1.89758 0.00970182 
498 2.4724 3.56393 4.29257 0.5 0 0 0 -1.20935 -2.02095 -0.680336 
255 0.213925 3.66474 4.84727 0.5 0 0 0 0.696219 0.259927 1.04148 
256 2.32355 4.09436 4.60624 0.5 0 0 0 -2.25467 -0.68598 -0.152657 
257 1.27312 4.24124 4.86156 0.5 0 0 0 -0.9267 -1.02027 1.44441 
260 4.00548 -0.157002 0.919831 0.5 0 0 0 -0.224168 -2.77527 0.556823 
261 3.19555 2.28939 1.12981 0.5 0 0 0 -0.766235 0.0920765 1.34738 
262 4.78768 2.0216 0.404287 0.5 0 0 0 1.76555 0.433168 -1.08035 
263 4.86349 0.626834 0.989597 0.5 0 0 0 1.13933 -1.77783 0.856535 
264 3.25883 0.915981 0.201983 0.5 0 0 0 -0.773155 0.954957 -0.970738 
265 4.90556 1.41686 1.11292 0.5 0 0 0 1.84977 0.29338 1.42056 
266 4.83437 0.647195 -0.0129537 0.5 0 0 0 0.867717 -0.263096 -3.2286 
267 3.45727 1.79731 0.88621 0.5 0 0 0 -1.61332 -0.356146 0.380668 
268 2.89322 0.522862 0.844917 0.5 0 0 0 -0.153666 -0.397532 1.69454 
269 3.96981 1.81192 0.224036 0.5 0 0 0 -1.04667 -0.483312 -2.25323 
270 3.93632 1.90246 1.01937 0.5 0 0 0 -0.967637 0.532142 1.32235 
293 3.02089 2.402 0.572197 0.5 0 0 0 -0.796697 -0.433145 0.208543 
272 4.42309 1.79277 0.741692 0.5 0 0 0 0.0471737 0.718697 0.202817 
273 4.85215 1.36363 0.800133 0.5 0 0 0 1.45526 -0.322748 -0.105127 
274 2.68345 0.714078 0.824479 0.5 0 0 0 0.231218 -0.0903984 1.49869 
275 2.53787 2.34774 0.0564338 0.5 0 0 0 -0.496742 -1.07386 -2.05803 
276 5.08108 0.0669066 0.787809 0.5 0 0 0 1.14246 -1.66545 0.654456 
294 3.1399 0.0914778 0.349253 0.5 0 0 0 0.150584 -2.31537 -0.195688 
278 3.60826 1.88445 0.935532 0.5 0 0 0 -1.47451 -0.0204956 0.739725 
279 3.71217 0.457457 0.171537 0.5 0 0 0 0.354213 -1.32187 -1.49384 
295 2.73142 1.13215 0.898671 0.5 0 0 0 -0.159635 0.170662 0.868975 
281 3.0564 0.151189 0.970882 0.5 0 0 0 -0.451399 -1.93752 1.77532 
282 3.87439 1.69556 1.09784 0.5 0 0 0 -1.3107 0.0497594 1.41496 
283 3.80612 2.33926 -0.181306 0.5 0 0 0 -1.10117 -0.928772 -3.77623 
284 4.16863 2.09977 0.500955 0.5 0 0 0 -0.298035 0.731185 -0.333557 
285 3.41145 2.33265 0.439944 0.5 0 0 0 -1.11915 -0.145077 -0.370682 
286 3.72183 0.963261 0.427494 0.5 0 0 0 -1.13999 -0.231016 -0.451693 
287 4.34117 1.0384 0.42151 0.5 0 0 0 -0.486855 -1.23538 -1.49497 
288 4.07943 1.6191 1.03377 0.5 0 0 0 -1.10326 0.123614 1.24628 
289 4.36668 1.05292 0.596488 0.5 0 0 0 -0.637093 -1.32406 -0.787482 
290 3.33102 0.992295 0.62311 0.5 0 0 0 -1.22168 0.311917 0.681995 
291 2.90505 1.00381 0.0831267 0.5 0 0 0 -0.432339 1.52781 -1.78155 
297 3.1628 0.422634 1.81526 0.5 0 0 0 -1.29624 -1.55317 0.777145 
298 3.83872 2.08748 2.17162 0.5 0 0 0 -1.14477 -0.142808 1.04437 
299 3.06608 0.732188 2.23275 0.5 0 0 0 -0.806991 -0.563656 1.53062 
323 3.16957 1.7184 1.55879 0.5 0 0 0 -0.673976 -0.158872 1.15611 
301 3.32709 1.70196 2.15389 0.5 0 0 0 -0.572188 0.0774005 1.27868 
302 3.70477 0.97047 1.808 0.5 0 0 0 -0.872584 0.19537 1.52374 
303 3.80395 0.847812 1.94421 0.5 0 0 0 -0.641819 0.0391846 1.64927 
292 4.33293 1.2853 1.24701 0.5 0 0 0 -0.639646 -0.249339 1.7751 
305 4.06195 1.45734 1.37118 0.5 0 0 0 -1.02089 0.152796 2.08145 
306 4.61121 1.24738 1.92467 0.5 0 0 0 0.787604 -0.0452683 1.55524 
307 4.02805 0.0028917 2.16168 0.5 0 0 0 -1.98919 -2.04561 -0.125289 
308 4.72506 0.104428 2.27495 0.5 0 0 0 0.0573446 -0.247034 0.0162072 
309 3.95474 0.747125 1.92069 0.5 0 0 0 -0.468721 -0.275998 1.65556 
310 4.61075 2.32872 1.97826 0.5 0 0 0 0.484445 -0.14286 0.410058 
311 3.53785 2.25908 2.09172 0.5 0 0 0 -0.89342 0.158222 1.12885 
321 4.85074 -0.0225729 2.20582 0.5 0 0 0 0.482359 -0.650806 -0.309904 
313 2.56726 1.50595 2.20378 0.5 0 0 0 0.109451 0.00594444 1.31398 
320 2.69246 1.31431 1.87261 0.5 0 0 0 0.0635493 -0.0689552 0.908789 
315 3.26738 0.871673 1.9548 0.5 0 0 0 -0.804978 -0.121834 1.16741 
316 4.50045 1.00423 2.30412 0.5 0 0 0 0.307715 0.0216579 0.921372 
317 4.42454 1.96834 2.33396 0.5 0 0 0 -0.426085 -0.757503 0.429072 
318 3.62756 0.647095 1.42441 0.5 0 0 0 -1.29701 -0.894212 0.717564 
319 3.17122 2.16818 1.97117 0.5 0 0 0 -0.361802 0.250596 1.24399 
271 4.89446 1.59839 1.20695 0.5 0 0 0 1.99248 1.05741 1.86754 
19 2.58919 1.86325 1.17351 0.5 0 0 0 0.0130855 -0.264311 0.539879 
280 3.82516 0.808417 1.18766 0.5 0 0 0 -1.36625 -0.816528 0.795702 
300 4.20682 2.38482 1.22813 0.5 0 0 0 -0.0437349 0.850047 1.85764 
296 4.29953 0.62086 1.1735 0.5 0 0 0 -0.391144 -1.69158 0.79974 
277 3.47973 2.13585 1.1768 0.5 0 0 0 -1.08771 0.311773 1.56487 
324 4.20049 1.07209 3.60418 0.5 0 0 0 -1.49447 0.447571 -0.557425 
325 3.13524 0.346649 3.34055 0.5 0 0 0 -3.12524 -1.26455 1.33757 
326 3.66738 1.47199 3.67458 0.5 0 0 0 -1.94325 -0.405513 -0.0547011 
327 4.15863 1.37271 2.56514 0.5 0 0 0 -0.879731 -0.248751 0.532216 
328 3.56053 0.746072 2.82267 0.5 0 0 0 -1.23032 0.197335 0.970853 
329 4.6547 1.85819 2.7612 0.5 0 0 0 0.287404 -1.60668 -0.422557 
330 3.3792 1.61927 3.26274 0.5 0 0 0 -1.49015 -0.393443 0.612955 
331 4.42014 1.68674 3.2659 0.5 0 0 0 -1.11423 -1.26875 -0.407853 
332 4.72993 0.335381 2.57276 0.5 0 0 0 0.295601 0.868817 -0.287279 
333 2.66868 0.74565 3.45057 0.5 0 0 0 -3.12677 -1.52279 2.19025 
334 4.39709 0.49225 3.23252 0.5 0 0 0 -0.533129 0.856179 -1.84097 
335 5.05888 2.33763 2.86349 0.5 0 0 0 3.04189 -1.00711 -0.903774 
336 4.05518 0.349997 3.25553 0.5 0 0 0 -1.75577 0.27635 -0.965823 
350 2.94785 1.6205 2.67101 0.5 0 0 0 -0.331947 -0.231892 1.44432 
338 2.75763 1.04701 3.70241 0.5 0 0 0 -3.0527 -1.44822 1.35403 
339 2.70521 0.895139 2.70663 0.5 0 0 0 -1.03011 -1.15816 2.43851 
340 2.93396 1.02898 3.59674 0.5 0 0 0 -2.76057 -1.00177 1.23851 
341 4.47472 1.99479 3.43292 0.5 0 0 0 -1.11102 -1.62618 0.0347122 
342 4.92134 1.88468 3.61398 0.5 0 0 0 1.08781 -1.75789 0.255019 
343 3.24144 1.5906 2.62381 0.5 0 0 0 -0.676342 -0.187441 1.25353 
349 4.19679 -0.0384166 3.2198 0.5 0 0 0 -1.68688 -1.348 -1.61047 
345 3.47821 0.0426484 3.05536 0.5 0 0 0 -2.73631 -2.2143 0.525308 
346 3.69692 0.81252 3.53319 0.5 0 0 0 -2.44878 0.196 0.133107 
347 2.80181 1.66491 2.63694 0.5 0 0 0 -0.102932 -0.190724 1.44762 
348 2.63913 1.65881 2.67644 0.5 0 0 0 0.0402512 -0.424363 1.55992 
352 4.9476 1.25163 3.70678 0.5 0 0 0 1.53041 -0.0804001 -0.468126 
469 4.12803 2.45322 2.60915 0.5 0 0 0 -1.94925 -0.327579 -0.22043 
304 2.73536 0.148563 2.52864 0.5 0 0 0 -1.73129 -2.6769 1.9346 
384 4.55124 0.313807 3.78157 0.5 0 0 0 -1.08605 0.71439 -1.93751 
351 4.81681 0.433186 4.13216 0.5 0 0 0 0.535588 1.2844 -0.255381 
381 3.28513 1.873 4.23841 0.5 0 0 0 -1.6919 -1.05928 -1.04755 
353 3.42785 1.25796 4.13505 0.5 0 0 0 -2.41243 -0.741766 -0.231593 
354 3.93464 1.93868 4.94642 0.5 0 0 0 -0.469419 -0.731156 1.15876 
355 4.89446 2.33383 4.00751 0.5 0 0 0 0.313331 -1.36281 1.33098 
356 4.45179 -0.173174 4.7697 0.5 0 0 0 -1.86008 -2.81271 1.58557 
383 4.13178 0.484751 4.99293 0.5 0 0 0 -2.19913 0.864364 2.56456 
358 5.0929 1.5728 4.75785 0.5 0 0 0 1.2852 -0.32179 1.65881 
359 3.01963 1.92092 4.29426 0.5 0 0 0 -1.64707 -1.29439 -1.07768 
360 4.55822 0.294844 4.19704 0.5 0 0 0 -1.20759 0.680658 -0.312316 
361 5.01071 2.27455 4.16296 0.5 0 0 0 0.815305 -1.71605 1.74482 
362 4.17111 0.254776 4.2464 0.5 0 0 0 -3.31798 0.0156158 -0.205645 
363 3.91127 0.31909 4.53698 0.5 0 0 0 -4.1203 -0.229045 0.557601 
364 2.66472 1.94633 4.90104 0.5 0 0 0 -2.03347 -1.87521 0.775536 
365 3.16969 1.7958 4.59542 0.5 0 0 0 -1.63183 -1.52828 -0.429053 
366 4.61143 0.911577 4.1486 0.5 0 0 0 -0.161746 1.71028 0.50153 
367 3.81675 -0.0602644 3.84489 0.5 0 0 0 -4.38234 -2.21115 0.189325 
368 4.06429 1.84855 4.28442 0.5 0 0 0 -1.15822 -0.718785 -0.0177406 
369 3.49419 1.48241 4.35656 0.5 0 0 0 -1.88358 -0.953653 -0.468715 
370 2.82997 0.443275 4.66007 0.5 0 0 0 -3.54655 -1.08078 0.0900557 
371 4.72583 0.250742 4.64225 0.5 0 0 0 0.353968 0.645447 1.6131 
382 3.88417 0.944615 3.84084 0.5 0 0 0 -2.45402 0.362109 -0.0352468 
373 4.63288 0.300496 3.94052 0.5 0 0 0 -0.776916 0.734378 -1.37518 
374 4.53401 0.486209 4.0481 0.5 0 0 0 -1.13014 1.24196 -0.778661 
375 5.0345 0.0100898 4.98315 0.5 0 0 0 3.59461 -1.18688 3.20895 
376 4.10392 1.60788 4.6828 0.5 0 0 0 -0.582531 -0.440863 0.453411 
377 4.01537 2.10371 5.10768 0.5 0 0 0 -0.109996 -0.494929 2.13377 
378 2.91758 1.64262 5.01093 0.5 0 0 0 -1.92855 -2.16824 1.57487 
379 3.53376 0.926492 5.0741 0.5 0 0 0 -2.38326 -0.425514 1.834 
380 3.06475 2.29046 4.29764 0.5 0 0 0 -1.41919 -1.25231 -1.06819 
385 2.72743 3.16667 0.678628 0.5 0 0 0 -0.259391 0.0375762 0.477814 
386 4.46002 4.72631 0.0499669 0.5 0 0 0 0.670178 0.32925 -0.709498 
387 3.86554 3.94207 0.138869 0.5 0 0 0 0.119321 -0.411017 -0.427972 
388 4.3202 4.0172 1.07918 0.5 0 0 0 -0.817658 -0.172815 -1.10383 
389 3.81848 3.08829 0.794958 0.5 0 0 0 -0.593847 0.08864 0.755335 
390 3.64731 4.11213 0.128382 0.5 0 0 0 0.0900821 -0.597281 0.0534283 
391 5.05324 4.33 1.0758 0.5 0 0 0 2.14314 1.0871 -1.29519 
392 4.88879 2.67893 0.295457 0.5 0 0 0 1.32122 0.365111 -0.297413 
393 4.52615 4.58373 0.677715 0.5 0 0 0 -0.0148921 1.2749 -0.991448 
394 2.76375 2.92559 1.08837 0.5 0 0 0 0.0172071 -0.151017 1.30105 
395 4.91112 2.95983 0.998611 0.5 0 0 0 1.35496 -0.497203 1.14148 
396 4.08242 3.07659 0.017502 0.5 0 0 0 -0.343914 0.450792 -1.52524 
397 5.07978 4.04744 0.825038 0.5 0 0 0 2.38238 -0.0625384 -1.63048 
398 2.92734 4.94158 0.00820916 0.5 0 0 0 -0.477147 2.03755 -1.50094 
399 3.38819 4.92149 0.58832 0.5 0 0 0 0.578014 1.09103 -0.330947 
400 3.33768 4.51273 0.419339 0.5 0 0 0 0.195507 -0.603873 0.275921 
401 3.37373 2.65717 0.0719797 0.5 0 0 0 -0.978763 -0.396995 -1.65024 
402 2.72655 3.11912 0.688011 0.5 0 0 0 -0.26286 0.00998298 0.537468 
403 4.76397 3.22273 0.182953 0.5 0 0 0 0.431296 0.481353 -1.344 
404 4.20748 2.63553 0.142005 0.5 0 0 0 -0.164178 0.53138 -0.893896 
405 4.05946 4.87616 -0.0238903 0.5 0 0 0 0.282773 0.87321 -0.164236 
406 4.20552 3.58906 1.03062 0.5 0 0 0 -0.887341 -0.743082 -0.29077 
407 2.81353 4.2113 -0.0113389 0.5 0 0 0 -0.346719 -0.7693 -1.25044 
408 4.9935 3.11745 0.424441 0.5 0 0 0 1.24826 -0.0506731 -0.253406 
409 3.77205 3.30856 0.562627 0.5 0 0 0 -0.535882 0.0680837 0.0361735 
410 3.87007 2.62727 0.885781 0.5 0 0 0 -0.532523 0.714058 1.23157 
411 4.18382 2.65307 1.06402 0.5 0 0 0 -0.135349 0.559357 1.46057 
412 3.09159 3.18162 0.446709 0.5 0 0 0 -0.480415 0.0500275 0.0614866 
413 2.9187 3.71694 0.925147 0.5 0 0 0 -0.225707 -0.363112 0.330752 
414 2.70955 4.4843 0.643287 0.5 0 0 0 -0.107171 -0.930266 0.142364 
415 2.63879 4.93667 1.11349 0.5 0 0 0 -1.07915 0.886351 -0.319873 
417 3.08579 3.60768 0.193222 0.5 0 0 0 -0.439147 -0.300434 -0.622327 
418 4.81607 4.17572 1.6567 0.5 0 0 0 0.59138 -0.344404 0.045263 
419 2.97104 3.7773 2.20128 0.5 0 0 0 0.527113 -1.67737 0.597762 
420 4.87673 3.94973 2.41376 0.5 0 0 0 0.274825 -1.57632 0.677174 
421 4.87511 4.5704 1.80973 0.5 0 0 0 1.01151 1.67479 -0.455572 
422 4.26911 4.54909 1.75393 0.5 0 0 0 0.210649 0.978854 0.159611 
423 3.64884 4.60708 1.39653 0.5 0 0 0 0.361056 0.133724 -1.2318 
424 4.35686 3.80957 1.43823 0.5 0 0 0 -0.729139 -1.16532 0.524542 
425 2.78397 3.15329 1.33966 0.5 0 0 0 0.223657 -0.293629 1.28217 
426 3.24265 4.5535 2.11578 0.5 0 0 0 0.10525 -0.908398 1.66011 
427 3.29534 4.61705 1.65763 0.5 0 0 0 -0.180082 -0.610707 -0.144498 
428 4.92768 4.31069 2.00987 0.5 0 0 0 0.632349 -0.199159 0.099531 
429 3.19584 4.83428 1.72876 0.5 0 0 0 -0.356611 0.28354 0.170783 
430 2.95764 4.84836 1.32106 0.5 0 0 0 -0.875934 0.354228 -0.984237 
431 3.50765 2.67592 2.37492 0.5 0 0 0 -0.874477 -0.138917 0.589053 
432 3.95776 2.50817 1.48001 0.5 0 0 0 -0.674936 0.427635 1.94287 
433 2.74246 4.3553 2.39778 0.5 0 0 0 -0.216774 -1.01731 0.873533 
434 3.13473 4.50779 1.94043 0.5 0 0 0 -0.332025 -1.07921 0.870676 
435 3.61635 4.6595 1.62656 0.5 0 0 0 0.532153 0.0850959 -0.176526 
436 3.34107 3.27576 2.05507 0.5 0 0 0 -0.141783 -0.940333 0.961119 
437 3.80655 3.9833 1.78454 0.5 0 0 0 -0.714563 -1.51618 0.940774 
438 5.00235 3.5283 1.86043 0.5 0 0 0 1.73063 -1.93264 0.236698 
439 4.48504 4.48045 2.45638 0.5 0 0 0 -0.699916 0.100531 1.44683 
440 2.64624 3.87468 2.23009 0.5 0 0 0 0.374666 -1.16787 0.247905 
441 2.92967 4.74914 2.12022 0.5 0 0 0 -0.681665 -0.00187307 1.10784 
442 3.06368 4.58908 1.3818 0.5 0 0 0 -0.702497 -0.753021 -1.05742 
443 3.87393 4.11949 1.96442 0.5 0 0 0 -0.426138 -1.36552 1.44369 
444 2.67806 4.35639 1.89243 0.5 0 0 0 -0.768881 -0.933487 -0.157713 
445 4.42925 3.75365 1.23855 0.5 0 0 0 -0.5714 -1.03445 -0.0131102 
446 4.16136 3.88014 2.29143 0.5 0 0 0 -0.971771 -1.56498 1.40256 
447 3.98413 3.8338 1.70991 0.5 0 0 0 -1.00341 -1.50687 1.0225 
448 4.54614 2.8292 2.2281 0.5 0 0 0 -0.167337 0.272928 -0.265085 
449 3.08114 3.86142 1.29596 0.5 0 0 0 -0.376896 -0.892133 0.0160027 
450 3.483 3.36566 1.39672 0.5 0 0 0 -0.555935 -0.723537 1.08939 
416 4.43939 3.86705 1.2623 0.5 0 0 0 -0.553456 -0.823817 -0.162318 
203 2.54258 2.99443 1.48495 0.5 0 0 0 0.543049 -0.349879 1.11902 
322 2.89681 2.52125 1.86351 0.5 0 0 0 0.201411 -0.0969012 1.343 
314 4.95154 2.49957 1.43987 0.5 0 0 0 2.18021 0.0170287 0.881037 
479 2.67201 3.66333 3.67497 0.5 0 0 0 -0.203282 -1.64074 -0.627229 
453 4.81673 2.73412 3.2535 0.5 0 0 0 0.831755 0.571417 -0.423157 
454 3.9686 3.31053 2.81272 0.5 0 0 0 -1.04514 -0.0947118 0.106196 
455 2.9786 4.28331 3.66018 0.5 0 0 0 -0.726467 -0.931964 -1.02439 
456 2.78681 4.65171 3.10914 0.5 0 0 0 -0.203224 -0.442487 0.326353 
457 3.04669 4.89391 2.94079 0.5 0 0 0 0.553126 0.687029 0.706034 
458 3.38148 3.15475 2.90913 0.5 0 0 0 -0.536572 -0.877599 0.204821 
459 4.79833 4.06688 2.63942 0.5 0 0 0 -0.128157 -1.05994 1.14742 
460 4.3388 2.93317 3.14829 0.5 0 0 0 -1.2846 1.05569 -0.479595 
461 4.46961 4.44766 2.57147 0.5 0 0 0 -0.803991 -0.0313387 1.5732 
462 4.70144 4.99921 2.54256 0.5 0 0 0 0.456916 4.60247 1.3813 
463 4.41338 2.63817 2.73773 0.5 0 0 0 -1.2261 -0.00244557 -0.778269 
464 3.08229 3.82562 3.12878 0.5 0 0 0 0.298958 -1.73455 -0.110314 
465 3.57021 3.93289 3.56067 0.5 0 0 0 0.454551 -1.2272 -1.19868 
466 4.19206 2.57746 3.01757 0.5 0 0 0 -2.12588 -0.25148 -0.640452 
467 3.47467 4.4369 3.46201 0.5 0 0 0 0.871021 -0.333504 -0.872444 
468 4.83205 2.71881 2.53954 0.5 0 0 0 1.39736 0.238127 -0.966681 
344 4.18939 2.52631 3.41191 0.5 0 0 0 -2.05242 -0.494573 0.00251017 
470 4.48469 2.5291 3.64937 0.5 0 0 0 -1.05983 -0.473954 0.538379 
471 3.84038 4.76543 3.03905 0.5 0 0 0 0.428591 1.21797 0.489356 
451 2.79986 3.79809 2.49961 0.5 0 0 0 0.673096 -1.50335 0.668436 
473 2.91846 5.08611 3.74857 0.5 0 0 0 -0.149529 2.6778 0.232612 
474 4.50733 2.85757 3.6255 0.5 0 0 0 -0.710857 1.04249 0.308564 
478 3.989 2.61315 3.41298 0.5 0 0 0 -2.49925 -0.216059 -0.0580218 
476 4.67836 3.70549 3.01079 0.5 0 0 0 0.0893526 -0.00661172 0.817147 
477 2.80107 4.25511 2.5663 0.5 0 0 0 0.0882205 -1.26934 0.9407 
337 4.00853 2.47712 3.28526 0.5 0 0 0 -2.56705 -0.587913 -0.210815 
475 4.80453 4.05407 3.78608 0.5 0 0 0 0.939231 -0.0504935 -0.155905 
480 3.58954 3.80888 4.79313 0.5 0 0 0 1.28062 -1.32198 0.955197 
481 4.13979 3.02607 4.95779 0.5 0 0 0 -0.268068 -1.47015 2.14224 
482 3.77862 3.59844 4.00779 0.5 0 0 0 0.420609 -0.998494 -1.09693 
483 4.40531 4.8875 4.10611 0.5 0 0 0 0.262945 0.500329 -1.75139 
484 3.17257 4.00242 3.96809 0.5 0 0 0 -0.446827 -1.44894 -1.51108 
485 3.66543 3.93623 4.40885 0.5 0 0 0 1.30957 -0.835936 -0.600755 
486 4.72061 4.70312 4.34975 0.5 0 0 0 -0.0981695 -0.899001 -1.36609 
487 3.27989 3.12527 4.27902 0.5 0 0 0 -0.664679 -1.98176 -0.831731 
488 4.67013 3.1766 4.66623 0.5 0 0 0 0.0222502 0.0685533 0.971161 
489 3.35018 4.83713 5.08974 0.5 0 0 0 -0.173526 3.09019 3.9833 
490 3.58041 3.44621 4.24508 0.5 0 0 0 -0.036366 -1.73953 -0.884304 
491 3.71319 4.11091 4.82949 0.5 0 0 0 2.05134 -0.117082 1.33688 
492 2.664 3.19062 4.79125 0.5 0 0 0 -1.28701 -2.59095 0.922997 
493 4.51495 3.66926 4.72374 0.5 0 0 0 1.18574 0.523209 0.678128 
494 3.42614 3.64514 5.12504 0.5 0 0 0 0.777645 -2.09048 3.3119 
495 2.6833 4.06724 4.41671 0.5 0 0 0 -1.05372 -0.908362 -1.15861 
496 2.62237 3.80935 4.95757 0.5 0 0 0 -1.37831 -1.77669 1.45777 
497 3.38169 4.37698 3.9444 0.5 0 0 0 0.446702 -0.250727 -1.316 
357 3.44984 2.49539 4.63855 0.5 0 0 0 -0.880721 -1.29874 0.135076 
499 3.95607 2.50645 4.05608 0.5 0 0 0 -1.53377 -0.74909 0.251144 
500 4.65467 4.93223 4.974 0.5 0 0 0 -0.725005 -0.119524 1.69266 
501 4.62616 4.8156 4.90395 0.5 0 0 0 -0.283504 -0.293767 1.2926 
502 2.68186 3.97566 4.77886 0.5 0 0 0 -0.998846 -1.16844 0.287558 
503 2.93974 4.25916 4.55901 0.5 0 0 0 -0.375579 -0.128592 -0.68589 
504 3.55114 3.30535 4.29101 0.5 0 0 0 -0.234653 -1.87475 -0.698601 
505 3.69577 4.82261 4.28552 0.5 0 0 0 1.42004 1.77438 -0.194307 
506 4.09437 4.02173 3.97423 0.5 0 0 0 1.82431 0.029407 -0.947229 
507 4.9127 2.81898 3.94309 0.5 0 0 0 0.483176 0.989986 0.557228 
508 2.87514 3.9281 4.68635 0.5 0 0 0 -0.391696 -1.40766 -0.269393 
509 3.30514 4.75552 4.40391 0.5 0 0 0 0.178826 1.7858 -0.100185 
510 3.08449 4.49513 4.06087 0.5 0 0 0 -0.595996 0.201669 -1.22202 
511 2.64437 3.03165 4.50455 0.5 0 0 0 -1.02994 -2.20822 -0.126221 
512 2.66599 2.82479 4.36837 0.5 0 0 0 -0.847015 -1.88593 -0.44252 
513 4.86973 3.02688 4.29851 0.5 0 0 0 0.30428 1.03358 0.591034 
ITEM: TIMESTEP
60072
ITEM: NUMBER OF ATOMS
512
ITEM: BOX BOUNDS ss ss ss
-2.1589663964569298e-02 5.0933846546203574e+00
-1.7364439631764822e-01 5.0865807164741392e+00
-1.8176655292622759e-01 5.1255068607205727e+00
ITEM: ATOMS id x y z width_SPH x_COM y_COM z_COM vx vy vz 
2 0.301054 0.775931 0.246861 0.5 0 0 0 -1.37913 -0.579451 0.0688741 
3 0.259425 1.291 0.605722 0.5 0 0 0 -2.08427 -0.964608 0.287792 
4 0.787477 1.24764 1.03677 0.5 0 0 0 -0.386207 -0.340097 0.749164 
5 1.73539 1.8934 0.823939 0.5 0 0 0 0.958463 0.352072 0.221151 
6 0.274185 2.07866 0.848538 0.5 0 0 0 -2.11838 0.860402 1.16647 
7 0.546652 1.58453 0.342543 0.5 0 0 0 -0.688625 -0.372038 -0.682032 
8 1.33606 0.225894 0.77337 0.5 0 0 0 0.0500229 -0.685398 1.18403 
9 1.53469 0.986433 0.331375 0.5 0 0 0 0.773991 0.260654 -0.747351 
10 1.11159 1.53603 -0.0685706 0.5 0 0 0 0.983767 -0.388475 -2.84955 
11 1.39605 1.22774 0.79617 0.5 0 0 0 0.782231 0.130008 0.282662 
38 1.08307 2.32881 0.776654 0.5 0 0 0 0.516778 0.421742 0.862924 
41 2.23084 2.37931 1.0229 0.5 0 0 0 0.351343 -0.202256 0.556544 
14 1.2605 2.06321 0.329269 0.5 0 0 0 1.32255 0.117804 -0.380235 
15 1.54695 0.0394673 0.976135 0.5 0 0 0 1.23301 -1.50685 2.12367 
37 0.636897 0.390262 0.353986 0.5 0 0 0 -1.47718 -0.586503 0.379761 
17 1.08138 0.119431 0.519719 0.5 0 0 0 -1.29661 -0.687342 0.538458 
18 1.50826 -0.0164934 0.045891 0.5 0 0 0 0.0210182 -0.949623 -1.15212 
40 1.99514 0.669573 0.604469 0.5 0 0 0 1.39252 -0.198015 0.904813 
20 0.36981 1.75927 1.0479 0.5 0 0 0 -1.73128 0.350012 1.28559 
21 1.87801 1.79469 0.745542 0.5 0 0 0 1.08064 0.226333 -0.00308676 
22 0.552783 2.4223 0.409942 0.5 0 0 0 -0.558231 0.212975 0.65749 
39 0.791152 1.5785 0.810202 0.5 0 0 0 0.14069 0.227587 0.408939 
24 0.00339361 0.598281 0.0816941 0.5 0 0 0 -2.72779 -0.779837 -0.133665 
25 1.95437 0.260596 0.581889 0.5 0 0 0 1.68395 -0.75505 1.36419 
26 1.35582 0.89095 0.584786 0.5 0 0 0 0.399533 0.0192986 -0.00984746 
27 0.86467 1.81411 0.900157 0.5 0 0 0 0.377386 0.670868 0.691795 
28 2.15664 0.959749 0.359457 0.5 0 0 0 0.883488 0.501518 -0.22998 
29 2.42448 1.35996 0.269402 0.5 0 0 0 0.107994 1.0177 -1.19042 
30 1.3992 0.242427 0.88407 0.5 0 0 0 0.488734 -0.821763 1.45697 
31 1.65838 1.51848 0.685685 0.5 0 0 0 1.20229 0.362118 0.0102292 
32 1.30154 2.09592 0.250952 0.5 0 0 0 1.47627 0.00634224 -0.708875 
33 1.46277 1.14326 0.72176 0.5 0 0 0 0.856735 0.0701074 0.199796 
34 0.622253 2.08924 -0.0271355 0.5 0 0 0 -0.447961 -0.575344 -2.02292 
35 1.77117 0.0448032 -0.128832 0.5 0 0 0 1.17611 -0.864492 -2.25439 
36 0.968307 0.88323 0.0786082 0.5 0 0 0 0.0956213 0.0328093 -1.4796 
144 0.0211837 2.45506 0.114565 0.5 0 0 0 -3.16805 -0.780077 -1.09892 
43 1.54525 0.0677146 1.95233 0.5 0 0 0 1.54675 -2.05885 2.27927 
44 1.36473 2.35713 1.90941 0.5 0 0 0 0.773256 -0.347998 0.538721 
45 1.33381 1.11988 1.48553 0.5 0 0 0 0.476501 -0.198924 1.55748 
46 1.38772 2.23672 2.32626 0.5 0 0 0 0.773047 -0.849664 1.17322 
47 1.3959 1.26087 1.91898 0.5 0 0 0 -0.0998228 -0.503565 2.3678 
48 1.18006 0.81249 1.47867 0.5 0 0 0 0.169878 -0.426944 1.76226 
49 2.47935 2.34211 1.69818 0.5 0 0 0 0.557991 -0.173288 1.19152 
50 0.891243 0.608877 1.6702 0.5 0 0 0 -1.07934 -0.542145 2.51078 
51 1.96893 0.93958 1.80625 0.5 0 0 0 0.474642 -1.0968 1.64681 
52 0.671604 1.64139 1.33341 0.5 0 0 0 -0.669147 0.0976724 1.61558 
53 2.1247 1.44177 1.71791 0.5 0 0 0 0.456164 0.12358 0.952345 
54 0.390176 0.0429106 2.20343 0.5 0 0 0 -1.55322 -1.25151 0.558061 
55 1.73185 1.84185 1.70753 0.5 0 0 0 0.65048 0.164866 0.906634 
16 2.25737 2.0163 1.1787 0.5 0 0 0 0.457613 -0.0719334 0.55292 
57 2.38803 1.07706 1.62869 0.5 0 0 0 0.472585 -0.693364 0.755446 
58 1.78529 0.149181 2.23912 0.5 0 0 0 1.03265 -2.02262 2.71626 
59 1.24236 0.582599 2.37881 0.5 0 0 0 0.260654 -0.272293 3.92124 
60 0.669145 1.69642 1.57453 0.5 0 0 0 -0.979923 -0.221886 2.09603 
61 1.33412 0.300391 1.71433 0.5 0 0 0 0.887277 -1.21198 2.26357 
78 1.05745 1.89882 1.61754 0.5 0 0 0 0.147237 0.000522899 1.16131 
63 2.01584 1.57785 2.03483 0.5 0 0 0 0.300747 -0.0542033 1.40505 
64 0.517033 0.35762 2.37909 0.5 0 0 0 -0.565251 0.530405 2.62113 
65 1.06184 1.77543 2.19875 0.5 0 0 0 -0.468614 -1.40526 2.1213 
66 2.34198 0.861936 2.01784 0.5 0 0 0 0.0264762 -1.35146 1.6745 
67 1.10297 0.688531 2.0263 0.5 0 0 0 -0.327849 -0.221822 3.45702 
68 2.05806 1.47707 1.72368 0.5 0 0 0 0.443841 0.165812 1.00096 
69 1.40306 0.742941 2.26944 0.5 0 0 0 -0.0126907 -0.601926 3.56692 
77 0.387381 1.54418 1.42856 0.5 0 0 0 -2.22889 -0.477406 2.42526 
71 0.737594 0.532099 1.43849 0.5 0 0 0 -1.94544 -0.911199 1.6672 
72 1.00639 2.24106 2.44179 0.5 0 0 0 0.00217812 -1.25802 1.46169 
73 2.05738 1.03318 1.69109 0.5 0 0 0 0.568021 -0.882778 1.23016 
74 2.23184 1.0152 2.36175 0.5 0 0 0 -0.384273 -1.45764 2.51902 
75 0.0297567 2.31119 2.22174 0.5 0 0 0 -2.35302 -1.6149 0.705438 
76 0.971333 1.10814 1.45356 0.5 0 0 0 -0.38257 -0.281266 1.81091 
12 1.34529 1.51116 1.24546 0.5 0 0 0 0.683706 0.377306 0.874132 
13 1.86621 1.32627 1.2581 0.5 0 0 0 0.996972 -0.0560699 0.662336 
312 2.49224 -0.0785621 1.66922 0.5 0 0 0 -0.146786 -2.94588 1.29964 
42 1.22906 0.726338 1.23556 0.5 0 0 0 0.35316 -0.502417 1.1591 
79 1.43519 2.24236 3.26307 0.5 0 0 0 0.022392 -2.28926 1.21434 
80 0.722445 0.183726 2.71179 0.5 0 0 0 1.47957 0.523529 2.97285 
81 1.07278 0.414991 2.90583 0.5 0 0 0 1.62679 0.318592 4.42162 
82 1.30862 1.94322 2.75297 0.5 0 0 0 -0.307576 -2.04011 1.90997 
83 1.70365 2.04277 2.87995 0.5 0 0 0 0.281026 -1.52927 1.51926 
84 1.24768 0.840071 3.71743 0.5 0 0 0 1.33459 -3.77942 4.5625 
85 2.02471 1.84018 2.82635 0.5 0 0 0 0.380609 -1.35914 1.64397 
106 1.36418 1.31961 2.61109 0.5 0 0 0 -0.889975 -2.18668 3.25919 
87 0.89879 2.29173 3.34264 0.5 0 0 0 -0.293875 -2.93004 0.785247 
88 1.94611 1.38118 2.97944 0.5 0 0 0 -0.745008 -2.92602 2.85476 
89 1.47552 0.23649 3.78197 0.5 0 0 0 0.219545 1.79093 4.58099 
100 0.580243 2.16469 2.54008 0.5 0 0 0 -0.486514 -1.98822 1.75434 
91 1.72848 1.44582 2.74129 0.5 0 0 0 -0.619497 -2.43805 2.67722 
92 0.127762 2.09689 2.83731 0.5 0 0 0 -1.29451 -2.82362 1.55049 
93 0.715289 0.310076 2.79202 0.5 0 0 0 1.35813 0.930408 3.27142 
94 1.45135 1.943 2.62582 0.5 0 0 0 0.0977383 -1.59536 1.72397 
95 2.18938 2.14758 3.16347 0.5 0 0 0 0.868227 -1.23575 1.36448 
96 0.949787 1.87737 2.59395 0.5 0 0 0 -0.661375 -2.26216 2.273 
97 1.79654 0.47084 3.6067 0.5 0 0 0 -2.34253 -1.28804 5.27492 
98 0.273036 1.57183 2.88925 0.5 0 0 0 -0.472572 -2.69554 1.99009 
99 2.15148 1.76571 3.33726 0.5 0 0 0 -0.0623837 -2.43023 1.94131 
105 0.748318 0.114095 3.13352 0.5 0 0 0 2.42389 0.805819 3.0757 
186 0.405521 2.44494 2.60323 0.5 0 0 0 -0.466313 -1.47819 1.20441 
102 1.84309 1.71235 3.01667 0.5 0 0 0 -0.358364 -2.4564 2.17465 
103 0.428598 1.03809 3.21401 0.5 0 0 0 1.2869 -1.21715 2.32734 
231 1.26226 2.35113 3.50859 0.5 0 0 0 0.166531 -2.64 0.961275 
62 2.18333 1.76447 2.56416 0.5 0 0 0 0.450506 -0.647157 1.47222 
131 1.85476 1.65837 3.77351 0.5 0 0 0 -0.993862 -4.30595 2.03112 
56 2.44014 0.522568 2.48153 0.5 0 0 0 -0.939942 -1.83349 2.6019 
107 1.79923 0.179205 4.53983 0.5 0 0 0 -2.4578 2.41496 -3.09021 
108 1.07475 1.50088 4.4532 0.5 0 0 0 2.22972 -3.92919 -0.410826 
109 1.80419 0.539853 4.27431 0.5 0 0 0 -4.08296 -0.270211 -1.06208 
110 1.90994 0.686702 4.17966 0.5 0 0 0 -4.68621 -2.3368 0.535298 
139 1.01003 0.534249 4.84209 0.5 0 0 0 4.18325 -0.557628 -2.80635 
112 1.75815 0.697996 4.6654 0.5 0 0 0 -1.94887 -1.78474 -4.66951 
113 1.92755 1.25302 4.43647 0.5 0 0 0 -2.16222 -4.87583 -0.595464 
114 0.873027 0.925224 4.4801 0.5 0 0 0 4.96989 -2.01793 -2.19312 
115 1.84019 0.570503 4.46818 0.5 0 0 0 -3.72937 -0.56373 -3.38025 
116 0.780085 0.159626 4.30329 0.5 0 0 0 4.8667 0.454646 -1.14688 
117 0.976245 0.936258 4.21247 0.5 0 0 0 4.88903 -3.28003 -0.842568 
138 0.027368 1.19266 4.38545 0.5 0 0 0 0.0333228 -1.92591 0.369933 
119 0.767846 1.80935 4.39848 0.5 0 0 0 1.55606 -2.82256 0.538745 
120 1.48918 0.684102 4.13283 0.5 0 0 0 0.291258 -2.81511 1.22381 
121 1.88095 0.771549 3.94803 0.5 0 0 0 -3.88965 -3.60991 3.38569 
122 0.20366 -0.136035 4.07609 0.5 0 0 0 1.17966 -1.13935 0.140644 
123 1.2201 0.0988127 4.57302 0.5 0 0 0 3.27534 1.89718 -2.95634 
124 0.694251 0.48942 4.10318 0.5 0 0 0 4.98884 -0.112442 -0.715138 
125 1.57983 0.388119 4.1862 0.5 0 0 0 -1.13358 2.13319 0.184474 
126 1.32392 0.547609 4.31046 0.5 0 0 0 3.62838 -0.260766 -2.29442 
127 1.22247 2.04542 4.70512 0.5 0 0 0 0.52906 -2.49872 0.738639 
128 1.13276 0.893299 4.24917 0.5 0 0 0 4.63089 -3.84379 -1.0481 
129 0.157215 1.59081 4.15841 0.5 0 0 0 1.00245 -2.69925 -0.130446 
130 0.546458 0.828475 4.34958 0.5 0 0 0 3.6027 -1.03145 -1.40422 
137 0.139753 2.14502 3.86316 0.5 0 0 0 -0.174219 -3.34816 -0.349383 
132 2.24816 1.87938 3.83285 0.5 0 0 0 -0.36988 -2.65503 1.08219 
133 1.3657 0.564183 4.27384 0.5 0 0 0 2.91049 -0.547922 -1.67061 
134 1.70918 2.16354 4.92569 0.5 0 0 0 -0.345913 -2.3007 0.356022 
135 2.26417 0.167798 4.66813 0.5 0 0 0 -2.70227 -0.457249 -0.977875 
136 1.59585 1.61779 4.25902 0.5 0 0 0 -0.174872 -5.05039 0.598192 
86 1.99543 1.44374 3.89323 0.5 0 0 0 -1.58173 -4.76338 2.01591 
252 1.97124 2.33459 4.62375 0.5 0 0 0 -0.380383 -2.50457 -0.187757 
372 2.44554 0.70362 4.33782 0.5 0 0 0 -4.58143 -1.31111 -0.490236 
111 1.47988 2.39442 3.94323 0.5 0 0 0 0.573414 -2.60425 1.12595 
90 1.33534 1.25018 3.83519 0.5 0 0 0 0.0442608 -5.92772 2.69797 
104 1.86756 1.04359 3.82197 0.5 0 0 0 -2.65223 -5.30327 3.62835 
118 2.50959 1.6731 4.55116 0.5 0 0 0 -2.009 -2.3596 -0.414608 
101 1.6383 0.949576 3.80759 0.5 0 0 0 -1.76176 -5.38775 4.47984 
140 2.46899 2.49534 0.521338 0.5 0 0 0 -0.128899 -0.497104 0.0925424 
141 0.969148 3.25075 0.881216 0.5 0 0 0 -0.687582 -0.0542424 0.763195 
142 1.05819 3.61895 0.280842 0.5 0 0 0 0.0762403 0.56742 -0.305172 
143 0.613286 3.01274 0.597919 0.5 0 0 0 -0.779412 -0.0736941 1.18852 
167 1.3425 2.79902 0.683512 0.5 0 0 0 0.86257 -0.285229 0.459321 
168 1.60813 2.59703 0.915717 0.5 0 0 0 0.694588 -0.0649774 0.373866 
146 1.06776 3.21913 0.367264 0.5 0 0 0 0.564976 -0.407097 0.137508 
147 0.573219 4.49282 0.517006 0.5 0 0 0 1.15785 -0.171504 0.303699 
148 1.97431 3.78988 0.433878 0.5 0 0 0 0.683029 -0.368951 -0.379251 
149 0.683851 3.59682 0.0907868 0.5 0 0 0 -0.319994 1.0582 -0.717 
150 1.89594 4.42723 0.806373 0.5 0 0 0 -0.262434 0.0303663 0.35712 
151 0.0449858 3.44437 0.106179 0.5 0 0 0 -1.64523 0.617816 -0.0464389 
152 1.35725 3.63101 1.14385 0.5 0 0 0 0.113071 -0.00936011 0.199515 
153 2.20121 4.40131 0.258866 0.5 0 0 0 -0.252398 -0.13362 -0.978038 
154 2.3391 4.58275 0.684235 0.5 0 0 0 -0.384996 -0.355658 0.255407 
155 1.29543 3.739 0.711873 0.5 0 0 0 -0.0562979 0.396004 0.295771 
156 0.448861 4.37762 1.0583 0.5 0 0 0 -0.637613 -0.993213 1.12878 
157 2.28879 2.65211 1.12402 0.5 0 0 0 0.33358 -0.230733 0.723479 
158 1.97602 4.15403 0.975273 0.5 0 0 0 0.404538 -0.540366 0.51022 
159 1.30202 3.80288 0.707776 0.5 0 0 0 -0.132015 0.516263 0.258985 
160 2.25978 2.64392 -0.0733028 0.5 0 0 0 -0.478474 -0.5014 -2.67294 
23 0.962135 2.54199 0.248238 0.5 0 0 0 0.775238 -0.195278 -0.0476531 
162 1.69243 3.28375 0.688212 0.5 0 0 0 1.10812 -0.412003 0.186945 
163 0.0413296 4.44313 0.0101752 0.5 0 0 0 0.227728 -0.442919 -0.609379 
164 2.14712 2.84689 0.191508 0.5 0 0 0 -0.0991996 -0.121535 -1.1024 
165 0.0909439 3.27534 0.313761 0.5 0 0 0 -1.79333 0.168305 0.889062 
166 2.19765 3.29178 0.984016 0.5 0 0 0 0.426616 -0.0728573 0.437574 
169 0.463446 3.13038 2.39827 0.5 0 0 0 -0.761614 0.716152 0.0717137 
170 1.91535 3.15614 2.11444 0.5 0 0 0 0.849979 -0.609227 0.276123 
171 0.0731212 4.12223 2.28627 0.5 0 0 0 -2.32458 -0.638972 -1.31683 
172 1.10385 2.49108 1.83479 0.5 0 0 0 0.1137 -0.0898106 0.287153 
173 1.82174 3.36307 1.88121 0.5 0 0 0 0.624453 -0.353021 -0.192783 
174 1.26915 2.64237 1.45142 0.5 0 0 0 0.152435 0.0685928 0.052255 
175 1.5165 4.31087 1.98113 0.5 0 0 0 0.60882 -0.492244 -0.249125 
176 1.55215 2.54248 1.97066 0.5 0 0 0 1.07772 -0.388556 0.455852 
177 -0.000873893 2.86161 2.38797 0.5 0 0 0 -2.34367 0.446021 0.184785 
178 1.44946 3.12326 1.43829 0.5 0 0 0 0.262656 -0.115135 -0.0446983 
179 2.14587 3.06959 2.45799 0.5 0 0 0 1.21844 -1.04108 0.798676 
180 1.15672 3.75587 1.50516 0.5 0 0 0 -0.819936 -0.0253808 -0.175301 
181 1.90675 4.8254 1.69836 0.5 0 0 0 -0.11006 0.569136 -0.338467 
182 1.13561 4.0265 1.86655 0.5 0 0 0 -0.897722 -0.269056 -0.176356 
183 1.54777 4.578 2.2453 0.5 0 0 0 0.407829 -0.184496 0.381973 
184 0.375306 2.61523 1.7266 0.5 0 0 0 -1.25193 0.288662 -0.281853 
185 1.31385 4.74035 2.28151 0.5 0 0 0 -0.397741 0.23466 0.57372 
204 1.32469 2.72488 2.02243 0.5 0 0 0 0.411328 -0.15141 0.337908 
187 1.38995 2.5981 2.25108 0.5 0 0 0 0.729141 -0.475109 0.785682 
188 1.50496 3.99844 2.40065 0.5 0 0 0 0.211201 -0.474667 0.650948 
189 1.72033 3.51607 2.26762 0.5 0 0 0 0.268685 -0.402688 0.325114 
202 0.97252 3.69504 1.79271 0.5 0 0 0 -1.44563 -0.0254624 -0.100551 
191 2.16537 2.98689 2.46313 0.5 0 0 0 1.31922 -1.07884 0.829752 
192 1.88901 3.66891 2.05625 0.5 0 0 0 0.648529 -0.477149 -0.120449 
193 0.891343 3.87886 2.4315 0.5 0 0 0 -1.18046 -0.0753177 0.529375 
194 0.584983 3.06104 2.15149 0.5 0 0 0 -0.56163 0.71961 -0.13138 
195 1.99794 2.84629 1.96781 0.5 0 0 0 1.27016 -0.681286 0.435285 
196 1.34713 4.40977 1.55938 0.5 0 0 0 -0.112878 0.0288053 -0.882865 
190 1.78495 4.93382 1.1726 0.5 0 0 0 -1.13941 1.8513 -0.304655 
198 0.864707 4.5435 2.00967 0.5 0 0 0 -2.1147 0.135879 -0.143084 
199 1.34387 3.07488 2.36975 0.5 0 0 0 -0.0318072 -0.265271 0.531325 
200 2.34843 5.02929 2.31953 0.5 0 0 0 -0.796871 1.59987 0.324377 
201 0.447625 2.72568 2.13465 0.5 0 0 0 -0.558397 0.0893434 0.11343 
70 0.869077 2.53772 2.15016 0.5 0 0 0 -0.00745489 -0.379538 0.68291 
145 2.08491 2.5666 1.35062 0.5 0 0 0 0.613479 -0.220206 0.593894 
161 0.304203 3.15922 1.21597 0.5 0 0 0 -2.20408 0.586607 0.685948 
205 1.20045 3.53231 3.03398 0.5 0 0 0 0.0678487 -0.33403 0.264395 
206 1.96354 4.32896 3.0356 0.5 0 0 0 -0.110263 -0.374475 0.795672 
207 0.125246 4.09144 3.71369 0.5 0 0 0 -0.808869 -0.464172 0.10916 
208 0.843592 2.50922 3.69925 0.5 0 0 0 0.234163 -2.55691 0.728873 
209 1.51897 3.92171 3.16326 0.5 0 0 0 0.196406 -0.117592 0.840585 
210 1.84193 3.57401 3.51447 0.5 0 0 0 0.186007 -0.79757 0.527488 
211 1.88266 3.75203 2.61169 0.5 0 0 0 0.452286 -0.560288 0.722422 
212 1.26728 4.95011 2.96345 0.5 0 0 0 -0.263375 0.344923 0.888351 
213 2.05997 3.14167 2.58517 0.5 0 0 0 0.926574 -0.952218 0.886773 
214 1.24451 3.27321 3.65915 0.5 0 0 0 0.794254 -0.803014 0.932485 
215 0.72358 3.1322 3.31571 0.5 0 0 0 -0.405257 -0.703727 -0.116954 
216 0.445424 3.1858 3.33118 0.5 0 0 0 -1.08576 -0.462279 -0.477946 
217 2.47751 2.71685 2.75587 0.5 0 0 0 1.39729 -1.20607 0.862045 
218 2.3856 5.03043 3.71336 0.5 0 0 0 -0.964609 1.53898 0.41094 
219 1.09024 2.61489 3.18493 0.5 0 0 0 0.202241 -1.69429 0.47206 
220 2.3237 4.8339 2.95769 0.5 0 0 0 -0.618008 0.36154 0.828757 
221 1.05556 3.48504 3.60298 0.5 0 0 0 0.438431 -0.233148 0.805243 
222 2.43948 3.20193 3.0653 0.5 0 0 0 0.899371 -1.47819 0.585505 
223 1.90845 2.5835 3.33421 0.5 0 0 0 1.00388 -1.39156 0.90805 
224 0.51884 4.9229 3.11834 0.5 0 0 0 -0.680205 1.04937 -0.188449 
225 0.511126 3.84252 3.64451 0.5 0 0 0 -0.152874 0.0961409 0.347043 
226 0.947697 4.03003 2.86602 0.5 0 0 0 -0.664856 0.111344 0.686466 
227 1.10353 3.04116 3.11188 0.5 0 0 0 0.291875 -0.946498 0.135918 
228 0.260908 4.35829 2.60106 0.5 0 0 0 -1.13168 -0.263857 -0.406409 
229 0.262291 4.30495 3.51799 0.5 0 0 0 -0.219796 -0.166077 -0.264811 
230 1.60814 2.91279 3.13403 0.5 0 0 0 0.859902 -1.11713 0.637789 
234 1.25336 3.65657 3.14788 0.5 0 0 0 0.17056 -0.177674 0.462573 
232 2.45704 3.29093 3.07977 0.5 0 0 0 0.78908 -1.45297 0.514947 
233 1.25657 4.7676 3.4016 0.5 0 0 0 0.262796 -0.270149 0.631705 
472 2.51544 4.84304 2.81896 0.5 0 0 0 -0.522592 0.376599 0.860396 
251 1.85862 2.53245 3.78308 0.5 0 0 0 0.796276 -1.9706 0.861851 
452 2.41993 3.93784 3.55702 0.5 0 0 0 -0.61854 -0.767717 -0.227192 
254 1.67058 4.93834 3.76207 0.5 0 0 0 -0.108469 -0.00655343 -0.126825 
197 1.56003 4.63702 2.47551 0.5 0 0 0 0.19449 -0.0431917 0.93916 
235 1.25867 4.88885 4.11646 0.5 0 0 0 -0.0651421 -0.422477 -0.499992 
236 2.01962 3.92687 3.99277 0.5 0 0 0 -1.3674 -0.449675 -0.153232 
237 0.594825 2.54954 3.92612 0.5 0 0 0 0.437815 -2.27654 0.91189 
238 0.923659 4.77169 4.37611 0.5 0 0 0 0.150013 -0.396478 -0.108928 
239 0.871882 3.75292 3.98213 0.5 0 0 0 0.547455 0.0328885 1.33277 
240 2.06137 4.57361 4.57908 0.5 0 0 0 -2.31825 1.31107 0.100615 
241 2.18402 4.38619 4.75143 0.5 0 0 0 -2.57574 0.696956 0.680953 
242 0.0972848 3.19401 4.41599 0.5 0 0 0 0.712122 -0.0226678 0.530364 
243 -0.0210844 2.72651 4.80956 0.5 0 0 0 0.478529 -2.54413 1.85155 
244 0.523827 4.91629 4.8473 0.5 0 0 0 -0.892524 0.136737 1.01527 
245 1.52926 3.07 4.95431 0.5 0 0 0 -1.28625 -1.12749 1.45293 
246 1.24538 3.71928 4.4173 0.5 0 0 0 -0.181748 -0.942111 1.03631 
247 2.42627 3.3571 3.82754 0.5 0 0 0 -0.0792559 -1.80321 -0.263724 
248 1.72735 2.67639 4.86735 0.5 0 0 0 -0.717017 -1.99975 0.514673 
249 1.67259 3.00146 4.12672 0.5 0 0 0 0.268938 -1.74655 0.717816 
250 1.29947 2.62046 3.9529 0.5 0 0 0 0.753687 -2.08425 1.28434 
259 0.587315 2.82169 3.88904 0.5 0 0 0 0.414875 -1.32137 0.940604 
258 0.0372902 2.95954 4.02069 0.5 0 0 0 -0.312592 -0.790844 -0.239196 
253 0.163212 2.67725 3.94064 0.5 0 0 0 -0.222657 -1.89758 0.00970275 
498 2.4724 3.56392 4.29257 0.5 0 0 0 -1.20934 -2.02095 -0.680333 
255 0.213926 3.66474 4.84727 0.5 0 0 0 0.696216 0.259919 1.04147 
256 2.32355 4.09436 4.60624 0.5 0 0 0 -2.25465 -0.68598 -0.152658 
257 1.27312 4.24124 4.86157 0.5 0 0 0 -0.926698 -1.02027 1.44441 
260 4.00548 -0.157003 0.919832 0.5 0 0 0 -0.224171 -2.77525 0.556822 
261 3.19555 2.28939 1.12981 0.5 0 0 0 -0.766231 0.0920763 1.34738 
262 4.78768 2.0216 0.404287 0.5 0 0 0 1.76554 0.433159 -1.08035 
263 4.86349 0.626833 0.989597 0.5 0 0 0 1.13932 -1.77782 0.856529 
264 3.25883 0.915982 0.201982 0.5 0 0 0 -0.773151 0.954952 -0.970733 
265 4.90556 1.41686 1.11292 0.5 0 0 0 1.84976 0.293379 1.42055 
266 4.83437 0.647195 -0.0129553 0.5 0 0 0 0.867705 -0.263085 -3.22857 
267 3.45727 1.79731 0.886211 0.5 0 0 0 -1.61331 -0.356145 0.380663 
268 2.89322 0.522862 0.844918 0.5 0 0 0 -0.153666 -0.397531 1.69454 
269 3.96981 1.81192 0.224035 0.5 0 0 0 -1.04667 -0.483312 -2.25323 
270 3.93632 1.90246 1.01937 0.5 0 0 0 -0.96763 0.532139 1.32235 
293 3.02089 2.402 0.572197 0.5 0 0 0 -0.796692 -0.433144 0.208541 
272 4.42309 1.79277 0.741692 0.5 0 0 0 0.0471745 0.718693 0.202816 
273 4.85215 1.36362 0.800133 0.5 0 0 0 1.45525 -0.32275 -0.10513 
274 2.68345 0.714078 0.82448 0.5 0 0 0 0.231216 -0.0904004 1.49869 
275 2.53787 2.34774 0.0564328 0.5 0 0 0 -0.496738 -1.07386 -2.05802 
276 5.08108 0.0669057 0.787809 0.5 0 0 0 1.14245 -1.66543 0.654451 
294 3.1399 0.0914766 0.349252 0.5 0 0 0 0.15058 -2.31536 -0.195691 
278 3.60826 1.88445 0.935533 0.5 0 0 0 -1.4745 -0.0204962 0.73972 
279 3.71217 0.457456 0.171537 0.5 0 0 0 0.354215 -1.32187 -1.49383 
295 2.73142 1.13215 0.898671 0.5 0 0 0 -0.159634 0.17066 0.868974 
281 3.0564 0.151188 0.970883 0.5 0 0 0 -0.451398 -1.93751 1.77532 
282 3.87439 1.69556 1.09784 0.5 0 0 0 -1.31069 0.0497578 1.41496 
283 3.80612 2.33926 -0.181308 0.5 0 0 0 -1.10117 -0.928775 -3.77622 
284 4.16863 2.09977 0.500955 0.5 0 0 0 -0.298033 0.731181 -0.333554 
285 3.41144 2.33265 0.439944 0.5 0 0 0 -1.11914 -0.145077 -0.370681 
286 3.72183 0.963261 0.427494 0.5 0 0 0 -1.13998 -0.231014 -0.451687 
287 4.34117 1.0384 0.421509 0.5 0 0 0 -0.486849 -1.23538 -1.49496 
288 4.07943 1.6191 1.03377 0.5 0 0 0 -1.10325 0.123612 1.24628 
289 4.36668 1.05292 0.596487 0.5 0 0 0 -0.637087 -1.32405 -0.787478 
290 3.33102 0.992295 0.62311 0.5 0 0 0 -1.22167 0.311914 0.681996 
291 2.90505 1.00381 0.0831258 0.5 0 0 0 -0.432338 1.5278 -1.78155 
297 3.16279 0.422633 1.81526 0.5 0 0 0 -1.29624 -1.55317 0.777146 
298 3.83872 2.08748 2.17162 0.5 0 0 0 -1.14476 -0.142809 1.04437 
299 3.06608 0.732187 2.23275 0.5 0 0 0 -0.806991 -0.563656 1.53062 
323 3.16957 1.7184 1.55879 0.5 0 0 0 -0.673974 -0.158872 1.15611 
301 3.32709 1.70196 2.15389 0.5 0 0 0 -0.572187 0.0773982 1.27867 
302 3.70477 0.970471 1.808 0.5 0 0 0 -0.87258 0.195369 1.52374 
303 3.80395 0.847812 1.94421 0.5 0 0 0 -0.641817 0.039184 1.64926 
292 4.33293 1.2853 1.24701 0.5 0 0 0 -0.639641 -0.249339 1.77509 
305 4.06195 1.45734 1.37118 0.5 0 0 0 -1.02088 0.152795 2.08144 
306 4.61121 1.24738 1.92467 0.5 0 0 0 0.7876 -0.0452685 1.55523 
307 4.02805 0.00289068 2.16168 0.5 0 0 0 -1.98919 -2.04561 -0.12529 
308 4.72506 0.104428 2.27495 0.5 0 0 0 0.0573424 -0.247031 0.0162065 
309 3.95474 0.747125 1.9207 0.5 0 0 0 -0.46872 -0.275998 1.65556 
310 4.61075 2.32872 1.97826 0.5 0 0 0 0.484442 -0.14286 0.410058 
311 3.53785 2.25908 2.09172 0.5 0 0 0 -0.893417 0.15822 1.12884 
321 4.85074 -0.0225733 2.20582 0.5 0 0 0 0.482357 -0.650803 -0.309905 
313 2.56726 1.50595 2.20378 0.5 0 0 0 0.109448 0.00594162 1.31398 
320 2.69246 1.31431 1.87261 0.5 0 0 0 0.0635473 -0.0689574 0.908791 
315 3.26738 0.871673 1.9548 0.5 0 0 0 -0.804977 -0.121835 1.16741 
316 4.50045 1.00423 2.30412 0.5 0 0 0 0.307712 0.0216581 0.921367 
317 4.42453 1.96834 2.33396 0.5 0 0 0 -0.426085 -0.757498 0.429072 
318 3.62756 0.647095 1.42441 0.5 0 0 0 -1.297 -0.894211 0.717561 
319 3.17122 2.16818 1.97117 0.5 0 0 0 -0.361802 0.250593 1.24399 
271 4.89446 1.59839 1.20695 0.5 0 0 0 1.99247 1.05741 1.86754 
19 2.58919 1.86325 1.17351 0.5 0 0 0 0.013086 -0.264311 0.539879 
280 3.82516 0.808417 1.18766 0.5 0 0 0 -1.36625 -0.816526 0.795697 
300 4.20682 2.38482 1.22813 0.5 0 0 0 -0.043732 0.85004 1.85763 
296 4.29953 0.620859 1.1735 0.5 0 0 0 -0.39114 -1.69157 0.799733 
277 3.47973 2.13585 1.1768 0.5 0 0 0 -1.0877 0.311772 1.56487 
324 4.20049 1.07209 3.60418 0.5 0 0 0 -1.49447 0.44757 -0.557423 
325 3.13524 0.346648 3.34055 0.5 0 0 0 -3.12523 -1.26454 1.33757 
326 3.66738 1.47199 3.67458 0.5 0 0 0 -1.94324 -0.405512 -0.0546997 
327 4.15863 1.37271 2.56514 0.5 0 0 0 -0.87973 -0.248749 0.532216 
328 3.56053 0.746072 2.82267 0.5 0 0 0 -1.23032 0.197332 0.970852 
329 4.6547 1.85819 2.7612 0.5 0 0 0 0.287401 -1.60667 -0.422553 
330 3.3792 1.61927 3.26274 0.5 0 0 0 -1.49014 -0.393442 0.612954 
331 4.42014 1.68674 3.2659 0.5 0 0 0 -1.11423 -1.26874 -0.407851 
332 4.72993 0.335382 2.57276 0.5 0 0 0 0.295599 0.868815 -0.287276 
333 2.66868 0.745649 3.45057 0.5 0 0 0 -3.12677 -1.52279 2.19024 
334 4.39709 0.492251 3.23251 0.5 0 0 0 -0.533131 0.856178 -1.84096 
335 5.05888 2.33763 2.86349 0.5 0 0 0 3.04189 -1.0071 -0.903768 
336 4.05518 0.349997 3.25553 0.5 0 0 0 -1.75577 0.276351 -0.965815 
350 2.94785 1.6205 2.67101 0.5 0 0 0 -0.331949 -0.231894 1.44432 
338 2.75763 1.04701 3.70241 0.5 0 0 0 -3.05269 -1.44822 1.35403 
339 2.70521 0.895138 2.70663 0.5 0 0 0 -1.03011 -1.15816 2.4385 
340 2.93396 1.02898 3.59674 0.5 0 0 0 -2.76056 -1.00177 1.23851 
341 4.47472 1.99478 3.43292 0.5 0 0 0 -1.11102 -1.62616 0.0347116 
342 4.92134 1.88468 3.61398 0.5 0 0 0 1.0878 -1.75788 0.255013 
343 3.24144 1.5906 2.62381 0.5 0 0 0 -0.676341 -0.187442 1.25353 
349 4.19679 -0.0384172 3.2198 0.5 0 0 0 -1.68688 -1.348 -1.61045 
345 3.47821 0.0426472 3.05536 0.5 0 0 0 -2.73631 -2.2143 0.525311 
346 3.69692 0.81252 3.53319 0.5 0 0 0 -2.44878 0.195995 0.133108 
347 2.80181 1.66491 2.63694 0.5 0 0 0 -0.102935 -0.190726 1.44762 
348 2.63913 1.65881 2.67644 0.5 0 0 0 0.0402476 -0.424364 1.55992 
352 4.9476 1.25163 3.70678 0.5 0 0 0 1.53041 -0.0803969 -0.468128 
469 4.12803 2.45322 2.60915 0.5 0 0 0 -1.94924 -0.32758 -0.220424 
304 2.73536 0.148562 2.52864 0.5 0 0 0 -1.73128 -2.67689 1.93459 
384 4.55124 0.313807 3.78157 0.5 0 0 0 -1.08605 0.714389 -1.9375 
351 4.81681 0.433186 4.13216 0.5 0 0 0 0.535589 1.2844 -0.25537 
381 3.28513 1.873 4.23841 0.5 0 0 0 -1.6919 -1.05928 -1.04755 
353 3.42785 1.25796 4.13505 0.5 0 0 0 -2.41242 -0.741768 -0.231588 
354 3.93464 1.93868 4.94642 0.5 0 0 0 -0.469424 -0.731156 1.15875 
355 4.89446 2.33383 4.00751 0.5 0 0 0 0.313325 -1.36281 1.33097 
356 4.45179 -0.173175 4.7697 0.5 0 0 0 -1.86009 -2.81271 1.58556 
383 4.13178 0.484751 4.99293 0.5 0 0 0 -2.19912 0.864362 2.56455 
358 5.0929 1.5728 4.75785 0.5 0 0 0 1.28518 -0.321791 1.6588 
359 3.01963 1.92092 4.29426 0.5 0 0 0 -1.64707 -1.29438 -1.07767 
360 4.55822 0.294844 4.19704 0.5 0 0 0 -1.20759 0.680655 -0.312306 
361 5.01071 2.27455 4.16296 0.5 0 0 0 0.815296 -1.71605 1.74481 
362 4.17111 0.254776 4.2464 0.5 0 0 0 -3.31798 0.0156094 -0.20564 
363 3.91127 0.31909 4.53698 0.5 0 0 0 -4.12028 -0.229052 0.557595 
364 2.66472 1.94633 4.90104 0.5 0 0 0 -2.03346 -1.87521 0.775536 
365 3.16969 1.7958 4.59542 0.5 0 0 0 -1.63183 -1.52828 -0.42905 
366 4.61143 0.911578 4.1486 0.5 0 0 0 -0.161743 1.71027 0.501537 
367 3.81675 -0.0602655 3.84489 0.5 0 0 0 -4.38233 -2.21116 0.189334 
368 4.06429 1.84855 4.28442 0.5 0 0 0 -1.15822 -0.718782 -0.0177408 
369 3.49419 1.48241 4.35656 0.5 0 0 0 -1.88357 -0.953653 -0.468709 
370 2.82997 0.443275 4.66007 0.5 0 0 0 -3.54653 -1.08079 0.0900604 
371 4.72583 0.250742 4.64226 0.5 0 0 0 0.353964 0.645453 1.6131 
382 3.88417 0.944615 3.84084 0.5 0 0 0 -2.45401 0.362103 -0.0352449 
373 4.63288 0.300496 3.94052 0.5 0 0 0 -0.776919 0.734377 -1.37517 
374 4.53401 0.48621 4.0481 0.5 0 0 0 -1.13015 1.24195 -0.778652 
375 5.0345 0.0100892 4.98315 0.5 0 0 0 3.5946 -1.18686 3.20892 
376 4.10392 1.60788 4.6828 0.5 0 0 0 -0.582532 -0.440865 0.453408 
377 4.01537 2.10371 5.10768 0.5 0 0 0 -0.110004 -0.494929 2.13376 
378 2.91758 1.64262 5.01093 0.5 0 0 0 -1.92855 -2.16824 1.57487 
379 3.53376 0.926492 5.0741 0.5 0 0 0 -2.38326 -0.425513 1.83399 
380 3.06475 2.29046 4.29764 0.5 0 0 0 -1.41919 -1.2523 -1.06818 
385 2.72742 3.16667 0.678629 0.5 0 0 0 -0.25939 0.0375753 0.47781 
386 4.46002 4.72631 0.0499666 0.5 0 0 0 0.670173 0.329242 -0.709492 
387 3.86554 3.94207 0.138868 0.5 0 0 0 0.119323 -0.411014 -0.42797 
388 4.3202 4.0172 1.07918 0.5 0 0 0 -0.817652 -0.172811 -1.10383 
389 3.81848 3.08829 0.794959 0.5 0 0 0 -0.593843 0.0886374 0.755329 
390 3.64731 4.11213 0.128382 0.5 0 0 0 0.0900819 -0.597278 0.0534284 
391 5.05324 4.33 1.0758 0.5 0 0 0 2.14313 1.08709 -1.29518 
392 4.88879 2.67893 0.295456 0.5 0 0 0 1.32121 0.365107 -0.297404 
393 4.52615 4.58373 0.677714 0.5 0 0 0 -0.0148951 1.27489 -0.991434 
394 2.76375 2.92559 1.08837 0.5 0 0 0 0.0172073 -0.151017 1.30104 
395 4.91112 2.95983 0.998612 0.5 0 0 0 1.35495 -0.497201 1.14148 
396 4.08242 3.07659 0.0175013 0.5 0 0 0 -0.343913 0.450788 -1.52523 
397 5.07978 4.04744 0.825037 0.5 0 0 0 2.38237 -0.0625443 -1.63047 
398 2.92734 4.94158 0.00820841 0.5 0 0 0 -0.477151 2.03755 -1.50094 
399 3.38819 4.92149 0.58832 0.5 0 0 0 0.578013 1.09103 -0.330944 
400 3.33768 4.51273 0.419339 0.5 0 0 0 0.195507 -0.603872 0.275921 
401 3.37373 2.65717 0.0719788 0.5 0 0 0 -0.978759 -0.396996 -1.65024 
402 2.72655 3.11912 0.688011 0.5 0 0 0 -0.262859 0.00998205 0.537464 
403 4.76397 3.22273 0.182952 0.5 0 0 0 0.43129 0.481353 -1.34399 
404 4.20748 2.63553 0.142004 0.5 0 0 0 -0.164179 0.531376 -0.893886 
405 4.05946 4.87616 -0.0238904 0.5 0 0 0 0.282765 0.873207 -0.164235 
406 4.20552 3.58906 1.03062 0.5 0 0 0 -0.887334 -0.743078 -0.29077 
407 2.81353 4.2113 -0.0113396 0.5 0 0 0 -0.346719 -0.769299 -1.25045 
408 4.9935 3.11745 0.424441 0.5 0 0 0 1.24825 -0.0506726 -0.253399 
409 3.77205 3.30856 0.562627 0.5 0 0 0 -0.535878 0.0680817 0.0361716 
410 3.87007 2.62727 0.885782 0.5 0 0 0 -0.53252 0.714052 1.23156 
411 4.18382 2.65307 1.06403 0.5 0 0 0 -0.135346 0.559351 1.46056 
412 3.09159 3.18162 0.446709 0.5 0 0 0 -0.480413 0.0500253 0.0614851 
413 2.9187 3.71694 0.925147 0.5 0 0 0 -0.225707 -0.363109 0.330751 
414 2.70955 4.4843 0.643287 0.5 0 0 0 -0.107169 -0.930265 0.142364 
415 2.63879 4.93667 1.11349 0.5 0 0 0 -1.07915 0.886352 -0.319869 
417 3.08579 3.60768 0.193222 0.5 0 0 0 -0.439146 -0.300435 -0.622327 
418 4.81607 4.17572 1.6567 0.5 0 0 0 0.591378 -0.344406 0.0452638 
419 2.97104 3.7773 2.20128 0.5 0 0 0 0.527109 -1.67737 0.59776 
420 4.87673 3.94972 2.41376 0.5 0 0 0 0.274822 -1.57631 0.677168 
421 4.87511 4.5704 1.80973 0.5 0 0 0 1.0115 1.67478 -0.45557 
422 4.26911 4.54909 1.75393 0.5 0 0 0 0.210651 0.978855 0.159613 
423 3.64884 4.60708 1.39653 0.5 0 0 0 0.361057 0.133725 -1.2318 
424 4.35686 3.80957 1.43823 0.5 0 0 0 -0.729133 -1.16532 0.524542 
425 2.78397 3.15329 1.33966 0.5 0 0 0 0.223655 -0.293628 1.28217 
426 3.24265 4.5535 2.11578 0.5 0 0 0 0.105251 -0.908396 1.66011 
427 3.29534 4.61705 1.65763 0.5 0 0 0 -0.180081 -0.610706 -0.144498 
428 4.92768 4.31069 2.00987 0.5 0 0 0 0.632343 -0.199162 0.0995321 
429 3.19584 4.83428 1.72876 0.5 0 0 0 -0.356611 0.28354 0.170784 
430 2.95764 4.84836 1.32106 0.5 0 0 0 -0.875932 0.354228 -0.984231 
431 3.50765 2.67592 2.37492 0.5 0 0 0 -0.874475 -0.138918 0.589053 
432 3.95776 2.50817 1.48001 0.5 0 0 0 -0.674932 0.427631 1.94286 
433 2.74246 4.3553 2.39778 0.5 0 0 0 -0.216775 -1.0173 0.873529 
434 3.13473 4.50779 1.94043 0.5 0 0 0 -0.332024 -1.07921 0.870673 
435 3.61635 4.6595 1.62656 0.5 0 0 0 0.532154 0.0850968 -0.176525 
436 3.34107 3.27576 2.05507 0.5 0 0 0 -0.141784 -0.94033 0.961116 
437 3.80655 3.9833 1.78454 0.5 0 0 0 -0.714558 -1.51617 0.940772 
438 5.00235 3.52829 1.86043 0.5 0 0 0 1.73063 -1.93263 0.236691 
439 4.48504 4.48045 2.45638 0.5 0 0 0 -0.699915 0.100527 1.44682 
440 2.64624 3.87468 2.23009 0.5 0 0 0 0.374662 -1.16787 0.247904 
441 2.92967 4.74914 2.12022 0.5 0 0 0 -0.681664 -0.00187205 1.10784 
442 3.06368 4.58908 1.3818 0.5 0 0 0 -0.702495 -0.753021 -1.05742 
443 3.87393 4.11949 1.96442 0.5 0 0 0 -0.426134 -1.36552 1.44369 
444 2.67806 4.35639 1.89243 0.5 0 0 0 -0.768881 -0.933484 -0.157713 
445 4.42925 3.75365 1.23855 0.5 0 0 0 -0.571394 -1.03445 -0.01311 
446 4.16136 3.88014 2.29143 0.5 0 0 0 -0.971764 -1.56497 1.40255 
447 3.98413 3.8338 1.70991 0.5 0 0 0 -1.0034 -1.50687 1.0225 
448 4.54614 2.8292 2.2281 0.5 0 0 0 -0.167338 0.272923 -0.26508 
449 3.08114 3.86142 1.29596 0.5 0 0 0 -0.376896 -0.892129 0.0160035 
450 3.483 3.36566 1.39672 0.5 0 0 0 -0.555934 -0.723535 1.08938 
416 4.43939 3.86705 1.2623 0.5 0 0 0 -0.55345 -0.823813 -0.162318 
203 2.54258 2.99443 1.48495 0.5 0 0 0 0.543045 -0.349878 1.11902 
322 2.89681 2.52125 1.86351 0.5 0 0 0 0.201409 -0.0969023 1.343 
314 4.95154 2.49957 1.43987 0.5 0 0 0 2.18021 0.0170287 0.881033 
479 2.67201 3.66333 3.67497 0.5 0 0 0 -0.203282 -1.64073 -0.627225 
453 4.81673 2.73412 3.2535 0.5 0 0 0 0.831758 0.571412 -0.423156 
454 3.9686 3.31053 2.81272 0.5 0 0 0 -1.04513 -0.0947125 0.106196 
455 2.9786 4.28331 3.66018 0.5 0 0 0 -0.726464 -0.931961 -1.02438 
456 2.78681 4.65171 3.10914 0.5 0 0 0 -0.203224 -0.442488 0.326352 
457 3.04669 4.89391 2.94079 0.5 0 0 0 0.553126 0.687028 0.706032 
458 3.38148 3.15474 2.90913 0.5 0 0 0 -0.536572 -0.877597 0.204822 
459 4.79833 4.06688 2.63942 0.5 0 0 0 -0.12816 -1.05993 1.14741 
460 4.3388 2.93317 3.14829 0.5 0 0 0 -1.28459 1.05569 -0.479591 
461 4.46961 4.44766 2.57147 0.5 0 0 0 -0.803989 -0.0313427 1.57319 
462 4.70144 4.99921 2.54256 0.5 0 0 0 0.456919 4.60246 1.38129 
463 4.41338 2.63817 2.73773 0.5 0 0 0 -1.2261 -0.00244954 -0.778261 
464 3.08229 3.82561 3.12878 0.5 0 0 0 0.298954 -1.73455 -0.110312 
465 3.57021 3.93289 3.56067 0.5 0 0 0 0.454546 -1.22719 -1.19867 
466 4.19206 2.57746 3.01757 0.5 0 0 0 -2.12587 -0.251484 -0.640446 
467 3.47468 4.4369 3.46201 0.5 0 0 0 0.871017 -0.333505 -0.872438 
468 4.83205 2.71881 2.53954 0.5 0 0 0 1.39735 0.238123 -0.966674 
344 4.18939 2.52631 3.41191 0.5 0 0 0 -2.05241 -0.494576 0.00251221 
470 4.48469 2.5291 3.64937 0.5 0 0 0 -1.05983 -0.473955 0.538377 
471 3.84038 4.76543 3.03905 0.5 0 0 0 0.428589 1.21797 0.489353 
451 2.79986 3.79809 2.49961 0.5 0 0 0 0.673091 -1.50334 0.668434 
473 2.91846 5.08611 3.74857 0.5 0 0 0 -0.149524 2.67779 0.232615 
474 4.50733 2.85757 3.6255 0.5 0 0 0 -0.710852 1.04248 0.308562 
478 3.989 2.61315 3.41298 0.5 0 0 0 -2.49924 -0.216063 -0.0580189 
476 4.67836 3.70549 3.01079 0.5 0 0 0 0.0893517 -0.00661302 0.817142 
477 2.80107 4.25511 2.5663 0.5 0 0 0 0.0882185 -1.26933 0.940696 
337 4.00853 2.47712 3.28526 0.5 0 0 0 -2.56704 -0.587915 -0.21081 
475 4.80453 4.05407 3.78608 0.5 0 0 0 0.939229 -0.0504932 -0.155906 
480 3.58954 3.80888 4.79313 0.5 0 0 0 1.28061 -1.32197 0.955191 
481 4.13979 3.02607 4.9578 0.5 0 0 0 -0.268072 -1.47015 2.14223 
482 3.77862 3.59843 4.00779 0.5 0 0 0 0.420602 -0.998489 -1.09692 
483 4.40531 4.8875 4.10611 0.5 0 0 0 0.262943 0.500327 -1.75139 
484 3.17257 4.00241 3.96809 0.5 0 0 0 -0.446823 -1.44894 -1.51107 
485 3.66543 3.93623 4.40885 0.5 0 0 0 1.30956 -0.83593 -0.600753 
486 4.72061 4.70311 4.34975 0.5 0 0 0 -0.0981643 -0.898997 -1.36609 
487 3.27989 3.12527 4.27902 0.5 0 0 0 -0.664679 -1.98175 -0.831728 
488 4.67013 3.1766 4.66623 0.5 0 0 0 0.0222432 0.0685471 0.971152 
489 3.35018 4.83714 5.08974 0.5 0 0 0 -0.17355 3.09016 3.98329 
490 3.58041 3.44621 4.24508 0.5 0 0 0 -0.03637 -1.73952 -0.8843 
491 3.71319 4.11091 4.82949 0.5 0 0 0 2.05132 -0.117077 1.33688 
492 2.664 3.19062 4.79125 0.5 0 0 0 -1.28701 -2.59094 0.922995 
493 4.51495 3.66926 4.72374 0.5 0 0 0 1.18572 0.523206 0.678121 
494 3.42614 3.64514 5.12504 0.5 0 0 0 0.777634 -2.09047 3.3119 
495 2.6833 4.06724 4.41671 0.5 0 0 0 -1.05371 -0.908357 -1.1586 
496 2.62237 3.80935 4.95757 0.5 0 0 0 -1.3783 -1.77669 1.45778 
497 3.38169 4.37698 3.9444 0.5 0 0 0 0.446701 -0.250727 -1.31599 
357 3.44984 2.49539 4.63855 0.5 0 0 0 -0.880722 -1.29874 0.135076 
499 3.95607 2.50645 4.05608 0.5 0 0 0 -1.53376 -0.74909 0.251143 
500 4.65467 4.93223 4.974 0.5 0 0 0 -0.725 -0.119524 1.69265 
501 4.62616 4.8156 4.90395 0.5 0 0 0 -0.283502 -0.293767 1.29259 
502 2.68186 3.97566 4.77886 0.5 0 0 0 -0.998836 -1.16844 0.287558 
503 2.93974 4.25916 4.55901 0.5 0 0 0 -0.37557 -0.128587 -0.685886 
504 3.55114 3.30535 4.291 0.5 0 0 0 -0.234655 -1.87474 -0.698598 
505 3.69577 4.82261 4.28552 0.5 0 0 0 1.42002 1.77437 -0.194307 
506 4.09437 4.02173 3.97423 0.5 0 0 0 1.8243 0.0294076 -0.947222 
507 4.9127 2.81898 3.94309 0.5 0 0 0 0.483172 0.98998 0.557219 
508 2.87514 3.9281 4.68635 0.5 0 0 0 -0.391687 -1.40765 -0.269392 
509 3.30514 4.75552 4.40391 0.5 0 0 0 0.178822 1.78579 -0.100183 
510 3.08449 4.49513 4.06087 0.5 0 0 0 -0.595992 0.201668 -1.22201 
511 2.64437 3.03165 4.50455 0.5 0 0 0 -1.02993 -2.20821 -0.126222 
512 2.66599 2.82479 4.36837 0.5 0 0 0 -0.847012 -1.88592 -0.442521 
513 4.86973 3.02688 4.29851 0.5 0 0 0 0.304274 1.03357 0.591024 
ITEM: TIMESTEP
60073
ITEM: NUMBER OF ATOMS
512
ITEM: BOX BOUNDS ss ss ss
-2.1589663964569298e-02 5.0933846546203574e+00
-1.7364439631764822e-01 5.0865807164741392e+00
-1.8176655292622759e-01 5.1255068607205727e+00
ITEM: ATOMS id x y z width_SPH x_COM y_COM z_COM vx vy vz 
2 0.301053 0.77593 0.246861 0.5 0 0 0 -1.37911 -0.579447 0.0688792 
3 0.259424 1.291 0.605723 0.5 0 0 0 -2.08426 -0.964603 0.287795 
4 0.787477 1.24764 1.03677 0.5 0 0 0 -0.386206 -0.340097 0.749162 
5 1.73539 1.8934 0.823939 0.5 0 0 0 0.958456 0.35207 0.221152 
6 0.274184 2.07867 0.848539 0.5 0 0 0 -2.11837 0.8604 1.16647 
7 0.546652 1.58453 0.342542 0.5 0 0 0 -0.688621 -0.372035 -0.682027 
8 1.33606 0.225894 0.773371 0.5 0 0 0 0.0500224 -0.685396 1.18403 
9 1.53469 0.986433 0.331374 0.5 0 0 0 0.773985 0.26065 -0.747351 
10 1.11159 1.53603 -0.068572 0.5 0 0 0 0.983766 -0.388474 -2.84955 
11 1.39605 1.22774 0.796171 0.5 0 0 0 0.782224 0.130006 0.282664 
38 1.08307 2.32881 0.776654 0.5 0 0 0 0.516772 0.421739 0.862922 
41 2.23084 2.37931 1.0229 0.5 0 0 0 0.351341 -0.202256 0.556542 
14 1.2605 2.06321 0.329269 0.5 0 0 0 1.32254 0.117803 -0.380233 
15 1.54695 0.0394665 0.976136 0.5 0 0 0 1.23301 -1.50685 2.12367 
37 0.636896 0.390262 0.353986 0.5 0 0 0 -1.47717 -0.586501 0.379765 
17 1.08138 0.11943 0.51972 0.5 0 0 0 -1.29661 -0.687338 0.538456 
18 1.50826 -0.0164939 0.0458904 0.5 0 0 0 0.0210167 -0.949613 -1.1521 
40 1.99514 0.669573 0.604469 0.5 0 0 0 1.39251 -0.19802 0.90481 
20 0.369809 1.75927 1.0479 0.5 0 0 0 -1.73127 0.350012 1.28559 
21 1.87801 1.79469 0.745542 0.5 0 0 0 1.08063 0.226332 -0.00308485 
22 0.552783 2.4223 0.409942 0.5 0 0 0 -0.55823 0.212975 0.657491 
39 0.791152 1.5785 0.810202 0.5 0 0 0 0.14069 0.227587 0.408938 
24 0.00339225 0.598281 0.0816941 0.5 0 0 0 -2.72778 -0.779833 -0.133659 
25 1.95437 0.260595 0.58189 0.5 0 0 0 1.68394 -0.755052 1.36418 
26 1.35582 0.89095 0.584786 0.5 0 0 0 0.399528 0.0192952 -0.00984776 
27 0.86467 1.81411 0.900158 0.5 0 0 0 0.377384 0.670866 0.691793 
28 2.15664 0.95975 0.359457 0.5 0 0 0 0.883483 0.501513 -0.22998 
29 2.42448 1.35996 0.269402 0.5 0 0 0 0.107994 1.01769 -1.19041 
30 1.3992 0.242426 0.884071 0.5 0 0 0 0.488733 -0.821761 1.45696 
31 1.65838 1.51848 0.685685 0.5 0 0 0 1.20228 0.362116 0.0102313 
32 1.30154 2.09592 0.250952 0.5 0 0 0 1.47626 0.00634184 -0.708873 
33 1.46277 1.14326 0.72176 0.5 0 0 0 0.856728 0.0701049 0.199797 
34 0.622252 2.08924 -0.0271365 0.5 0 0 0 -0.447959 -0.575341 -2.02292 
35 1.77117 0.0448028 -0.128833 0.5 0 0 0 1.17611 -0.86448 -2.25438 
36 0.968307 0.88323 0.0786075 0.5 0 0 0 0.0956232 0.0328082 -1.47959 
144 0.0211821 2.45506 0.114565 0.5 0 0 0 -3.16804 -0.780079 -1.09892 
43 1.54525 0.0677136 1.95233 0.5 0 0 0 1.54675 -2.05884 2.27927 
44 1.36473 2.35713 1.90941 0.5 0 0 0 0.773252 -0.348 0.538724 
45 1.33381 1.11988 1.48553 0.5 0 0 0 0.476501 -0.198925 1.55748 
46 1.38772 2.23671 2.32626 0.5 0 0 0 0.773045 -0.849664 1.17322 
47 1.3959 1.26087 1.91898 0.5 0 0 0 -0.0998213 -0.503565 2.3678 
48 1.18006 0.81249 1.47867 0.5 0 0 0 0.16988 -0.426944 1.76226 
49 2.47935 2.34211 1.69818 0.5 0 0 0 0.557987 -0.173289 1.19152 
50 0.891243 0.608877 1.67021 0.5 0 0 0 -1.07934 -0.542142 2.51078 
51 1.96893 0.93958 1.80625 0.5 0 0 0 0.474638 -1.0968 1.64681 
52 0.671604 1.64139 1.33341 0.5 0 0 0 -0.669143 0.0976712 1.61557 
53 2.1247 1.44177 1.71791 0.5 0 0 0 0.45616 0.123577 0.952347 
54 0.390175 0.0429099 2.20343 0.5 0 0 0 -1.55323 -1.25151 0.55807 
55 1.73185 1.84185 1.70753 0.5 0 0 0 0.650477 0.164863 0.906636 
16 2.25737 2.0163 1.1787 0.5 0 0 0 0.457611 -0.0719342 0.55292 
57 2.38803 1.07706 1.62869 0.5 0 0 0 0.472582 -0.693364 0.755448 
58 1.78529 0.14918 2.23912 0.5 0 0 0 1.03265 -2.02261 2.71625 
59 1.24236 0.582599 2.37882 0.5 0 0 0 0.260662 -0.272289 3.92123 
60 0.669144 1.69642 1.57453 0.5 0 0 0 -0.979919 -0.221888 2.09602 
61 1.33412 0.300391 1.71434 0.5 0 0 0 0.88728 -1.21198 2.26357 
78 1.05745 1.89882 1.61754 0.5 0 0 0 0.147237 0.000521181 1.16131 
63 2.01584 1.57785 2.03483 0.5 0 0 0 0.300744 -0.0542056 1.40505 
64 0.517033 0.35762 2.37909 0.5 0 0 0 -0.565245 0.530408 2.62113 
65 1.06184 1.77543 2.19875 0.5 0 0 0 -0.468613 -1.40526 2.1213 
66 2.34198 0.861935 2.01784 0.5 0 0 0 0.0264739 -1.35145 1.6745 
67 1.10297 0.688531 2.0263 0.5 0 0 0 -0.327841 -0.221818 3.45702 
68 2.05806 1.47707 1.72368 0.5 0 0 0 0.443837 0.16581 1.00096 
69 1.40306 0.742941 2.26945 0.5 0 0 0 -0.0126848 -0.601922 3.56691 
77 0.38738 1.54418 1.42856 0.5 0 0 0 -2.22889 -0.477407 2.42525 
71 0.737593 0.532099 1.43849 0.5 0 0 0 -1.94543 -0.911197 1.6672 
72 1.00639 2.24106 2.44179 0.5 0 0 0 0.002177 -1.25802 1.46168 
73 2.05738 1.03318 1.69109 0.5 0 0 0 0.568017 -0.882779 1.23016 
74 2.23184 1.0152 2.36175 0.5 0 0 0 -0.384273 -1.45764 2.51901 
75 0.0297555 2.31119 2.22174 0.5 0 0 0 -2.35301 -1.6149 0.705436 
76 0.971332 1.10814 1.45357 0.5 0 0 0 -0.382568 -0.281265 1.81091 
12 1.34529 1.51116 1.24546 0.5 0 0 0 0.683702 0.377304 0.874131 
13 1.86622 1.32627 1.2581 0.5 0 0 0 0.996967 -0.0560723 0.662338 
312 2.49224 -0.0785636 1.66922 0.5 0 0 0 -0.146785 -2.94587 1.29964 
42 1.22906 0.726338 1.23556 0.5 0 0 0 0.35316 -0.502417 1.1591 
79 1.43519 2.24236 3.26307 0.5 0 0 0 0.0223919 -2.28926 1.21434 
80 0.722445 0.183727 2.71179 0.5 0 0 0 1.47957 0.523528 2.97286 
81 1.07278 0.414991 2.90583 0.5 0 0 0 1.62679 0.31859 4.4216 
82 1.30862 1.94322 2.75297 0.5 0 0 0 -0.307576 -2.0401 1.90996 
83 1.70365 2.04277 2.87995 0.5 0 0 0 0.281025 -1.52926 1.51926 
84 1.24768 0.840069 3.71743 0.5 0 0 0 1.33459 -3.7794 4.56248 
85 2.02471 1.84018 2.82635 0.5 0 0 0 0.380606 -1.35914 1.64397 
106 1.36418 1.31961 2.61109 0.5 0 0 0 -0.889969 -2.18667 3.25918 
87 0.89879 2.29173 3.34265 0.5 0 0 0 -0.293875 -2.93003 0.785244 
88 1.94611 1.38118 2.97944 0.5 0 0 0 -0.745007 -2.92601 2.85475 
89 1.47552 0.236491 3.78197 0.5 0 0 0 0.21954 1.79093 4.58096 
100 0.580243 2.16469 2.54008 0.5 0 0 0 -0.486512 -1.98822 1.75433 
91 1.72848 1.44582 2.74129 0.5 0 0 0 -0.619495 -2.43804 2.67721 
92 0.127761 2.09688 2.83731 0.5 0 0 0 -1.2945 -2.82361 1.55048 
93 0.71529 0.310077 2.79202 0.5 0 0 0 1.35813 0.930405 3.27142 
94 1.45135 1.943 2.62582 0.5 0 0 0 0.0977377 -1.59536 1.72397 
95 2.18938 2.14758 3.16347 0.5 0 0 0 0.868223 -1.23575 1.36448 
96 0.949786 1.87737 2.59395 0.5 0 0 0 -0.661373 -2.26215 2.273 
97 1.79654 0.470839 3.6067 0.5 0 0 0 -2.34251 -1.28802 5.2749 
98 0.273036 1.57182 2.88925 0.5 0 0 0 -0.472565 -2.69553 1.99008 
99 2.15148 1.76571 3.33726 0.5 0 0 0 -0.0623855 -2.43023 1.94131 
105 0.74832 0.114096 3.13352 0.5 0 0 0 2.42388 0.805813 3.0757 
186 0.405521 2.44493 2.60323 0.5 0 0 0 -0.466309 -1.47818 1.2044 
102 1.84309 1.71235 3.01667 0.5 0 0 0 -0.358364 -2.45639 2.17464 
103 0.428598 1.03809 3.21401 0.5 0 0 0 1.2869 -1.21715 2.32734 
231 1.26226 2.35113 3.50859 0.5 0 0 0 0.16653 -2.63999 0.96127 
62 2.18333 1.76447 2.56416 0.5 0 0 0 0.450502 -0.647158 1.47222 
131 1.85476 1.65836 3.77352 0.5 0 0 0 -0.99386 -4.30595 2.03111 
56 2.44014 0.522567 2.48153 0.5 0 0 0 -0.93994 -1.83348 2.60189 
107 1.79922 0.179207 4.53983 0.5 0 0 0 -2.45777 2.41495 -3.09018 
108 1.07475 1.50088 4.4532 0.5 0 0 0 2.22971 -3.92918 -0.410825 
109 1.80418 0.539853 4.27431 0.5 0 0 0 -4.0829 -0.270216 -1.06206 
110 1.90994 0.686701 4.17966 0.5 0 0 0 -4.68616 -2.33678 0.535299 
139 1.01003 0.534249 4.84209 0.5 0 0 0 4.18322 -0.557636 -2.80635 
112 1.75815 0.697995 4.66539 0.5 0 0 0 -1.94884 -1.78474 -4.66949 
113 1.92755 1.25301 4.43647 0.5 0 0 0 -2.16219 -4.87582 -0.595463 
114 0.87303 0.925223 4.4801 0.5 0 0 0 4.96985 -2.01793 -2.19311 
115 1.84019 0.570503 4.46818 0.5 0 0 0 -3.72932 -0.563736 -3.38022 
116 0.780087 0.159626 4.30329 0.5 0 0 0 4.86666 0.454639 -1.14687 
117 0.976247 0.936256 4.21247 0.5 0 0 0 4.88899 -3.28003 -0.84256 
138 0.027368 1.19266 4.38545 0.5 0 0 0 0.0333225 -1.92593 0.369946 
119 0.767847 1.80935 4.39848 0.5 0 0 0 1.55605 -2.82255 0.538745 
120 1.48918 0.684101 4.13283 0.5 0 0 0 0.29126 -2.81508 1.22379 
121 1.88095 0.771547 3.94803 0.5 0 0 0 -3.88961 -3.60989 3.38566 
122 0.203661 -0.136035 4.07609 0.5 0 0 0 1.17966 -1.13934 0.140662 
123 1.2201 0.0988136 4.57302 0.5 0 0 0 3.2753 1.89717 -2.95633 
124 0.694254 0.48942 4.10318 0.5 0 0 0 4.98879 -0.112449 -0.715127 
125 1.57983 0.38812 4.1862 0.5 0 0 0 -1.13356 2.13315 0.184481 
126 1.32392 0.547609 4.31046 0.5 0 0 0 3.62832 -0.260773 -2.29439 
127 1.22247 2.04542 4.70512 0.5 0 0 0 0.529052 -2.49872 0.738639 
128 1.13277 0.893298 4.24917 0.5 0 0 0 4.63084 -3.84378 -1.04809 
129 0.157215 1.59081 4.15841 0.5 0 0 0 1.00246 -2.69925 -0.130442 
130 0.54646 0.828474 4.34958 0.5 0 0 0 3.60266 -1.03145 -1.40421 
137 0.139753 2.14502 3.86316 0.5 0 0 0 -0.174212 -3.34815 -0.34938 
132 2.24816 1.87937 3.83285 0.5 0 0 0 -0.369882 -2.65503 1.08218 
133 1.3657 0.564183 4.27384 0.5 0 0 0 2.91044 -0.547925 -1.67058 
134 1.70918 2.16354 4.92569 0.5 0 0 0 -0.345912 -2.3007 0.356023 
135 2.26417 0.167798 4.66813 0.5 0 0 0 -2.70224 -0.457257 -0.977861 
136 1.59585 1.61779 4.25902 0.5 0 0 0 -0.174869 -5.05038 0.598188 
86 1.99543 1.44374 3.89323 0.5 0 0 0 -1.58173 -4.76337 2.01591 
252 1.97124 2.33459 4.62375 0.5 0 0 0 -0.380379 -2.50457 -0.187757 
372 2.44554 0.703619 4.33782 0.5 0 0 0 -4.5814 -1.31111 -0.490229 
111 1.47988 2.39441 3.94323 0.5 0 0 0 0.573412 -2.60424 1.12594 
90 1.33534 1.25018 3.83519 0.5 0 0 0 0.0442649 -5.9277 2.69795 
104 1.86756 1.04359 3.82197 0.5 0 0 0 -2.65222 -5.30325 3.62834 
118 2.50959 1.6731 4.55116 0.5 0 0 0 -2.00899 -2.3596 -0.414606 
101 1.6383 0.949574 3.80759 0.5 0 0 0 -1.76174 -5.38772 4.47981 
140 2.46899 2.49534 0.521338 0.5 0 0 0 -0.128897 -0.497102 0.0925426 
141 0.969147 3.25075 0.881217 0.5 0 0 0 -0.687584 -0.0542432 0.763194 
142 1.05819 3.61895 0.280842 0.5 0 0 0 0.0762399 0.567416 -0.305174 
143 0.613286 3.01274 0.59792 0.5 0 0 0 -0.779414 -0.0736947 1.18852 
167 1.3425 2.79902 0.683512 0.5 0 0 0 0.862565 -0.285229 0.459319 
168 1.60813 2.59703 0.915718 0.5 0 0 0 0.694584 -0.0649777 0.373866 
146 1.06776 3.21913 0.367264 0.5 0 0 0 0.564972 -0.407098 0.137505 
147 0.573219 4.49282 0.517006 0.5 0 0 0 1.15785 -0.171496 0.303696 
148 1.97431 3.78988 0.433878 0.5 0 0 0 0.683028 -0.36895 -0.379252 
149 0.683851 3.59682 0.0907865 0.5 0 0 0 -0.319991 1.0582 -0.717002 
150 1.89594 4.42723 0.806373 0.5 0 0 0 -0.262432 0.0303653 0.357121 
151 0.044985 3.44437 0.106179 0.5 0 0 0 -1.64522 0.617808 -0.0464349 
152 1.35725 3.63101 1.14385 0.5 0 0 0 0.113071 -0.0093609 0.199518 
153 2.20121 4.40131 0.258865 0.5 0 0 0 -0.252396 -0.13362 -0.978041 
154 2.3391 4.58275 0.684235 0.5 0 0 0 -0.384993 -0.355657 0.255407 
155 1.29543 3.739 0.711873 0.5 0 0 0 -0.0562976 0.396002 0.295772 
156 0.44886 4.37762 1.0583 0.5 0 0 0 -0.637618 -0.993206 1.12878 
157 2.28879 2.65211 1.12402 0.5 0 0 0 0.333578 -0.230733 0.723477 
158 1.97602 4.15403 0.975273 0.5 0 0 0 0.404537 -0.540365 0.510222 
159 1.30202 3.80288 0.707776 0.5 0 0 0 -0.132014 0.51626 0.258985 
160 2.25978 2.64392 -0.0733041 0.5 0 0 0 -0.478472 -0.501396 -2.67294 
23 0.962136 2.54199 0.248238 0.5 0 0 0 0.775233 -0.195278 -0.0476537 
162 1.69244 3.28375 0.688212 0.5 0 0 0 1.10812 -0.412001 0.186944 
163 0.0413297 4.44313 0.0101749 0.5 0 0 0 0.227727 -0.44291 -0.609378 
164 2.14711 2.84689 0.191507 0.5 0 0 0 -0.0991988 -0.121533 -1.10239 
165 0.090943 3.27534 0.313761 0.5 0 0 0 -1.79332 0.168298 0.889064 
166 2.19765 3.29178 0.984016 0.5 0 0 0 0.426613 -0.072856 0.437573 
169 0.463445 3.13038 2.39827 0.5 0 0 0 -0.76161 0.716145 0.0717161 
170 1.91535 3.15614 2.11444 0.5 0 0 0 0.849975 -0.609226 0.276125 
171 0.07312 4.12223 2.28627 0.5 0 0 0 -2.32457 -0.638972 -1.31682 
172 1.10385 2.49108 1.83479 0.5 0 0 0 0.113697 -0.0898127 0.287155 
173 1.82174 3.36307 1.88121 0.5 0 0 0 0.624449 -0.353019 -0.19278 
174 1.26915 2.64237 1.45142 0.5 0 0 0 0.152431 0.0685907 0.0522577 
175 1.5165 4.31087 1.98113 0.5 0 0 0 0.60882 -0.492243 -0.249124 
176 1.55215 2.54248 1.97066 0.5 0 0 0 1.07771 -0.388557 0.455855 
177 -0.000875065 2.86161 2.38797 0.5 0 0 0 -2.34366 0.446018 0.184786 
178 1.44946 3.12326 1.43829 0.5 0 0 0 0.262653 -0.115135 -0.044695 
179 2.14587 3.06959 2.45799 0.5 0 0 0 1.21843 -1.04108 0.798676 
180 1.15672 3.75587 1.50516 0.5 0 0 0 -0.819933 -0.0253819 -0.175297 
181 1.90675 4.8254 1.69836 0.5 0 0 0 -0.11006 0.569135 -0.338464 
182 1.13561 4.0265 1.86655 0.5 0 0 0 -0.897719 -0.269056 -0.176353 
183 1.54777 4.578 2.2453 0.5 0 0 0 0.407829 -0.184497 0.38197 
184 0.375305 2.61523 1.7266 0.5 0 0 0 -1.25192 0.288658 -0.281849 
185 1.31385 4.74035 2.28151 0.5 0 0 0 -0.397739 0.234659 0.573717 
204 1.32469 2.72488 2.02243 0.5 0 0 0 0.411324 -0.151412 0.337911 
187 1.38995 2.5981 2.25108 0.5 0 0 0 0.729137 -0.47511 0.785684 
188 1.50496 3.99844 2.40065 0.5 0 0 0 0.2112 -0.474667 0.650945 
189 1.72033 3.51607 2.26762 0.5 0 0 0 0.268683 -0.402687 0.325114 
202 0.97252 3.69504 1.79271 0.5 0 0 0 -1.44562 -0.0254641 -0.100548 
191 2.16537 2.98689 2.46313 0.5 0 0 0 1.31921 -1.07884 0.829752 
192 1.88901 3.66891 2.05625 0.5 0 0 0 0.648525 -0.477147 -0.120448 
193 0.891343 3.87886 2.4315 0.5 0 0 0 -1.18045 -0.0753194 0.529373 
194 0.584983 3.06104 2.15149 0.5 0 0 0 -0.561627 0.719603 -0.131377 
195 1.99794 2.84629 1.96781 0.5 0 0 0 1.27016 -0.681285 0.435288 
196 1.34713 4.40977 1.55938 0.5 0 0 0 -0.112876 0.0288052 -0.882859 
190 1.78495 4.93382 1.1726 0.5 0 0 0 -1.13941 1.85131 -0.304655 
198 0.864706 4.5435 2.00967 0.5 0 0 0 -2.11469 0.135879 -0.143084 
199 1.34387 3.07488 2.36975 0.5 0 0 0 -0.0318083 -0.265272 0.531326 
200 2.34843 5.02929 2.31953 0.5 0 0 0 -0.796867 1.59987 0.324373 
201 0.447624 2.72568 2.13465 0.5 0 0 0 -0.558392 0.0893396 0.113433 
70 0.869077 2.53772 2.15016 0.5 0 0 0 -0.00745617 -0.379539 0.682911 
145 2.08491 2.5666 1.35062 0.5 0 0 0 0.613475 -0.220205 0.593894 
161 0.304202 3.15922 1.21597 0.5 0 0 0 -2.20407 0.586604 0.685946 
205 1.20045 3.53231 3.03398 0.5 0 0 0 0.0678487 -0.334032 0.264395 
206 1.96354 4.32896 3.0356 0.5 0 0 0 -0.110262 -0.374476 0.795669 
207 0.125246 4.09144 3.71369 0.5 0 0 0 -0.808867 -0.464174 0.10916 
208 0.843592 2.50922 3.69925 0.5 0 0 0 0.234163 -2.55691 0.728869 
209 1.51897 3.92171 3.16326 0.5 0 0 0 0.196406 -0.117594 0.840582 
210 1.84193 3.57401 3.51447 0.5 0 0 0 0.186007 -0.797571 0.527486 
211 1.88266 3.75203 2.61169 0.5 0 0 0 0.452284 -0.560287 0.722419 
212 1.26728 4.95011 2.96345 0.5 0 0 0 -0.263375 0.34492 0.888345 
213 2.05997 3.14167 2.58517 0.5 0 0 0 0.926569 -0.952217 0.886773 
214 1.24451 3.27321 3.65915 0.5 0 0 0 0.794252 -0.803017 0.932484 
215 0.723579 3.1322 3.31571 0.5 0 0 0 -0.405255 -0.703728 -0.116953 
216 0.445424 3.1858 3.33118 0.5 0 0 0 -1.08576 -0.462281 -0.477945 
217 2.47751 2.71684 2.75587 0.5 0 0 0 1.39728 -1.20607 0.862045 
218 2.3856 5.03043 3.71336 0.5 0 0 0 -0.964599 1.53897 0.410938 
219 1.09024 2.61489 3.18493 0.5 0 0 0 0.202241 -1.69429 0.47206 
220 2.3237 4.8339 2.95769 0.5 0 0 0 -0.618005 0.361535 0.828753 
221 1.05556 3.48504 3.60298 0.5 0 0 0 0.438429 -0.233152 0.805242 
222 2.43948 3.20193 3.0653 0.5 0 0 0 0.899364 -1.47818 0.585504 
223 1.90845 2.5835 3.33421 0.5 0 0 0 1.00388 -1.39156 0.908049 
224 0.518839 4.9229 3.11834 0.5 0 0 0 -0.680206 1.04937 -0.18845 
225 0.511126 3.84252 3.64451 0.5 0 0 0 -0.152872 0.0961367 0.347043 
226 0.947697 4.03003 2.86602 0.5 0 0 0 -0.664854 0.111342 0.686463 
227 1.10353 3.04116 3.11188 0.5 0 0 0 0.291874 -0.946499 0.13592 
228 0.260907 4.35829 2.60106 0.5 0 0 0 -1.13167 -0.263856 -0.406405 
229 0.262291 4.30495 3.51799 0.5 0 0 0 -0.219795 -0.166078 -0.264811 
230 1.60814 2.91279 3.13403 0.5 0 0 0 0.859899 -1.11713 0.63779 
234 1.25336 3.65657 3.14788 0.5 0 0 0 0.17056 -0.177677 0.462571 
232 2.45705 3.29093 3.07977 0.5 0 0 0 0.789074 -1.45296 0.514947 
233 1.25657 4.7676 3.4016 0.5 0 0 0 0.262794 -0.270151 0.631701 
472 2.51544 4.84304 2.81896 0.5 0 0 0 -0.522589 0.376595 0.860393 
251 1.85862 2.53245 3.78308 0.5 0 0 0 0.796272 -1.97059 0.861847 
452 2.41993 3.93784 3.55702 0.5 0 0 0 -0.618538 -0.767715 -0.227191 
254 1.67058 4.93834 3.76207 0.5 0 0 0 -0.108466 -0.00655755 -0.126826 
197 1.56003 4.63702 2.47551 0.5 0 0 0 0.194491 -0.0431933 0.939155 
235 1.25867 4.88885 4.11646 0.5 0 0 0 -0.0651433 -0.422477 -0.499989 
236 2.01962 3.92686 3.99277 0.5 0 0 0 -1.3674 -0.449676 -0.153233 
237 0.594825 2.54954 3.92612 0.5 0 0 0 0.437815 -2.27653 0.911888 
238 0.923659 4.77169 4.37611 0.5 0 0 0 0.150008 -0.396478 -0.108926 
239 0.871883 3.75292 3.98213 0.5 0 0 0 0.547452 0.0328834 1.33276 
240 2.06137 4.57361 4.57908 0.5 0 0 0 -2.31823 1.31106 0.100612 
241 2.18402 4.38619 4.75143 0.5 0 0 0 -2.57571 0.696952 0.68095 
242 0.0972852 3.19401 4.41599 0.5 0 0 0 0.712124 -0.0226691 0.530364 
243 -0.0210842 2.72651 4.80956 0.5 0 0 0 0.478529 -2.54413 1.85154 
244 0.523826 4.91629 4.8473 0.5 0 0 0 -0.892521 0.136737 1.01527 
245 1.52926 3.07 4.95431 0.5 0 0 0 -1.28625 -1.12749 1.45292 
246 1.24538 3.71928 4.4173 0.5 0 0 0 -0.181748 -0.942114 1.0363 
247 2.42627 3.3571 3.82754 0.5 0 0 0 -0.0792559 -1.80321 -0.263723 
248 1.72735 2.67638 4.86735 0.5 0 0 0 -0.717015 -1.99975 0.514671 
249 1.67259 3.00146 4.12672 0.5 0 0 0 0.268936 -1.74655 0.717812 
250 1.29947 2.62046 3.9529 0.5 0 0 0 0.753685 -2.08424 1.28434 
259 0.587315 2.82169 3.88904 0.5 0 0 0 0.414876 -1.32137 0.940603 
258 0.03729 2.95954 4.02069 0.5 0 0 0 -0.31259 -0.790843 -0.239195 
253 0.163212 2.67725 3.94064 0.5 0 0 0 -0.222655 -1.89757 0.00970369 
498 2.4724 3.56392 4.29257 0.5 0 0 0 -1.20933 -2.02094 -0.680331 
255 0.213926 3.66474 4.84727 0.5 0 0 0 0.696213 0.259912 1.04146 
256 2.32355 4.09435 4.60624 0.5 0 0 0 -2.25464 -0.685979 -0.15266 
257 1.27312 4.24124 4.86157 0.5 0 0 0 -0.926696 -1.02027 1.4444 
260 4.00548 -0.157005 0.919832 0.5 0 0 0 -0.224174 -2.77523 0.556822 
261 3.19555 2.28939 1.12981 0.5 0 0 0 -0.766227 0.0920761 1.34737 
262 4.78768 2.0216 0.404286 0.5 0 0 0 1.76553 0.433151 -1.08034 
263 4.86349 0.626832 0.989598 0.5 0 0 0 1.13932 -1.77781 0.856524 
264 3.25883 0.915982 0.201982 0.5 0 0 0 -0.773148 0.954947 -0.970728 
265 4.90556 1.41686 1.11292 0.5 0 0 0 1.84975 0.293377 1.42055 
266 4.83437 0.647195 -0.0129569 0.5 0 0 0 0.867694 -0.263074 -3.22854 
267 3.45727 1.79731 0.886211 0.5 0 0 0 -1.6133 -0.356144 0.380659 
268 2.89322 0.522862 0.844919 0.5 0 0 0 -0.153666 -0.397531 1.69453 
269 3.96981 1.81192 0.224034 0.5 0 0 0 -1.04666 -0.483312 -2.25322 
270 3.93632 1.90246 1.01937 0.5 0 0 0 -0.967622 0.532136 1.32234 
293 3.02089 2.402 0.572197 0.5 0 0 0 -0.796686 -0.433143 0.208539 
272 4.42309 1.79277 0.741692 0.5 0 0 0 0.0471752 0.718689 0.202816 
273 4.85215 1.36362 0.800133 0.5 0 0 0 1.45524 -0.322753 -0.105133 
274 2.68345 0.714078 0.824481 0.5 0 0 0 0.231214 -0.0904024 1.49868 
275 2.53787 2.34774 0.0564317 0.5 0 0 0 -0.496733 -1.07385 -2.05802 
276 5.08108 0.0669049 0.787809 0.5 0 0 0 1.14244 -1.66542 0.654447 
294 3.1399 0.0914754 0.349252 0.5 0 0 0 0.150576 -2.31536 -0.195693 
278 3.60826 1.88445 0.935533 0.5 0 0 0 -1.47449 -0.0204967 0.739714 
279 3.71217 0.457456 0.171536 0.5 0 0 0 0.354216 -1.32187 -1.49383 
295 2.73142 1.13215 0.898671 0.5 0 0 0 -0.159633 0.170657 0.868973 
281 3.0564 0.151187 0.970884 0.5 0 0 0 -0.451396 -1.93751 1.77531 
282 3.87439 1.69556 1.09784 0.5 0 0 0 -1.31068 0.0497561 1.41495 
283 3.80612 2.33926 -0.18131 0.5 0 0 0 -1.10117 -0.928777 -3.77621 
284 4.16863 2.09977 0.500955 0.5 0 0 0 -0.298031 0.731177 -0.333551 
285 3.41144 2.33265 0.439943 0.5 0 0 0 -1.11914 -0.145077 -0.37068 
286 3.72182 0.963261 0.427494 0.5 0 0 0 -1.13997 -0.231012 -0.45168 
287 4.34117 1.0384 0.421509 0.5 0 0 0 -0.486843 -1.23537 -1.49495 
288 4.07943 1.6191 1.03377 0.5 0 0 0 -1.10324 0.12361 1.24627 
289 4.36668 1.05292 0.596487 0.5 0 0 0 -0.637081 -1.32405 -0.787474 
290 3.33102 0.992295 0.623111 0.5 0 0 0 -1.22166 0.31191 0.681997 
291 2.90505 1.00381 0.0831249 0.5 0 0 0 -0.432338 1.52779 -1.78154 
297 3.16279 0.422633 1.81526 0.5 0 0 0 -1.29623 -1.55317 0.777148 
298 3.83872 2.08748 2.17162 0.5 0 0 0 -1.14476 -0.14281 1.04437 
299 3.06608 0.732187 2.23275 0.5 0 0 0 -0.806991 -0.563657 1.53062 
323 3.16957 1.7184 1.5588 0.5 0 0 0 -0.673972 -0.158872 1.15611 
301 3.32708 1.70196 2.15389 0.5 0 0 0 -0.572186 0.0773959 1.27867 
302 3.70477 0.970471 1.808 0.5 0 0 0 -0.872577 0.195368 1.52373 
303 3.80395 0.847812 1.94422 0.5 0 0 0 -0.641815 0.0391833 1.64926 
292 4.33293 1.2853 1.24701 0.5 0 0 0 -0.639636 -0.249339 1.77508 
305 4.06195 1.45734 1.37119 0.5 0 0 0 -1.02087 0.152793 2.08143 
306 4.61122 1.24738 1.92467 0.5 0 0 0 0.787596 -0.0452687 1.55522 
307 4.02805 0.00288966 2.16168 0.5 0 0 0 -1.98919 -2.04561 -0.125291 
308 4.72506 0.104428 2.27495 0.5 0 0 0 0.0573402 -0.247029 0.0162057 
309 3.95474 0.747125 1.9207 0.5 0 0 0 -0.468719 -0.275998 1.65555 
310 4.61075 2.32872 1.97826 0.5 0 0 0 0.48444 -0.14286 0.410058 
311 3.53785 2.25908 2.09172 0.5 0 0 0 -0.893413 0.158218 1.12884 
321 4.85074 -0.0225736 2.20582 0.5 0 0 0 0.482355 -0.6508 -0.309905 
313 2.56726 1.50595 2.20378 0.5 0 0 0 0.109445 0.00593879 1.31398 
320 2.69246 1.31431 1.87261 0.5 0 0 0 0.0635452 -0.0689597 0.908792 
315 3.26738 0.871673 1.9548 0.5 0 0 0 -0.804975 -0.121837 1.1674 
316 4.50045 1.00423 2.30412 0.5 0 0 0 0.307708 0.0216582 0.921363 
317 4.42453 1.96834 2.33396 0.5 0 0 0 -0.426086 -0.757493 0.429073 
318 3.62756 0.647095 1.42441 0.5 0 0 0 -1.297 -0.894211 0.717557 
319 3.17122 2.16818 1.97117 0.5 0 0 0 -0.361802 0.250591 1.24399 
271 4.89446 1.59839 1.20695 0.5 0 0 0 1.99246 1.0574 1.86753 
19 2.58919 1.86325 1.17351 0.5 0 0 0 0.0130864 -0.264311 0.539878 
280 3.82516 0.808417 1.18766 0.5 0 0 0 -1.36624 -0.816524 0.795693 
300 4.20682 2.38482 1.22813 0.5 0 0 0 -0.043729 0.850034 1.85762 
296 4.29953 0.620858 1.1735 0.5 0 0 0 -0.391136 -1.69157 0.799726 
277 3.47973 2.13585 1.1768 0.5 0 0 0 -1.08769 0.311771 1.56486 
324 4.20049 1.07209 3.60418 0.5 0 0 0 -1.49447 0.447569 -0.557422 
325 3.13524 0.346647 3.34055 0.5 0 0 0 -3.12522 -1.26454 1.33757 
326 3.66738 1.47199 3.67458 0.5 0 0 0 -1.94324 -0.40551 -0.0546984 
327 4.15863 1.37271 2.56514 0.5 0 0 0 -0.87973 -0.248746 0.532216 
328 3.56053 0.746072 2.82267 0.5 0 0 0 -1.23032 0.197329 0.970851 
329 4.6547 1.85819 2.7612 0.5 0 0 0 0.287398 -1.60666 -0.422549 
330 3.3792 1.61927 3.26274 0.5 0 0 0 -1.49014 -0.393442 0.612954 
331 4.42014 1.68674 3.2659 0.5 0 0 0 -1.11422 -1.26872 -0.40785 
332 4.72993 0.335382 2.57276 0.5 0 0 0 0.295597 0.868813 -0.287272 
333 2.66868 0.745649 3.45057 0.5 0 0 0 -3.12677 -1.52279 2.19024 
334 4.39709 0.492251 3.23251 0.5 0 0 0 -0.533133 0.856177 -1.84095 
335 5.05888 2.33763 2.86349 0.5 0 0 0 3.0419 -1.0071 -0.903762 
336 4.05518 0.349998 3.25552 0.5 0 0 0 -1.75577 0.276351 -0.965808 
350 2.94785 1.6205 2.67101 0.5 0 0 0 -0.331951 -0.231895 1.44432 
338 2.75763 1.04701 3.70241 0.5 0 0 0 -3.05269 -1.44822 1.35403 
339 2.70521 0.895138 2.70663 0.5 0 0 0 -1.03011 -1.15816 2.43849 
340 2.93396 1.02898 3.59674 0.5 0 0 0 -2.76056 -1.00177 1.2385 
341 4.47472 1.99478 3.43292 0.5 0 0 0 -1.11102 -1.62615 0.034711 
342 4.92134 1.88467 3.61398 0.5 0 0 0 1.0878 -1.75786 0.255008 
343 3.24144 1.5906 2.62381 0.5 0 0 0 -0.676341 -0.187444 1.25353 
349 4.19679 -0.0384179 3.2198 0.5 0 0 0 -1.68688 -1.348 -1.61044 
345 3.47821 0.0426461 3.05536 0.5 0 0 0 -2.7363 -2.21429 0.525313 
346 3.69692 0.81252 3.53319 0.5 0 0 0 -2.44877 0.19599 0.13311 
347 2.80181 1.66491 2.63694 0.5 0 0 0 -0.102938 -0.190728 1.44762 
348 2.63913 1.65881 2.67644 0.5 0 0 0 0.0402441 -0.424365 1.55991 
352 4.9476 1.25163 3.70678 0.5 0 0 0 1.53041 -0.0803937 -0.468129 
469 4.12803 2.45322 2.60915 0.5 0 0 0 -1.94923 -0.327581 -0.220418 
304 2.73536 0.148561 2.52865 0.5 0 0 0 -1.73128 -2.67688 1.93458 
384 4.55124 0.313808 3.78157 0.5 0 0 0 -1.08606 0.714387 -1.93749 
351 4.81681 0.433187 4.13216 0.5 0 0 0 0.53559 1.2844 -0.255359 
381 3.28513 1.873 4.23841 0.5 0 0 0 -1.6919 -1.05928 -1.04754 
353 3.42785 1.25796 4.13505 0.5 0 0 0 -2.41241 -0.74177 -0.231583 
354 3.93463 1.93868 4.94642 0.5 0 0 0 -0.469429 -0.731155 1.15874 
355 4.89446 2.33383 4.00751 0.5 0 0 0 0.313319 -1.3628 1.33096 
356 4.45178 -0.173177 4.7697 0.5 0 0 0 -1.8601 -2.81271 1.58554 
383 4.13178 0.484752 4.99293 0.5 0 0 0 -2.1991 0.864359 2.56453 
358 5.0929 1.5728 4.75785 0.5 0 0 0 1.28517 -0.321793 1.65879 
359 3.01963 1.92092 4.29426 0.5 0 0 0 -1.64707 -1.29438 -1.07767 
360 4.55822 0.294844 4.19704 0.5 0 0 0 -1.20759 0.680652 -0.312296 
361 5.01071 2.27455 4.16296 0.5 0 0 0 0.815286 -1.71604 1.7448 
362 4.17111 0.254776 4.2464 0.5 0 0 0 -3.31797 0.0156029 -0.205634 
363 3.91127 0.31909 4.53698 0.5 0 0 0 -4.12027 -0.229059 0.55759 
364 2.66472 1.94633 4.90104 0.5 0 0 0 -2.03346 -1.87521 0.775535 
365 3.16969 1.7958 4.59542 0.5 0 0 0 -1.63182 -1.52828 -0.429047 
366 4.61143 0.911579 4.1486 0.5 0 0 0 -0.161741 1.71026 0.501544 
367 3.81674 -0.0602666 3.84489 0.5 0 0 0 -4.38232 -2.21116 0.189342 
368 4.06428 1.84855 4.28442 0.5 0 0 0 -1.15822 -0.718778 -0.017741 
369 3.49419 1.48241 4.35656 0.5 0 0 0 -1.88357 -0.953654 -0.468704 
370 2.82996 0.443274 4.66007 0.5 0 0 0 -3.54652 -1.08079 0.0900651 
371 4.72583 0.250743 4.64226 0.5 0 0 0 0.353961 0.645459 1.6131 
382 3.88417 0.944615 3.84084 0.5 0 0 0 -2.45401 0.362097 -0.0352431 
373 4.63288 0.300497 3.94052 0.5 0 0 0 -0.776922 0.734375 -1.37516 
374 4.53401 0.48621 4.0481 0.5 0 0 0 -1.13015 1.24195 -0.778643 
375 5.0345 0.0100887 4.98315 0.5 0 0 0 3.5946 -1.18684 3.20889 
376 4.10392 1.60788 4.6828 0.5 0 0 0 -0.582533 -0.440866 0.453406 
377 4.01537 2.10371 5.10768 0.5 0 0 0 -0.110011 -0.494929 2.13375 
378 2.91758 1.64262 5.01093 0.5 0 0 0 -1.92854 -2.16824 1.57487 
379 3.53376 0.926491 5.0741 0.5 0 0 0 -2.38325 -0.425513 1.83398 
380 3.06475 2.29046 4.29764 0.5 0 0 0 -1.41918 -1.2523 -1.06818 
385 2.72742 3.16667 0.678629 0.5 0 0 0 -0.259389 0.0375744 0.477807 
386 4.46002 4.72631 0.0499662 0.5 0 0 0 0.670167 0.329235 -0.709486 
387 3.86554 3.94207 0.138868 0.5 0 0 0 0.119324 -0.411012 -0.427968 
388 4.3202 4.0172 1.07918 0.5 0 0 0 -0.817647 -0.172808 -1.10383 
389 3.81848 3.08829 0.794959 0.5 0 0 0 -0.593839 0.0886348 0.755323 
390 3.64731 4.11213 0.128382 0.5 0 0 0 0.0900817 -0.597275 0.0534285 
391 5.05324 4.33 1.0758 0.5 0 0 0 2.14312 1.08709 -1.29517 
392 4.88879 2.67893 0.295456 0.5 0 0 0 1.32119 0.365103 -0.297396 
393 4.52615 4.58374 0.677714 0.5 0 0 0 -0.0148982 1.27488 -0.991421 
394 2.76375 2.92559 1.08837 0.5 0 0 0 0.0172074 -0.151017 1.30104 
395 4.91112 2.95983 0.998612 0.5 0 0 0 1.35495 -0.497199 1.14147 
396 4.08242 3.07659 0.0175005 0.5 0 0 0 -0.343912 0.450784 -1.52522 
397 5.07978 4.04744 0.825036 0.5 0 0 0 2.38236 -0.0625502 -1.63046 
398 2.92734 4.94158 0.00820766 0.5 0 0 0 -0.477156 2.03755 -1.50095 
399 3.38819 4.92149 0.588319 0.5 0 0 0 0.578011 1.09103 -0.330941 
400 3.33768 4.51273 0.419339 0.5 0 0 0 0.195506 -0.603871 0.275921 
401 3.37373 2.65717 0.071978 0.5 0 0 0 -0.978755 -0.396997 -1.65023 
402 2.72655 3.11912 0.688011 0.5 0 0 0 -0.262858 0.00998112 0.53746 
403 4.76397 3.22273 0.182952 0.5 0 0 0 0.431283 0.481353 -1.34398 
404 4.20748 2.63553 0.142004 0.5 0 0 0 -0.16418 0.531371 -0.893875 
405 4.05946 4.87616 -0.0238905 0.5 0 0 0 0.282758 0.873204 -0.164234 
406 4.20552 3.58906 1.03062 0.5 0 0 0 -0.887328 -0.743075 -0.290771 
407 2.81353 4.2113 -0.0113402 0.5 0 0 0 -0.346719 -0.769299 -1.25045 
408 4.99351 3.11745 0.424441 0.5 0 0 0 1.24824 -0.050672 -0.253392 
409 3.77205 3.30856 0.562627 0.5 0 0 0 -0.535874 0.0680796 0.0361698 
410 3.87007 2.62727 0.885782 0.5 0 0 0 -0.532516 0.714047 1.23155 
411 4.18382 2.65307 1.06403 0.5 0 0 0 -0.135343 0.559345 1.46055 
412 3.09159 3.18162 0.446709 0.5 0 0 0 -0.48041 0.050023 0.0614837 
413 2.9187 3.71694 0.925147 0.5 0 0 0 -0.225707 -0.363107 0.330751 
414 2.70955 4.4843 0.643287 0.5 0 0 0 -0.107166 -0.930263 0.142364 
415 2.63879 4.93667 1.11349 0.5 0 0 0 -1.07915 0.886352 -0.319865 
417 3.08579 3.60768 0.193222 0.5 0 0 0 -0.439146 -0.300435 -0.622327 
418 4.81607 4.17572 1.6567 0.5 0 0 0 0.591376 -0.344409 0.0452645 
419 2.97104 3.7773 2.20128 0.5 0 0 0 0.527105 -1.67736 0.597758 
420 4.87673 3.94972 2.41376 0.5 0 0 0 0.274818 -1.57631 0.677162 
421 4.87511 4.5704 1.80973 0.5 0 0 0 1.0115 1.67478 -0.455568 
422 4.26911 4.54909 1.75393 0.5 0 0 0 0.210653 0.978855 0.159614 
423 3.64884 4.60708 1.39653 0.5 0 0 0 0.361059 0.133726 -1.2318 
424 4.35686 3.80957 1.43823 0.5 0 0 0 -0.729127 -1.16531 0.524543 
425 2.78397 3.15329 1.33966 0.5 0 0 0 0.223653 -0.293627 1.28217 
426 3.24265 4.5535 2.11578 0.5 0 0 0 0.105253 -0.908393 1.6601 
427 3.29534 4.61705 1.65762 0.5 0 0 0 -0.180081 -0.610706 -0.144497 
428 4.92768 4.31069 2.00987 0.5 0 0 0 0.632337 -0.199164 0.0995331 
429 3.19584 4.83428 1.72876 0.5 0 0 0 -0.35661 0.283541 0.170785 
430 2.95764 4.84836 1.32106 0.5 0 0 0 -0.87593 0.354227 -0.984225 
431 3.50765 2.67592 2.37492 0.5 0 0 0 -0.874473 -0.13892 0.589053 
432 3.95776 2.50817 1.48001 0.5 0 0 0 -0.674929 0.427627 1.94285 
433 2.74246 4.3553 2.39778 0.5 0 0 0 -0.216776 -1.0173 0.873525 
434 3.13472 4.50779 1.94043 0.5 0 0 0 -0.332023 -1.0792 0.870671 
435 3.61635 4.6595 1.62656 0.5 0 0 0 0.532155 0.0850977 -0.176523 
436 3.34107 3.27576 2.05507 0.5 0 0 0 -0.141784 -0.940328 0.961112 
437 3.80655 3.9833 1.78454 0.5 0 0 0 -0.714554 -1.51617 0.940771 
438 5.00235 3.52829 1.86043 0.5 0 0 0 1.73063 -1.93262 0.236685 
439 4.48503 4.48045 2.45638 0.5 0 0 0 -0.699915 0.100522 1.44681 
440 2.64624 3.87468 2.23009 0.5 0 0 0 0.374657 -1.16786 0.247904 
441 2.92967 4.74914 2.12022 0.5 0 0 0 -0.681664 -0.00187103 1.10783 
442 3.06368 4.58908 1.3818 0.5 0 0 0 -0.702494 -0.753021 -1.05741 
443 3.87393 4.11949 1.96442 0.5 0 0 0 -0.426129 -1.36551 1.44369 
444 2.67806 4.35639 1.89243 0.5 0 0 0 -0.768881 -0.933481 -0.157713 
445 4.42925 3.75365 1.23855 0.5 0 0 0 -0.571388 -1.03444 -0.0131099 
446 4.16136 3.88014 2.29143 0.5 0 0 0 -0.971756 -1.56497 1.40254 
447 3.98413 3.8338 1.70991 0.5 0 0 0 -1.00339 -1.50686 1.0225 
448 4.54614 2.8292 2.2281 0.5 0 0 0 -0.167339 0.272919 -0.265076 
449 3.08114 3.86142 1.29596 0.5 0 0 0 -0.376895 -0.892126 0.0160042 
450 3.483 3.36566 1.39672 0.5 0 0 0 -0.555933 -0.723533 1.08938 
416 4.43939 3.86705 1.2623 0.5 0 0 0 -0.553444 -0.823809 -0.162317 
203 2.54258 2.99443 1.48495 0.5 0 0 0 0.543042 -0.349877 1.11902 
322 2.89681 2.52125 1.86351 0.5 0 0 0 0.201406 -0.0969035 1.34299 
314 4.95155 2.49957 1.43987 0.5 0 0 0 2.1802 0.0170287 0.88103 
479 2.67201 3.66332 3.67497 0.5 0 0 0 -0.203281 -1.64073 -0.627221 
453 4.81673 2.73412 3.2535 0.5 0 0 0 0.83176 0.571407 -0.423155 
454 3.9686 3.31053 2.81272 0.5 0 0 0 -1.04513 -0.0947132 0.106196 
455 2.97859 4.28331 3.66018 0.5 0 0 0 -0.726462 -0.931959 -1.02437 
456 2.78681 4.65171 3.10914 0.5 0 0 0 -0.203225 -0.44249 0.326352 
457 3.04669 4.89391 2.9408 0.5 0 0 0 0.553125 0.687027 0.70603 
458 3.38147 3.15474 2.90913 0.5 0 0 0 -0.536572 -0.877595 0.204822 
459 4.79833 4.06688 2.63942 0.5 0 0 0 -0.128163 -1.05993 1.14741 
460 4.3388 2.93317 3.14829 0.5 0 0 0 -1.28458 1.05568 -0.479586 
461 4.46961 4.44766 2.57147 0.5 0 0 0 -0.803988 -0.0313466 1.57318 
462 4.70144 4.99922 2.54256 0.5 0 0 0 0.456922 4.60246 1.38128 
463 4.41337 2.63817 2.73773 0.5 0 0 0 -1.22609 -0.00245352 -0.778253 
464 3.08229 3.82561 3.12878 0.5 0 0 0 0.29895 -1.73454 -0.110311 
465 3.57021 3.93288 3.56066 0.5 0 0 0 0.454541 -1.22719 -1.19867 
466 4.19206 2.57746 3.01757 0.5 0 0 0 -2.12586 -0.251487 -0.640439 
467 3.47468 4.4369 3.46201 0.5 0 0 0 0.871012 -0.333505 -0.872432 
468 4.83205 2.71881 2.53954 0.5 0 0 0 1.39735 0.23812 -0.966666 
344 4.18939 2.52631 3.41191 0.5 0 0 0 -2.0524 -0.494579 0.00251426 
470 4.48469 2.52909 3.64937 0.5 0 0 0 -1.05982 -0.473957 0.538375 
471 3.84038 4.76543 3.03905 0.5 0 0 0 0.428587 1.21796 0.489349 
451 2.79986 3.79808 2.49961 0.5 0 0 0 0.673085 -1.50333 0.668432 
473 2.91846 5.08611 3.74857 0.5 0 0 0 -0.14952 2.67779 0.232618 
474 4.50733 2.85757 3.6255 0.5 0 0 0 -0.710847 1.04247 0.308561 
478 3.989 2.61315 3.41298 0.5 0 0 0 -2.49923 -0.216068 -0.0580161 
476 4.67836 3.70549 3.01079 0.5 0 0 0 0.0893507 -0.00661432 0.817136 
477 2.80107 4.25511 2.5663 0.5 0 0 0 0.0882164 -1.26933 0.940692 
337 4.00853 2.47712 3.28526 0.5 0 0 0 -2.56703 -0.587917 -0.210806 
475 4.80453 4.05407 3.78608 0.5 0 0 0 0.939228 -0.0504929 -0.155907 
480 3.58954 3.80888 4.79313 0.5 0 0 0 1.28059 -1.32197 0.955186 
481 4.13979 3.02607 4.9578 0.5 0 0 0 -0.268076 -1.47014 2.14222 
482 3.77862 3.59843 4.00779 0.5 0 0 0 0.420595 -0.998484 -1.09692 
483 4.40531 4.8875 4.1061 0.5 0 0 0 0.26294 0.500326 -1.75138 
484 3.17257 4.00241 3.96809 0.5 0 0 0 -0.44682 -1.44894 -1.51106 
485 3.66543 3.93623 4.40885 0.5 0 0 0 1.30955 -0.835924 -0.600751 
486 4.72061 4.70311 4.34975 0.5 0 0 0 -0.0981591 -0.898992 -1.36608 
487 3.27989 3.12527 4.27902 0.5 0 0 0 -0.664678 -1.98174 -0.831726 
488 4.67013 3.1766 4.66623 0.5 0 0 0 0.0222363 0.068541 0.971144 
489 3.35018 4.83714 5.08974 0.5 0 0 0 -0.173574 3.09013 3.98327 
490 3.58041 3.44621 4.24508 0.5 0 0 0 -0.036374 -1.73951 -0.884296 
491 3.71319 4.11091 4.82949 0.5 0 0 0 2.05131 -0.117072 1.33687 
492 2.664 3.19062 4.79125 0.5 0 0 0 -1.287 -2.59093 0.922994 
493 4.51495 3.66926 4.72374 0.5 0 0 0 1.18571 0.523202 0.678115 
494 3.42614 3.64514 5.12504 0.5 0 0 0 0.777623 -2.09047 3.3119 
495 2.6833 4.06724 4.41671 0.5 0 0 0 -1.0537 -0.908353 -1.1586 
496 2.62237 3.80935 4.95757 0.5 0 0 0 -1.37829 -1.77668 1.45778 
497 3.38169 4.37698 3.9444 0.5 0 0 0 0.4467 -0.250727 -1.31598 
357 3.44984 2.49539 4.63855 0.5 0 0 0 -0.880722 -1.29873 0.135077 
499 3.95607 2.50645 4.05608 0.5 0 0 0 -1.53376 -0.749089 0.251143 
500 4.65467 4.93223 4.974 0.5 0 0 0 -0.724994 -0.119524 1.69264 
501 4.62616 4.8156 4.90395 0.5 0 0 0 -0.283501 -0.293768 1.29258 
502 2.68186 3.97566 4.77886 0.5 0 0 0 -0.998825 -1.16843 0.287558 
503 2.93974 4.25916 4.55901 0.5 0 0 0 -0.375561 -0.128582 -0.685882 
504 3.55114 3.30535 4.291 0.5 0 0 0 -0.234658 -1.87474 -0.698594 
505 3.69577 4.82261 4.28552 0.5 0 0 0 1.42001 1.77435 -0.194307 
506 4.09437 4.02174 3.97423 0.5 0 0 0 1.82428 0.0294082 -0.947214 
507 4.9127 2.81898 3.94309 0.5 0 0 0 0.483169 0.989974 0.55721 
508 2.87514 3.9281 4.68635 0.5 0 0 0 -0.391678 -1.40765 -0.269391 
509 3.30514 4.75552 4.40391 0.5 0 0 0 0.178818 1.78578 -0.100181 
510 3.08449 4.49513 4.06086 0.5 0 0 0 -0.595988 0.201668 -1.222 
511 2.64437 3.03164 4.50455 0.5 0 0 0 -1.02993 -2.2082 -0.126223 
512 2.66599 2.82479 4.36837 0.5 0 0 0 -0.847008 -1.88592 -0.442521 
513 4.86973 3.02688 4.29851 0.5 0 0 0 0.304268 1.03356 0.591015 
ITEM: TIMESTEP
60074
ITEM: NUMBER OF ATOMS
512
ITEM: BOX BOUNDS ss ss ss
-2.1589663964569298e-02 5.0933846546203574e+00
-1.7364439631764822e-01 5.0865807164741392e+00
-1.8176655292622759e-01 5.1255068607205727e+00
ITEM: ATOMS id x y z width_SPH x_COM y_COM z_COM vx vy vz 
2 0.301053 0.77593 0.246861 0.5 0 0 0 -1.3791 -0.579442 0.0688844 
3 0.259423 1.291 0.605723 0.5 0 0 0 -2.08425 -0.964599 0.287798 
4 0.787477 1.24764 1.03677 0.5 0 0 0 -0.386204 -0.340096 0.749159 
5 1.73539 1.8934 0.82394 0.5 0 0 0 0.95845 0.352068 0.221154 
6 0.274183 2.07867 0.84854 0.5 0 0 0 -2.11837 0.860398 1.16647 
7 0.546652 1.58453 0.342542 0.5 0 0 0 -0.688618 -0.372031 -0.682022 
8 1.33606 0.225894 0.773371 0.5 0 0 0 0.0500219 -0.685394 1.18402 
9 1.53469 0.986433 0.331374 0.5 0 0 0 0.77398 0.260645 -0.747351 
10 1.11159 1.53603 -0.0685734 0.5 0 0 0 0.983764 -0.388472 -2.84955 
11 1.39605 1.22774 0.796171 0.5 0 0 0 0.782218 0.130004 0.282665 
38 1.08307 2.32881 0.776655 0.5 0 0 0 0.516766 0.421735 0.86292 
41 2.23084 2.37931 1.0229 0.5 0 0 0 0.351339 -0.202256 0.556541 
14 1.2605 2.06321 0.329269 0.5 0 0 0 1.32254 0.117802 -0.380231 
15 1.54695 0.0394658 0.976137 0.5 0 0 0 1.23301 -1.50684 2.12366 
37 0.636896 0.390261 0.353986 0.5 0 0 0 -1.47716 -0.586498 0.379769 
17 1.08138 0.11943 0.51972 0.5 0 0 0 -1.29661 -0.687334 0.538455 
18 1.50826 -0.0164944 0.0458898 0.5 0 0 0 0.0210151 -0.949603 -1.15209 
40 1.99514 0.669573 0.60447 0.5 0 0 0 1.3925 -0.198024 0.904808 
20 0.369808 1.75927 1.0479 0.5 0 0 0 -1.73127 0.350011 1.28558 
21 1.87801 1.79469 0.745542 0.5 0 0 0 1.08063 0.22633 -0.00308294 
22 0.552783 2.4223 0.409942 0.5 0 0 0 -0.558229 0.212975 0.657491 
39 0.791152 1.5785 0.810203 0.5 0 0 0 0.14069 0.227587 0.408937 
24 0.00339088 0.598281 0.081694 0.5 0 0 0 -2.72776 -0.779828 -0.133653 
25 1.95437 0.260595 0.58189 0.5 0 0 0 1.68393 -0.755054 1.36418 
26 1.35582 0.89095 0.584786 0.5 0 0 0 0.399523 0.0192918 -0.00984806 
27 0.864671 1.81411 0.900158 0.5 0 0 0 0.377383 0.670863 0.691791 
28 2.15664 0.95975 0.359457 0.5 0 0 0 0.883477 0.501507 -0.22998 
29 2.42448 1.35996 0.269401 0.5 0 0 0 0.107994 1.01769 -1.19041 
30 1.3992 0.242426 0.884072 0.5 0 0 0 0.488732 -0.82176 1.45696 
31 1.65838 1.51848 0.685685 0.5 0 0 0 1.20227 0.362114 0.0102334 
32 1.30154 2.09592 0.250951 0.5 0 0 0 1.47625 0.00634143 -0.708871 
33 1.46277 1.14326 0.72176 0.5 0 0 0 0.856722 0.0701024 0.199798 
34 0.622252 2.08924 -0.0271376 0.5 0 0 0 -0.447958 -0.575339 -2.02292 
35 1.77117 0.0448023 -0.128834 0.5 0 0 0 1.17611 -0.864468 -2.25436 
36 0.968307 0.88323 0.0786067 0.5 0 0 0 0.095625 0.0328071 -1.47959 
144 0.0211805 2.45506 0.114564 0.5 0 0 0 -3.16803 -0.780081 -1.09892 
43 1.54525 0.0677126 1.95233 0.5 0 0 0 1.54675 -2.05884 2.27926 
44 1.36473 2.35713 1.90941 0.5 0 0 0 0.773247 -0.348002 0.538726 
45 1.33381 1.11988 1.48553 0.5 0 0 0 0.4765 -0.198925 1.55748 
46 1.38772 2.23671 2.32626 0.5 0 0 0 0.773042 -0.849663 1.17322 
47 1.3959 1.26087 1.91898 0.5 0 0 0 -0.0998198 -0.503565 2.3678 
48 1.18006 0.812489 1.47867 0.5 0 0 0 0.169883 -0.426943 1.76226 
49 2.47935 2.34211 1.69818 0.5 0 0 0 0.557984 -0.173289 1.19152 
50 0.891242 0.608877 1.67021 0.5 0 0 0 -1.07933 -0.542139 2.51077 
51 1.96893 0.939579 1.80625 0.5 0 0 0 0.474635 -1.0968 1.64681 
52 0.671603 1.64139 1.33341 0.5 0 0 0 -0.669139 0.0976701 1.61557 
53 2.1247 1.44177 1.71792 0.5 0 0 0 0.456157 0.123575 0.952349 
54 0.390174 0.0429093 2.20343 0.5 0 0 0 -1.55323 -1.25152 0.558079 
55 1.73185 1.84185 1.70753 0.5 0 0 0 0.650473 0.16486 0.906638 
16 2.25737 2.0163 1.1787 0.5 0 0 0 0.457608 -0.0719351 0.55292 
57 2.38803 1.07706 1.62869 0.5 0 0 0 0.472579 -0.693365 0.75545 
58 1.78529 0.149179 2.23912 0.5 0 0 0 1.03265 -2.0226 2.71624 
59 1.24236 0.582598 2.37882 0.5 0 0 0 0.26067 -0.272284 3.92122 
60 0.669144 1.69642 1.57454 0.5 0 0 0 -0.979915 -0.221889 2.09602 
61 1.33412 0.30039 1.71434 0.5 0 0 0 0.887282 -1.21198 2.26357 
78 1.05745 1.89882 1.61754 0.5 0 0 0 0.147236 0.000519464 1.1613 
63 2.01584 1.57785 2.03483 0.5 0 0 0 0.300741 -0.0542079 1.40505 
64 0.517032 0.35762 2.3791 0.5 0 0 0 -0.565239 0.530411 2.62114 
65 1.06184 1.77543 2.19875 0.5 0 0 0 -0.468612 -1.40525 2.12129 
66 2.34198 0.861934 2.01784 0.5 0 0 0 0.0264716 -1.35145 1.67449 
67 1.10297 0.688531 2.0263 0.5 0 0 0 -0.327833 -0.221814 3.45701 
68 2.05806 1.47707 1.72368 0.5 0 0 0 0.443834 0.165807 1.00097 
69 1.40306 0.742941 2.26945 0.5 0 0 0 -0.012679 -0.601918 3.5669 
77 0.387379 1.54418 1.42856 0.5 0 0 0 -2.22888 -0.477409 2.42525 
71 0.737592 0.532098 1.43849 0.5 0 0 0 -1.94543 -0.911195 1.6672 
72 1.00639 2.24106 2.44179 0.5 0 0 0 0.00217588 -1.25801 1.46168 
73 2.05738 1.03318 1.69109 0.5 0 0 0 0.568013 -0.882779 1.23016 
74 2.23184 1.0152 2.36175 0.5 0 0 0 -0.384274 -1.45763 2.51901 
75 0.0297544 2.31119 2.22174 0.5 0 0 0 -2.35301 -1.6149 0.705435 
76 0.971332 1.10814 1.45357 0.5 0 0 0 -0.382566 -0.281265 1.8109 
12 1.34529 1.51116 1.24546 0.5 0 0 0 0.683698 0.377302 0.874131 
13 1.86622 1.32627 1.2581 0.5 0 0 0 0.996961 -0.0560746 0.662339 
312 2.49224 -0.0785651 1.66923 0.5 0 0 0 -0.146783 -2.94586 1.29964 
42 1.22906 0.726338 1.23556 0.5 0 0 0 0.35316 -0.502417 1.1591 
79 1.43519 2.24236 3.26307 0.5 0 0 0 0.0223918 -2.28925 1.21433 
80 0.722446 0.183727 2.71179 0.5 0 0 0 1.47957 0.523526 2.97286 
81 1.07278 0.414991 2.90583 0.5 0 0 0 1.62679 0.318588 4.42159 
82 1.30862 1.94322 2.75297 0.5 0 0 0 -0.307576 -2.04009 1.90996 
83 1.70365 2.04277 2.87995 0.5 0 0 0 0.281024 -1.52926 1.51926 
84 1.24768 0.840067 3.71743 0.5 0 0 0 1.33459 -3.77938 4.56245 
85 2.02471 1.84018 2.82635 0.5 0 0 0 0.380604 -1.35914 1.64397 
106 1.36418 1.31961 2.6111 0.5 0 0 0 -0.889963 -2.18667 3.25917 
87 0.89879 2.29173 3.34265 0.5 0 0 0 -0.293874 -2.93002 0.78524 
88 1.94611 1.38118 2.97944 0.5 0 0 0 -0.745005 -2.92601 2.85474 
89 1.47552 0.236492 3.78197 0.5 0 0 0 0.219535 1.79093 4.58093 
100 0.580243 2.16469 2.54008 0.5 0 0 0 -0.48651 -1.98821 1.75432 
91 1.72848 1.44582 2.74129 0.5 0 0 0 -0.619493 -2.43804 2.6772 
92 0.127761 2.09688 2.83731 0.5 0 0 0 -1.29449 -2.8236 1.55048 
93 0.715291 0.310077 2.79202 0.5 0 0 0 1.35813 0.930402 3.27142 
94 1.45135 1.943 2.62582 0.5 0 0 0 0.0977372 -1.59535 1.72397 
95 2.18938 2.14758 3.16347 0.5 0 0 0 0.868218 -1.23575 1.36447 
96 0.949786 1.87737 2.59395 0.5 0 0 0 -0.661372 -2.26214 2.27299 
97 1.79654 0.470838 3.6067 0.5 0 0 0 -2.34249 -1.288 5.27488 
98 0.273035 1.57182 2.88925 0.5 0 0 0 -0.472557 -2.69551 1.99008 
99 2.15148 1.76571 3.33726 0.5 0 0 0 -0.0623873 -2.43022 1.9413 
105 0.748321 0.114096 3.13352 0.5 0 0 0 2.42387 0.805806 3.07569 
186 0.405521 2.44493 2.60323 0.5 0 0 0 -0.466305 -1.47818 1.2044 
102 1.84309 1.71235 3.01667 0.5 0 0 0 -0.358364 -2.45638 2.17463 
103 0.428599 1.03809 3.21401 0.5 0 0 0 1.2869 -1.21715 2.32734 
231 1.26226 2.35113 3.50859 0.5 0 0 0 0.166529 -2.63998 0.961266 
62 2.18333 1.76447 2.56416 0.5 0 0 0 0.450498 -0.647158 1.47222 
131 1.85476 1.65836 3.77352 0.5 0 0 0 -0.993858 -4.30594 2.0311 
56 2.44013 0.522566 2.48153 0.5 0 0 0 -0.939937 -1.83347 2.60189 
107 1.79922 0.179208 4.53983 0.5 0 0 0 -2.45774 2.41494 -3.09016 
108 1.07475 1.50088 4.4532 0.5 0 0 0 2.22969 -3.92917 -0.410825 
109 1.80418 0.539853 4.27431 0.5 0 0 0 -4.08284 -0.270221 -1.06204 
110 1.90994 0.6867 4.17966 0.5 0 0 0 -4.6861 -2.33677 0.5353 
139 1.01003 0.534248 4.84209 0.5 0 0 0 4.18318 -0.557643 -2.80636 
112 1.75815 0.697994 4.66539 0.5 0 0 0 -1.94881 -1.78475 -4.66947 
113 1.92754 1.25301 4.43647 0.5 0 0 0 -2.16217 -4.87581 -0.595463 
114 0.873032 0.925222 4.4801 0.5 0 0 0 4.96981 -2.01794 -2.19311 
115 1.84018 0.570502 4.46818 0.5 0 0 0 -3.72927 -0.563741 -3.38019 
116 0.78009 0.159626 4.30329 0.5 0 0 0 4.86662 0.454632 -1.14686 
117 0.97625 0.936255 4.21247 0.5 0 0 0 4.88894 -3.28002 -0.842552 
138 0.027368 1.19266 4.38545 0.5 0 0 0 0.0333222 -1.92594 0.369959 
119 0.767847 1.80935 4.39848 0.5 0 0 0 1.55604 -2.82255 0.538744 
120 1.48919 0.684099 4.13283 0.5 0 0 0 0.291262 -2.81504 1.22377 
121 1.88095 0.771545 3.94803 0.5 0 0 0 -3.88957 -3.60986 3.38564 
122 0.203662 -0.136036 4.07609 0.5 0 0 0 1.17967 -1.13932 0.14068 
123 1.2201 0.0988146 4.57302 0.5 0 0 0 3.27527 1.89717 -2.95631 
124 0.694256 0.48942 4.10318 0.5 0 0 0 4.98875 -0.112455 -0.715117 
125 1.57983 0.388122 4.1862 0.5 0 0 0 -1.13353 2.13312 0.184488 
126 1.32392 0.547609 4.31046 0.5 0 0 0 3.62826 -0.26078 -2.29435 
127 1.22247 2.04541 4.70512 0.5 0 0 0 0.529045 -2.49872 0.738639 
128 1.13277 0.893296 4.24917 0.5 0 0 0 4.63079 -3.84376 -1.04808 
129 0.157216 1.59081 4.15841 0.5 0 0 0 1.00247 -2.69925 -0.130439 
130 0.546461 0.828474 4.34958 0.5 0 0 0 3.60262 -1.03145 -1.4042 
137 0.139753 2.14502 3.86316 0.5 0 0 0 -0.174205 -3.34814 -0.349377 
132 2.24816 1.87937 3.83285 0.5 0 0 0 -0.369884 -2.65502 1.08218 
133 1.3657 0.564182 4.27384 0.5 0 0 0 2.91039 -0.547928 -1.67055 
134 1.70918 2.16354 4.92569 0.5 0 0 0 -0.34591 -2.30069 0.356025 
135 2.26417 0.167798 4.66813 0.5 0 0 0 -2.70221 -0.457264 -0.977847 
136 1.59585 1.61779 4.25902 0.5 0 0 0 -0.174867 -5.05037 0.598185 
86 1.99542 1.44374 3.89323 0.5 0 0 0 -1.58172 -4.76337 2.0159 
252 1.97124 2.33459 4.62375 0.5 0 0 0 -0.380375 -2.50456 -0.187758 
372 2.44554 0.703618 4.33782 0.5 0 0 0 -4.58137 -1.31111 -0.490222 
111 1.47988 2.39441 3.94323 0.5 0 0 0 0.57341 -2.60423 1.12594 
90 1.33534 1.25018 3.83519 0.5 0 0 0 0.044269 -5.92768 2.69794 
104 1.86756 1.04358 3.82198 0.5 0 0 0 -2.6522 -5.30323 3.62832 
118 2.50959 1.6731 4.55116 0.5 0 0 0 -2.00898 -2.35959 -0.414605 
101 1.6383 0.949571 3.8076 0.5 0 0 0 -1.76172 -5.38769 4.47979 
140 2.46899 2.49534 0.521338 0.5 0 0 0 -0.128896 -0.4971 0.0925427 
141 0.969147 3.25075 0.881217 0.5 0 0 0 -0.687586 -0.054244 0.763194 
142 1.05819 3.61895 0.280842 0.5 0 0 0 0.0762395 0.567412 -0.305176 
143 0.613285 3.01274 0.59792 0.5 0 0 0 -0.779416 -0.0736953 1.18852 
167 1.3425 2.79902 0.683512 0.5 0 0 0 0.86256 -0.285228 0.459318 
168 1.60813 2.59703 0.915718 0.5 0 0 0 0.694579 -0.064978 0.373866 
146 1.06776 3.21913 0.367264 0.5 0 0 0 0.564969 -0.407098 0.137503 
147 0.57322 4.49282 0.517006 0.5 0 0 0 1.15784 -0.171488 0.303694 
148 1.97431 3.78988 0.433877 0.5 0 0 0 0.683026 -0.36895 -0.379254 
149 0.683851 3.59682 0.0907861 0.5 0 0 0 -0.319989 1.05819 -0.717003 
150 1.89594 4.42723 0.806373 0.5 0 0 0 -0.262431 0.0303642 0.357122 
151 0.0449841 3.44437 0.106179 0.5 0 0 0 -1.6452 0.6178 -0.0464309 
152 1.35725 3.63101 1.14385 0.5 0 0 0 0.113072 -0.00936169 0.19952 
153 2.20121 4.40131 0.258865 0.5 0 0 0 -0.252394 -0.13362 -0.978044 
154 2.3391 4.58275 0.684235 0.5 0 0 0 -0.384989 -0.355657 0.255408 
155 1.29543 3.739 0.711873 0.5 0 0 0 -0.0562973 0.395999 0.295772 
156 0.44886 4.37762 1.0583 0.5 0 0 0 -0.637623 -0.993199 1.12877 
157 2.28879 2.65211 1.12402 0.5 0 0 0 0.333576 -0.230732 0.723474 
158 1.97602 4.15403 0.975273 0.5 0 0 0 0.404537 -0.540364 0.510223 
159 1.30202 3.80288 0.707776 0.5 0 0 0 -0.132013 0.516257 0.258986 
160 2.25978 2.64392 -0.0733054 0.5 0 0 0 -0.478469 -0.501392 -2.67293 
23 0.962136 2.54199 0.248238 0.5 0 0 0 0.775228 -0.195277 -0.0476543 
162 1.69244 3.28375 0.688213 0.5 0 0 0 1.10811 -0.412 0.186943 
163 0.0413298 4.44313 0.0101745 0.5 0 0 0 0.227725 -0.4429 -0.609376 
164 2.14711 2.84689 0.191507 0.5 0 0 0 -0.0991981 -0.121532 -1.10239 
165 0.0909421 3.27534 0.313761 0.5 0 0 0 -1.7933 0.168292 0.889066 
166 2.19765 3.29178 0.984016 0.5 0 0 0 0.426609 -0.0728548 0.437572 
169 0.463445 3.13038 2.39827 0.5 0 0 0 -0.761605 0.716138 0.0717184 
170 1.91535 3.15614 2.11444 0.5 0 0 0 0.84997 -0.609224 0.276127 
171 0.0731189 4.12223 2.28627 0.5 0 0 0 -2.32456 -0.638971 -1.31681 
172 1.10385 2.49108 1.83479 0.5 0 0 0 0.113694 -0.0898148 0.287157 
173 1.82174 3.36307 1.88121 0.5 0 0 0 0.624445 -0.353017 -0.192778 
174 1.26915 2.64237 1.45142 0.5 0 0 0 0.152427 0.0685885 0.0522604 
175 1.5165 4.31087 1.98113 0.5 0 0 0 0.60882 -0.492243 -0.249123 
176 1.55215 2.54248 1.97066 0.5 0 0 0 1.07771 -0.388559 0.455858 
177 -0.000876237 2.86161 2.38797 0.5 0 0 0 -2.34366 0.446014 0.184787 
178 1.44946 3.12326 1.43829 0.5 0 0 0 0.262651 -0.115135 -0.0446918 
179 2.14587 3.06959 2.45799 0.5 0 0 0 1.21842 -1.04108 0.798676 
180 1.15672 3.75587 1.50516 0.5 0 0 0 -0.81993 -0.025383 -0.175293 
181 1.90675 4.8254 1.69836 0.5 0 0 0 -0.110059 0.569133 -0.338461 
182 1.13561 4.0265 1.86655 0.5 0 0 0 -0.897715 -0.269056 -0.17635 
183 1.54777 4.578 2.2453 0.5 0 0 0 0.407829 -0.184498 0.381967 
184 0.375305 2.61523 1.7266 0.5 0 0 0 -1.25191 0.288654 -0.281846 
185 1.31385 4.74035 2.28151 0.5 0 0 0 -0.397737 0.234657 0.573714 
204 1.32469 2.72488 2.02243 0.5 0 0 0 0.41132 -0.151414 0.337914 
187 1.38995 2.5981 2.25108 0.5 0 0 0 0.729133 -0.475111 0.785686 
188 1.50496 3.99843 2.40065 0.5 0 0 0 0.2112 -0.474666 0.650942 
189 1.72033 3.51607 2.26762 0.5 0 0 0 0.268681 -0.402686 0.325114 
202 0.972519 3.69504 1.79271 0.5 0 0 0 -1.44562 -0.0254658 -0.100544 
191 2.16537 2.98689 2.46313 0.5 0 0 0 1.31921 -1.07884 0.829753 
192 1.88901 3.66891 2.05625 0.5 0 0 0 0.648522 -0.477144 -0.120447 
193 0.891342 3.87886 2.4315 0.5 0 0 0 -1.18045 -0.075321 0.529372 
194 0.584982 3.06104 2.15149 0.5 0 0 0 -0.561624 0.719596 -0.131373 
195 1.99794 2.84629 1.96781 0.5 0 0 0 1.27015 -0.681284 0.43529 
196 1.34713 4.40977 1.55938 0.5 0 0 0 -0.112874 0.0288051 -0.882852 
190 1.78495 4.93382 1.1726 0.5 0 0 0 -1.13941 1.85131 -0.304654 
198 0.864705 4.5435 2.00967 0.5 0 0 0 -2.11468 0.13588 -0.143083 
199 1.34387 3.07488 2.36975 0.5 0 0 0 -0.0318094 -0.265274 0.531327 
200 2.34843 5.0293 2.31953 0.5 0 0 0 -0.796863 1.59987 0.32437 
201 0.447624 2.72568 2.13465 0.5 0 0 0 -0.558388 0.0893359 0.113435 
70 0.869077 2.53772 2.15017 0.5 0 0 0 -0.00745746 -0.37954 0.682911 
145 2.08491 2.5666 1.35062 0.5 0 0 0 0.613472 -0.220205 0.593894 
161 0.304201 3.15922 1.21597 0.5 0 0 0 -2.20406 0.5866 0.685945 
205 1.20045 3.53231 3.03398 0.5 0 0 0 0.0678487 -0.334035 0.264395 
206 1.96354 4.32896 3.0356 0.5 0 0 0 -0.110261 -0.374477 0.795665 
207 0.125246 4.09144 3.71369 0.5 0 0 0 -0.808865 -0.464175 0.10916 
208 0.843592 2.50922 3.69925 0.5 0 0 0 0.234163 -2.5569 0.728866 
209 1.51897 3.92171 3.16326 0.5 0 0 0 0.196406 -0.117596 0.840578 
210 1.84193 3.57401 3.51447 0.5 0 0 0 0.186007 -0.797572 0.527485 
211 1.88266 3.75203 2.61169 0.5 0 0 0 0.452281 -0.560286 0.722417 
212 1.26728 4.95011 2.96345 0.5 0 0 0 -0.263375 0.344917 0.888338 
213 2.05997 3.14167 2.58517 0.5 0 0 0 0.926563 -0.952216 0.886772 
214 1.24451 3.2732 3.65915 0.5 0 0 0 0.794249 -0.803019 0.932482 
215 0.723579 3.1322 3.31571 0.5 0 0 0 -0.405254 -0.70373 -0.116952 
216 0.445423 3.1858 3.33118 0.5 0 0 0 -1.08575 -0.462283 -0.477944 
217 2.47751 2.71684 2.75587 0.5 0 0 0 1.39726 -1.20607 0.862045 
218 2.38559 5.03043 3.71336 0.5 0 0 0 -0.964589 1.53896 0.410936 
219 1.09024 2.61489 3.18493 0.5 0 0 0 0.202241 -1.69428 0.472059 
220 2.3237 4.8339 2.9577 0.5 0 0 0 -0.618001 0.361529 0.82875 
221 1.05556 3.48504 3.60298 0.5 0 0 0 0.438428 -0.233156 0.805241 
222 2.43948 3.20193 3.0653 0.5 0 0 0 0.899358 -1.47818 0.585504 
223 1.90845 2.5835 3.33421 0.5 0 0 0 1.00387 -1.39156 0.908048 
224 0.518839 4.9229 3.11834 0.5 0 0 0 -0.680208 1.04937 -0.188451 
225 0.511126 3.84252 3.64451 0.5 0 0 0 -0.152871 0.0961325 0.347043 
226 0.947696 4.03003 2.86602 0.5 0 0 0 -0.664852 0.111339 0.686459 
227 1.10353 3.04116 3.11188 0.5 0 0 0 0.291874 -0.9465 0.135921 
228 0.260907 4.35829 2.60106 0.5 0 0 0 -1.13167 -0.263856 -0.406401 
229 0.262291 4.30495 3.51799 0.5 0 0 0 -0.219794 -0.166078 -0.264811 
230 1.60814 2.91279 3.13403 0.5 0 0 0 0.859895 -1.11713 0.63779 
234 1.25336 3.65657 3.14788 0.5 0 0 0 0.17056 -0.17768 0.46257 
232 2.45705 3.29093 3.07977 0.5 0 0 0 0.789068 -1.45296 0.514946 
233 1.25657 4.7676 3.4016 0.5 0 0 0 0.262791 -0.270153 0.631697 
472 2.51544 4.84304 2.81896 0.5 0 0 0 -0.522587 0.376591 0.860389 
251 1.85862 2.53245 3.78308 0.5 0 0 0 0.796269 -1.97059 0.861843 
452 2.41993 3.93784 3.55702 0.5 0 0 0 -0.618536 -0.767713 -0.22719 
254 1.67058 4.93834 3.76207 0.5 0 0 0 -0.108463 -0.00656167 -0.126827 
197 1.56003 4.63702 2.47551 0.5 0 0 0 0.194491 -0.043195 0.939151 
235 1.25867 4.88885 4.11646 0.5 0 0 0 -0.0651445 -0.422478 -0.499986 
236 2.01962 3.92686 3.99277 0.5 0 0 0 -1.36739 -0.449677 -0.153233 
237 0.594825 2.54954 3.92612 0.5 0 0 0 0.437815 -2.27652 0.911886 
238 0.923659 4.77169 4.37611 0.5 0 0 0 0.150003 -0.396477 -0.108924 
239 0.871883 3.75292 3.98213 0.5 0 0 0 0.547449 0.0328782 1.33276 
240 2.06137 4.57361 4.57908 0.5 0 0 0 -2.3182 1.31105 0.100608 
241 2.18402 4.38619 4.75143 0.5 0 0 0 -2.57569 0.696947 0.680947 
242 0.0972855 3.19401 4.41599 0.5 0 0 0 0.712126 -0.0226704 0.530364 
243 -0.0210839 2.72651 4.80957 0.5 0 0 0 0.47853 -2.54413 1.85154 
244 0.523826 4.91629 4.8473 0.5 0 0 0 -0.892518 0.136738 1.01526 
245 1.52926 3.07 4.95431 0.5 0 0 0 -1.28625 -1.12749 1.45292 
246 1.24538 3.71928 4.4173 0.5 0 0 0 -0.181748 -0.942116 1.0363 
247 2.42627 3.3571 3.82754 0.5 0 0 0 -0.0792558 -1.80321 -0.263722 
248 1.72735 2.67638 4.86735 0.5 0 0 0 -0.717012 -1.99975 0.51467 
249 1.67259 3.00146 4.12672 0.5 0 0 0 0.268935 -1.74655 0.717809 
250 1.29947 2.62046 3.9529 0.5 0 0 0 0.753682 -2.08424 1.28433 
259 0.587315 2.82169 3.88904 0.5 0 0 0 0.414877 -1.32136 0.940602 
258 0.0372898 2.95954 4.02069 0.5 0 0 0 -0.312588 -0.790843 -0.239194 
253 0.163212 2.67725 3.94064 0.5 0 0 0 -0.222652 -1.89757 0.00970463 
498 2.4724 3.56392 4.29257 0.5 0 0 0 -1.20933 -2.02094 -0.680328 
255 0.213926 3.66474 4.84727 0.5 0 0 0 0.696209 0.259905 1.04146 
256 2.32355 4.09435 4.60624 0.5 0 0 0 -2.25463 -0.685978 -0.152661 
257 1.27312 4.24124 4.86157 0.5 0 0 0 -0.926694 -1.02027 1.4444 
260 4.00548 -0.157006 0.919832 0.5 0 0 0 -0.224177 -2.7752 0.556822 
261 3.19554 2.28939 1.12981 0.5 0 0 0 -0.766223 0.0920758 1.34736 
262 4.78768 2.0216 0.404286 0.5 0 0 0 1.76552 0.433143 -1.08034 
263 4.86349 0.626831 0.989598 0.5 0 0 0 1.13931 -1.7778 0.856519 
264 3.25883 0.915983 0.201981 0.5 0 0 0 -0.773145 0.954942 -0.970722 
265 4.90556 1.41686 1.11292 0.5 0 0 0 1.84974 0.293375 1.42054 
266 4.83437 0.647195 -0.0129585 0.5 0 0 0 0.867683 -0.263062 -3.2285 
267 3.45727 1.79731 0.886211 0.5 0 0 0 -1.61329 -0.356144 0.380654 
268 2.89322 0.522862 0.84492 0.5 0 0 0 -0.153666 -0.39753 1.69453 
269 3.96981 1.81192 0.224033 0.5 0 0 0 -1.04666 -0.483313 -2.25321 
270 3.93632 1.90246 1.01937 0.5 0 0 0 -0.967614 0.532133 1.32233 
293 3.02089 2.402 0.572197 0.5 0 0 0 -0.796681 -0.433142 0.208537 
272 4.42309 1.79277 0.741692 0.5 0 0 0 0.0471759 0.718684 0.202815 
273 4.85215 1.36362 0.800133 0.5 0 0 0 1.45524 -0.322755 -0.105135 
274 2.68345 0.714078 0.824481 0.5 0 0 0 0.231212 -0.0904043 1.49868 
275 2.53787 2.34774 0.0564307 0.5 0 0 0 -0.496729 -1.07385 -2.05801 
276 5.08108 0.0669041 0.78781 0.5 0 0 0 1.14242 -1.6654 0.654443 
294 3.1399 0.0914743 0.349252 0.5 0 0 0 0.150572 -2.31535 -0.195695 
278 3.60826 1.88445 0.935534 0.5 0 0 0 -1.47448 -0.0204972 0.739708 
279 3.71217 0.457455 0.171535 0.5 0 0 0 0.354218 -1.32187 -1.49382 
295 2.73142 1.13215 0.898672 0.5 0 0 0 -0.159631 0.170654 0.868972 
281 3.0564 0.151187 0.970885 0.5 0 0 0 -0.451395 -1.9375 1.7753 
282 3.87439 1.69556 1.09784 0.5 0 0 0 -1.31067 0.0497545 1.41494 
283 3.80612 2.33926 -0.181312 0.5 0 0 0 -1.10117 -0.92878 -3.7762 
284 4.16863 2.09977 0.500955 0.5 0 0 0 -0.298029 0.731172 -0.333548 
285 3.41144 2.33265 0.439943 0.5 0 0 0 -1.11913 -0.145077 -0.370678 
286 3.72182 0.963261 0.427493 0.5 0 0 0 -1.13997 -0.23101 -0.451674 
287 4.34117 1.0384 0.421508 0.5 0 0 0 -0.486836 -1.23537 -1.49494 
288 4.07943 1.6191 1.03377 0.5 0 0 0 -1.10323 0.123608 1.24626 
289 4.36668 1.05292 0.596486 0.5 0 0 0 -0.637075 -1.32404 -0.78747 
290 3.33102 0.992296 0.623111 0.5 0 0 0 -1.22166 0.311907 0.681998 
291 2.90505 1.00381 0.083124 0.5 0 0 0 -0.432337 1.52778 -1.78154 
297 3.16279 0.422632 1.81526 0.5 0 0 0 -1.29623 -1.55317 0.777149 
298 3.83872 2.08748 2.17162 0.5 0 0 0 -1.14475 -0.14281 1.04436 
299 3.06608 0.732187 2.23275 0.5 0 0 0 -0.806991 -0.563658 1.53061 
323 3.16957 1.7184 1.5588 0.5 0 0 0 -0.673969 -0.158873 1.1561 
301 3.32708 1.70196 2.15389 0.5 0 0 0 -0.572185 0.0773936 1.27867 
302 3.70477 0.970471 1.808 0.5 0 0 0 -0.872573 0.195367 1.52373 
303 3.80395 0.847812 1.94422 0.5 0 0 0 -0.641813 0.0391827 1.64925 
292 4.33292 1.2853 1.24701 0.5 0 0 0 -0.639631 -0.249339 1.77508 
305 4.06195 1.45734 1.37119 0.5 0 0 0 -1.02087 0.152792 2.08142 
306 4.61122 1.24738 1.92467 0.5 0 0 0 0.787592 -0.0452689 1.55521 
307 4.02805 0.00288863 2.16168 0.5 0 0 0 -1.98919 -2.04561 -0.125292 
308 4.72506 0.104428 2.27495 0.5 0 0 0 0.057338 -0.247027 0.016205 
309 3.95474 0.747125 1.9207 0.5 0 0 0 -0.468717 -0.275997 1.65555 
310 4.61075 2.32872 1.97826 0.5 0 0 0 0.484437 -0.14286 0.410058 
311 3.53785 2.25908 2.09172 0.5 0 0 0 -0.89341 0.158215 1.12884 
321 4.85074 -0.0225739 2.20582 0.5 0 0 0 0.482353 -0.650796 -0.309906 
313 2.56726 1.50595 2.20378 0.5 0 0 0 0.109441 0.00593597 1.31398 
320 2.69246 1.31431 1.87261 0.5 0 0 0 0.0635432 -0.068962 0.908794 
315 3.26738 0.871673 1.9548 0.5 0 0 0 -0.804974 -0.121839 1.1674 
316 4.50045 1.00423 2.30412 0.5 0 0 0 0.307704 0.0216583 0.921359 
317 4.42453 1.96834 2.33396 0.5 0 0 0 -0.426086 -0.757487 0.429073 
318 3.62756 0.647094 1.42441 0.5 0 0 0 -1.29699 -0.89421 0.717554 
319 3.17122 2.16818 1.97117 0.5 0 0 0 -0.361803 0.250588 1.24399 
271 4.89446 1.59839 1.20695 0.5 0 0 0 1.99245 1.0574 1.86752 
19 2.58919 1.86325 1.17351 0.5 0 0 0 0.0130868 -0.26431 0.539878 
280 3.82516 0.808416 1.18766 0.5 0 0 0 -1.36623 -0.816523 0.795688 
300 4.20682 2.38482 1.22814 0.5 0 0 0 -0.043726 0.850027 1.85761 
296 4.29953 0.620858 1.1735 0.5 0 0 0 -0.391132 -1.69156 0.799719 
277 3.47973 2.13585 1.17681 0.5 0 0 0 -1.08769 0.31177 1.56485 
324 4.20048 1.07209 3.60418 0.5 0 0 0 -1.49447 0.447567 -0.55742 
325 3.13523 0.346647 3.34055 0.5 0 0 0 -3.12521 -1.26454 1.33756 
326 3.66738 1.47199 3.67458 0.5 0 0 0 -1.94323 -0.405509 -0.054697 
327 4.15863 1.37271 2.56514 0.5 0 0 0 -0.87973 -0.248744 0.532216 
328 3.56053 0.746072 2.82267 0.5 0 0 0 -1.23032 0.197327 0.97085 
329 4.6547 1.85819 2.7612 0.5 0 0 0 0.287395 -1.60664 -0.422545 
330 3.3792 1.61927 3.26274 0.5 0 0 0 -1.49014 -0.393441 0.612953 
331 4.42014 1.68674 3.2659 0.5 0 0 0 -1.11422 -1.26871 -0.407848 
332 4.72993 0.335383 2.57276 0.5 0 0 0 0.295595 0.868812 -0.287269 
333 2.66868 0.745648 3.45058 0.5 0 0 0 -3.12676 -1.52278 2.19023 
334 4.39709 0.492252 3.23251 0.5 0 0 0 -0.533136 0.856176 -1.84095 
335 5.05889 2.33763 2.86349 0.5 0 0 0 3.0419 -1.00709 -0.903756 
336 4.05518 0.349998 3.25552 0.5 0 0 0 -1.75577 0.276351 -0.9658 
350 2.94785 1.6205 2.67101 0.5 0 0 0 -0.331954 -0.231897 1.44432 
338 2.75763 1.04701 3.70241 0.5 0 0 0 -3.05268 -1.44822 1.35403 
339 2.70521 0.895137 2.70663 0.5 0 0 0 -1.03011 -1.15815 2.43848 
340 2.93396 1.02898 3.59674 0.5 0 0 0 -2.76055 -1.00177 1.2385 
341 4.47472 1.99478 3.43292 0.5 0 0 0 -1.11101 -1.62614 0.0347104 
342 4.92135 1.88467 3.61398 0.5 0 0 0 1.08779 -1.75784 0.255002 
343 3.24144 1.5906 2.62381 0.5 0 0 0 -0.676341 -0.187446 1.25352 
349 4.19679 -0.0384186 3.2198 0.5 0 0 0 -1.68688 -1.348 -1.61043 
345 3.47821 0.042645 3.05536 0.5 0 0 0 -2.73629 -2.21429 0.525315 
346 3.69692 0.81252 3.53319 0.5 0 0 0 -2.44876 0.195985 0.133112 
347 2.80181 1.66491 2.63694 0.5 0 0 0 -0.102941 -0.19073 1.44761 
348 2.63913 1.65881 2.67644 0.5 0 0 0 0.0402405 -0.424366 1.55991 
352 4.9476 1.25163 3.70678 0.5 0 0 0 1.53041 -0.0803905 -0.46813 
469 4.12803 2.45322 2.60915 0.5 0 0 0 -1.94922 -0.327583 -0.220412 
304 2.73536 0.148559 2.52865 0.5 0 0 0 -1.73127 -2.67687 1.93458 
384 4.55124 0.313808 3.78156 0.5 0 0 0 -1.08606 0.714385 -1.93748 
351 4.81681 0.433188 4.13216 0.5 0 0 0 0.535592 1.2844 -0.255348 
381 3.28513 1.873 4.23841 0.5 0 0 0 -1.69189 -1.05927 -1.04754 
353 3.42784 1.25796 4.13505 0.5 0 0 0 -2.4124 -0.741771 -0.231578 
354 3.93463 1.93868 4.94642 0.5 0 0 0 -0.469434 -0.731155 1.15874 
355 4.89446 2.33383 4.00751 0.5 0 0 0 0.313312 -1.3628 1.33095 
356 4.45178 -0.173178 4.7697 0.5 0 0 0 -1.86011 -2.81272 1.58552 
383 4.13178 0.484752 4.99293 0.5 0 0 0 -2.19909 0.864357 2.56451 
358 5.0929 1.5728 4.75785 0.5 0 0 0 1.28515 -0.321794 1.65878 
359 3.01963 1.92092 4.29426 0.5 0 0 0 -1.64706 -1.29437 -1.07767 
360 4.55822 0.294845 4.19704 0.5 0 0 0 -1.20759 0.680648 -0.312286 
361 5.01071 2.27455 4.16296 0.5 0 0 0 0.815277 -1.71604 1.74479 
362 4.1711 0.254776 4.2464 0.5 0 0 0 -3.31797 0.0155965 -0.205628 
363 3.91127 0.31909 4.53698 0.5 0 0 0 -4.12026 -0.229066 0.557585 
364 2.66471 1.94633 4.90104 0.5 0 0 0 -2.03345 -1.87521 0.775534 
365 3.16968 1.7958 4.59542 0.5 0 0 0 -1.63182 -1.52828 -0.429043 
366 4.61143 0.91158 4.1486 0.5 0 0 0 -0.161738 1.71026 0.501551 
367 3.81674 -0.0602677 3.84489 0.5 0 0 0 -4.38231 -2.21117 0.189351 
368 4.06428 1.84855 4.28442 0.5 0 0 0 -1.15821 -0.718775 -0.0177413 
369 3.49419 1.48241 4.35656 0.5 0 0 0 -1.88356 -0.953654 -0.468698 
370 2.82996 0.443274 4.66007 0.5 0 0 0 -3.54651 -1.0808 0.0900698 
371 4.72583 0.250743 4.64226 0.5 0 0 0 0.353958 0.645465 1.6131 
382 3.88417 0.944616 3.84084 0.5 0 0 0 -2.454 0.36209 -0.0352412 
373 4.63288 0.300497 3.94052 0.5 0 0 0 -0.776925 0.734373 -1.37515 
374 4.534 0.486211 4.0481 0.5 0 0 0 -1.13015 1.24194 -0.778634 
375 5.0345 0.0100881 4.98315 0.5 0 0 0 3.59459 -1.18682 3.20886 
376 4.10392 1.60788 4.6828 0.5 0 0 0 -0.582534 -0.440867 0.453403 
377 4.01537 2.10371 5.10769 0.5 0 0 0 -0.110019 -0.494929 2.13375 
378 2.91758 1.64262 5.01093 0.5 0 0 0 -1.92854 -2.16824 1.57488 
379 3.53376 0.926491 5.0741 0.5 0 0 0 -2.38324 -0.425512 1.83397 
380 3.06475 2.29046 4.29764 0.5 0 0 0 -1.41918 -1.2523 -1.06818 
385 2.72742 3.16667 0.678629 0.5 0 0 0 -0.259388 0.0375735 0.477804 
386 4.46002 4.72631 0.0499659 0.5 0 0 0 0.670161 0.329227 -0.709479 
387 3.86554 3.94207 0.138868 0.5 0 0 0 0.119326 -0.41101 -0.427966 
388 4.3202 4.0172 1.07918 0.5 0 0 0 -0.817641 -0.172804 -1.10383 
389 3.81848 3.08829 0.79496 0.5 0 0 0 -0.593835 0.0886321 0.755317 
390 3.64731 4.11213 0.128383 0.5 0 0 0 0.0900814 -0.597272 0.0534285 
391 5.05324 4.33 1.0758 0.5 0 0 0 2.14311 1.08708 -1.29516 
392 4.88879 2.67893 0.295456 0.5 0 0 0 1.32118 0.365098 -0.297388 
393 4.52615 4.58374 0.677713 0.5 0 0 0 -0.0149012 1.27487 -0.991407 
394 2.76375 2.92559 1.08837 0.5 0 0 0 0.0172076 -0.151017 1.30103 
395 4.91112 2.95983 0.998613 0.5 0 0 0 1.35494 -0.497197 1.14147 
396 4.08241 3.0766 0.0174997 0.5 0 0 0 -0.343911 0.45078 -1.52521 
397 5.07978 4.04744 0.825036 0.5 0 0 0 2.38235 -0.0625562 -1.63044 
398 2.92734 4.94158 0.00820691 0.5 0 0 0 -0.47716 2.03756 -1.50095 
399 3.38819 4.92149 0.588319 0.5 0 0 0 0.578009 1.09103 -0.330938 
400 3.33768 4.51273 0.419339 0.5 0 0 0 0.195506 -0.60387 0.275922 
401 3.37373 2.65717 0.0719772 0.5 0 0 0 -0.97875 -0.396998 -1.65023 
402 2.72655 3.11912 0.688011 0.5 0 0 0 -0.262857 0.00998019 0.537457 
403 4.76397 3.22273 0.182951 0.5 0 0 0 0.431276 0.481353 -1.34397 
404 4.20748 2.63553 0.142003 0.5 0 0 0 -0.164181 0.531367 -0.893865 
405 4.05946 4.87616 -0.0238906 0.5 0 0 0 0.282751 0.873201 -0.164233 
406 4.20552 3.58906 1.03062 0.5 0 0 0 -0.887321 -0.743071 -0.290772 
407 2.81353 4.2113 -0.0113408 0.5 0 0 0 -0.34672 -0.769298 -1.25045 
408 4.99351 3.11745 0.424441 0.5 0 0 0 1.24823 -0.0506715 -0.253385 
409 3.77205 3.30856 0.562627 0.5 0 0 0 -0.53587 0.0680775 0.0361679 
410 3.87007 2.62727 0.885783 0.5 0 0 0 -0.532512 0.714041 1.23154 
411 4.18382 2.65307 1.06403 0.5 0 0 0 -0.135339 0.559339 1.46054 
412 3.09159 3.18162 0.446709 0.5 0 0 0 -0.480408 0.0500208 0.0614822 
413 2.9187 3.71694 0.925147 0.5 0 0 0 -0.225706 -0.363105 0.33075 
414 2.70955 4.4843 0.643287 0.5 0 0 0 -0.107163 -0.930262 0.142364 
415 2.63879 4.93667 1.11349 0.5 0 0 0 -1.07914 0.886353 -0.31986 
417 3.08579 3.60768 0.193221 0.5 0 0 0 -0.439145 -0.300436 -0.622326 
418 4.81607 4.17572 1.6567 0.5 0 0 0 0.591374 -0.344411 0.0452653 
419 2.97104 3.7773 2.20128 0.5 0 0 0 0.5271 -1.67735 0.597756 
420 4.87673 3.94972 2.41376 0.5 0 0 0 0.274815 -1.5763 0.677156 
421 4.87511 4.5704 1.80973 0.5 0 0 0 1.0115 1.67478 -0.455566 
422 4.26911 4.54909 1.75393 0.5 0 0 0 0.210655 0.978855 0.159616 
423 3.64884 4.60708 1.39653 0.5 0 0 0 0.36106 0.133727 -1.2318 
424 4.35686 3.80957 1.43823 0.5 0 0 0 -0.729121 -1.16531 0.524543 
425 2.78397 3.15329 1.33966 0.5 0 0 0 0.223651 -0.293626 1.28216 
426 3.24265 4.5535 2.11578 0.5 0 0 0 0.105254 -0.908391 1.6601 
427 3.29534 4.61705 1.65762 0.5 0 0 0 -0.18008 -0.610705 -0.144496 
428 4.92768 4.31069 2.00987 0.5 0 0 0 0.632332 -0.199167 0.0995342 
429 3.19584 4.83428 1.72876 0.5 0 0 0 -0.35661 0.283541 0.170785 
430 2.95763 4.84836 1.32106 0.5 0 0 0 -0.875928 0.354227 -0.984219 
431 3.50764 2.67592 2.37492 0.5 0 0 0 -0.87447 -0.138921 0.589053 
432 3.95776 2.50817 1.48001 0.5 0 0 0 -0.674925 0.427623 1.94284 
433 2.74246 4.3553 2.39778 0.5 0 0 0 -0.216777 -1.0173 0.873521 
434 3.13472 4.50779 1.94043 0.5 0 0 0 -0.332022 -1.0792 0.870668 
435 3.61635 4.6595 1.62656 0.5 0 0 0 0.532157 0.0850986 -0.176522 
436 3.34107 3.27576 2.05507 0.5 0 0 0 -0.141785 -0.940325 0.961109 
437 3.80655 3.9833 1.78454 0.5 0 0 0 -0.714549 -1.51616 0.940769 
438 5.00235 3.52829 1.86043 0.5 0 0 0 1.73063 -1.9326 0.236679 
439 4.48503 4.48045 2.45638 0.5 0 0 0 -0.699914 0.100517 1.44681 
440 2.64624 3.87468 2.23009 0.5 0 0 0 0.374653 -1.16786 0.247903 
441 2.92967 4.74914 2.12022 0.5 0 0 0 -0.681663 -0.00187001 1.10783 
442 3.06368 4.58908 1.3818 0.5 0 0 0 -0.702492 -0.75302 -1.05741 
443 3.87393 4.11949 1.96442 0.5 0 0 0 -0.426125 -1.36551 1.44368 
444 2.67806 4.35639 1.89243 0.5 0 0 0 -0.768881 -0.933478 -0.157714 
445 4.42925 3.75365 1.23855 0.5 0 0 0 -0.571382 -1.03444 -0.0131097 
446 4.16136 3.88014 2.29143 0.5 0 0 0 -0.971748 -1.56496 1.40254 
447 3.98413 3.8338 1.70991 0.5 0 0 0 -1.00339 -1.50686 1.0225 
448 4.54614 2.8292 2.2281 0.5 0 0 0 -0.16734 0.272914 -0.265071 
449 3.08114 3.86142 1.29596 0.5 0 0 0 -0.376895 -0.892122 0.0160049 
450 3.483 3.36566 1.39672 0.5 0 0 0 -0.555931 -0.723531 1.08937 
416 4.43939 3.86705 1.2623 0.5 0 0 0 -0.553439 -0.823806 -0.162317 
203 2.54258 2.99443 1.48495 0.5 0 0 0 0.543039 -0.349876 1.11901 
322 2.89681 2.52125 1.86351 0.5 0 0 0 0.201403 -0.0969046 1.34299 
314 4.95155 2.49957 1.43987 0.5 0 0 0 2.18019 0.0170288 0.881026 
479 2.67201 3.66332 3.67497 0.5 0 0 0 -0.203281 -1.64072 -0.627217 
453 4.81673 2.73412 3.2535 0.5 0 0 0 0.831763 0.571402 -0.423154 
454 3.9686 3.31053 2.81272 0.5 0 0 0 -1.04512 -0.094714 0.106196 
455 2.97859 4.28331 3.66018 0.5 0 0 0 -0.726459 -0.931957 -1.02437 
456 2.78681 4.65171 3.10914 0.5 0 0 0 -0.203225 -0.442491 0.326351 
457 3.04669 4.89391 2.9408 0.5 0 0 0 0.553125 0.687025 0.706028 
458 3.38147 3.15474 2.90913 0.5 0 0 0 -0.536572 -0.877593 0.204823 
459 4.79833 4.06688 2.63942 0.5 0 0 0 -0.128166 -1.05993 1.1474 
460 4.3388 2.93317 3.14829 0.5 0 0 0 -1.28457 1.05567 -0.479582 
461 4.46961 4.44766 2.57147 0.5 0 0 0 -0.803987 -0.0313506 1.57317 
462 4.70144 4.99922 2.54256 0.5 0 0 0 0.456925 4.60246 1.38127 
463 4.41337 2.63817 2.73773 0.5 0 0 0 -1.22609 -0.00245749 -0.778245 
464 3.08229 3.82561 3.12878 0.5 0 0 0 0.298946 -1.73453 -0.110309 
465 3.57021 3.93288 3.56066 0.5 0 0 0 0.454536 -1.22718 -1.19866 
466 4.19206 2.57746 3.01757 0.5 0 0 0 -2.12585 -0.251491 -0.640433 
467 3.47468 4.4369 3.46201 0.5 0 0 0 0.871007 -0.333505 -0.872426 
468 4.83205 2.71881 2.53954 0.5 0 0 0 1.39735 0.238116 -0.966658 
344 4.18939 2.52631 3.41191 0.5 0 0 0 -2.05239 -0.494582 0.0025163 
470 4.48469 2.52909 3.64937 0.5 0 0 0 -1.05982 -0.473959 0.538373 
471 3.84038 4.76543 3.03905 0.5 0 0 0 0.428586 1.21796 0.489346 
451 2.79986 3.79808 2.49961 0.5 0 0 0 0.67308 -1.50333 0.66843 
473 2.91846 5.08611 3.74857 0.5 0 0 0 -0.149515 2.67778 0.232622 
474 4.50733 2.85757 3.6255 0.5 0 0 0 -0.710842 1.04246 0.308559 
478 3.989 2.61315 3.41298 0.5 0 0 0 -2.49922 -0.216072 -0.0580133 
476 4.67836 3.70549 3.01079 0.5 0 0 0 0.0893498 -0.00661562 0.817131 
477 2.80107 4.25511 2.5663 0.5 0 0 0 0.0882144 -1.26933 0.940688 
337 4.00853 2.47712 3.28526 0.5 0 0 0 -2.56702 -0.587918 -0.210802 
475 4.80453 4.05407 3.78608 0.5 0 0 0 0.939227 -0.0504926 -0.155908 
480 3.58954 3.80888 4.79313 0.5 0 0 0 1.28058 -1.32196 0.955181 
481 4.13979 3.02607 4.9578 0.5 0 0 0 -0.26808 -1.47014 2.14221 
482 3.77862 3.59843 4.00779 0.5 0 0 0 0.420589 -0.998479 -1.09691 
483 4.40531 4.8875 4.1061 0.5 0 0 0 0.262938 0.500325 -1.75137 
484 3.17256 4.00241 3.96809 0.5 0 0 0 -0.446816 -1.44893 -1.51105 
485 3.66543 3.93622 4.40885 0.5 0 0 0 1.30954 -0.835918 -0.600748 
486 4.72061 4.70311 4.34975 0.5 0 0 0 -0.0981539 -0.898987 -1.36608 
487 3.27989 3.12527 4.27902 0.5 0 0 0 -0.664677 -1.98174 -0.831723 
488 4.67013 3.1766 4.66623 0.5 0 0 0 0.0222293 0.0685348 0.971135 
489 3.35018 4.83714 5.08974 0.5 0 0 0 -0.173598 3.0901 3.98325 
490 3.58041 3.44621 4.24508 0.5 0 0 0 -0.036378 -1.73951 -0.884292 
491 3.7132 4.11091 4.82949 0.5 0 0 0 2.05129 -0.117067 1.33686 
492 2.664 3.19062 4.79125 0.5 0 0 0 -1.28699 -2.59092 0.922992 
493 4.51495 3.66926 4.72374 0.5 0 0 0 1.1857 0.523198 0.678108 
494 3.42614 3.64514 5.12505 0.5 0 0 0 0.777612 -2.09046 3.3119 
495 2.68329 4.06724 4.41671 0.5 0 0 0 -1.05369 -0.908348 -1.1586 
496 2.62237 3.80935 4.95757 0.5 0 0 0 -1.37828 -1.77668 1.45778 
497 3.38169 4.37698 3.9444 0.5 0 0 0 0.4467 -0.250727 -1.31597 
357 3.44984 2.49539 4.63855 0.5 0 0 0 -0.880722 -1.29873 0.135077 
499 3.95607 2.50645 4.05608 0.5 0 0 0 -1.53375 -0.749088 0.251143 
500 4.65467 4.93223 4.974 0.5 0 0 0 -0.724989 -0.119524 1.69263 
501 4.62616 4.8156 4.90395 0.5 0 0 0 -0.2835 -0.293768 1.29257 
502 2.68186 3.97566 4.77886 0.5 0 0 0 -0.998815 -1.16843 0.287557 
503 2.93974 4.25916 4.55901 0.5 0 0 0 -0.375552 -0.128577 -0.685878 
504 3.55114 3.30535 4.291 0.5 0 0 0 -0.234661 -1.87473 -0.698591 
505 3.69577 4.82261 4.28552 0.5 0 0 0 1.41999 1.77433 -0.194307 
506 4.09437 4.02174 3.97423 0.5 0 0 0 1.82426 0.0294088 -0.947207 
507 4.9127 2.81898 3.94309 0.5 0 0 0 0.483165 0.989968 0.5572 
508 2.87514 3.9281 4.68635 0.5 0 0 0 -0.391669 -1.40764 -0.26939 
509 3.30514 4.75552 4.40391 0.5 0 0 0 0.178814 1.78577 -0.100178 
510 3.08449 4.49513 4.06086 0.5 0 0 0 -0.595984 0.201667 -1.22199 
511 2.64437 3.03164 4.50455 0.5 0 0 0 -1.02992 -2.20819 -0.126224 
512 2.66599 2.82479 4.36837 0.5 0 0 0 -0.847004 -1.88591 -0.442521 
513 4.86974 3.02688 4.29851 0.5 0 0 0 0.304262 1.03355 0.591005 
ITEM: TIMESTEP
60075
ITEM: NUMBER OF ATOMS
512
ITEM: BOX BOUNDS ss ss ss
-2.1589663964569298e-02 5.0933846546203574e+00
-1.7364439631764822e-01 5.0865807164741392e+00
-1.8176655292622759e-01 5.1255068607205727e+00
ITEM: ATOMS id x y z width_SPH x_COM y_COM z_COM vx vy vz 
2 0.301052 0.77593 0.246861 0.5 0 0 0 -1.37909 -0.579438 0.0688896 
3 0.259422 1.291 0.605723 0.5 0 0 0 -2.08424 -0.964595 0.287801 
4 0.787477 1.24764 1.03677 0.5 0 0 0 -0.386202 -0.340096 0.749156 
5 1.73539 1.8934 0.82394 0.5 0 0 0 0.958444 0.352066 0.221155 
6 0.274182 2.07867 0.84854 0.5 0 0 0 -2.11836 0.860396 1.16646 
7 0.546651 1.58453 0.342542 0.5 0 0 0 -0.688614 -0.372028 -0.682017 
8 1.33606 0.225893 0.773372 0.5 0 0 0 0.0500214 -0.685393 1.18402 
9 1.53469 0.986433 0.331373 0.5 0 0 0 0.773974 0.260641 -0.747351 
10 1.11159 1.53603 -0.0685749 0.5 0 0 0 0.983763 -0.388471 -2.84955 
11 1.39605 1.22774 0.796171 0.5 0 0 0 0.782211 0.130002 0.282667 
38 1.08307 2.32881 0.776655 0.5 0 0 0 0.51676 0.421732 0.862918 
41 2.23084 2.37931 1.0229 0.5 0 0 0 0.351337 -0.202256 0.556539 
14 1.2605 2.06321 0.329268 0.5 0 0 0 1.32253 0.117801 -0.380229 
15 1.54695 0.039465 0.976138 0.5 0 0 0 1.23301 -1.50684 2.12366 
37 0.636895 0.390261 0.353986 0.5 0 0 0 -1.47714 -0.586496 0.379773 
17 1.08138 0.11943 0.51972 0.5 0 0 0 -1.2966 -0.687331 0.538453 
18 1.50826 -0.0164949 0.0458892 0.5 0 0 0 0.0210136 -0.949593 -1.15208 
40 1.99514 0.669573 0.60447 0.5 0 0 0 1.39249 -0.198029 0.904805 
20 0.369807 1.75927 1.0479 0.5 0 0 0 -1.73126 0.35001 1.28558 
21 1.87801 1.79469 0.745542 0.5 0 0 0 1.08062 0.226328 -0.00308102 
22 0.552782 2.4223 0.409943 0.5 0 0 0 -0.558227 0.212975 0.657492 
39 0.791152 1.5785 0.810203 0.5 0 0 0 0.14069 0.227587 0.408936 
24 0.00338952 0.59828 0.0816939 0.5 0 0 0 -2.72775 -0.779823 -0.133648 
25 1.95437 0.260595 0.581891 0.5 0 0 0 1.68392 -0.755055 1.36418 
26 1.35582 0.89095 0.584786 0.5 0 0 0 0.399518 0.0192883 -0.00984836 
27 0.864671 1.81411 0.900158 0.5 0 0 0 0.377381 0.670861 0.691789 
28 2.15664 0.95975 0.359457 0.5 0 0 0 0.883472 0.501502 -0.22998 
29 2.42448 1.35996 0.2694 0.5 0 0 0 0.107994 1.01768 -1.19041 
30 1.3992 0.242425 0.884072 0.5 0 0 0 0.488732 -0.821758 1.45695 
31 1.65838 1.51848 0.685685 0.5 0 0 0 1.20226 0.362112 0.0102355 
32 1.30154 2.09592 0.250951 0.5 0 0 0 1.47625 0.00634103 -0.70887 
33 1.46277 1.14326 0.72176 0.5 0 0 0 0.856715 0.0700999 0.1998 
34 0.622252 2.08924 -0.0271386 0.5 0 0 0 -0.447956 -0.575336 -2.02292 
35 1.77117 0.0448019 -0.128835 0.5 0 0 0 1.1761 -0.864456 -2.25435 
36 0.968307 0.88323 0.078606 0.5 0 0 0 0.0956269 0.032806 -1.47959 
144 0.0211789 2.45506 0.114564 0.5 0 0 0 -3.16802 -0.780083 -1.09891 
43 1.54525 0.0677116 1.95233 0.5 0 0 0 1.54675 -2.05883 2.27926 
44 1.36473 2.35713 1.90941 0.5 0 0 0 0.773243 -0.348004 0.538728 
45 1.33381 1.11988 1.48553 0.5 0 0 0 0.476499 -0.198926 1.55748 
46 1.38772 2.23671 2.32626 0.5 0 0 0 0.773039 -0.849662 1.17322 
47 1.3959 1.26087 1.91898 0.5 0 0 0 -0.0998184 -0.503565 2.36779 
48 1.18006 0.812489 1.47867 0.5 0 0 0 0.169885 -0.426942 1.76226 
49 2.47935 2.34211 1.69818 0.5 0 0 0 0.55798 -0.17329 1.19151 
50 0.891242 0.608877 1.67021 0.5 0 0 0 -1.07933 -0.542135 2.51077 
51 1.96893 0.939578 1.80625 0.5 0 0 0 0.474632 -1.09679 1.64681 
52 0.671603 1.64139 1.33341 0.5 0 0 0 -0.669135 0.0976689 1.61556 
53 2.1247 1.44177 1.71792 0.5 0 0 0 0.456153 0.123573 0.952351 
54 0.390173 0.0429087 2.20343 0.5 0 0 0 -1.55323 -1.25153 0.558088 
55 1.73185 1.84185 1.70753 0.5 0 0 0 0.650469 0.164857 0.906639 
16 2.25737 2.0163 1.17871 0.5 0 0 0 0.457606 -0.071936 0.552921 
57 2.38803 1.07706 1.62869 0.5 0 0 0 0.472575 -0.693366 0.755451 
58 1.78529 0.149178 2.23912 0.5 0 0 0 1.03264 -2.02259 2.71623 
59 1.24236 0.582598 2.37882 0.5 0 0 0 0.260678 -0.27228 3.9212 
60 0.669143 1.69642 1.57454 0.5 0 0 0 -0.979911 -0.22189 2.09601 
61 1.33413 0.300389 1.71434 0.5 0 0 0 0.887285 -1.21197 2.26356 
78 1.05745 1.89882 1.61754 0.5 0 0 0 0.147236 0.000517746 1.1613 
63 2.01584 1.57785 2.03483 0.5 0 0 0 0.300739 -0.0542102 1.40506 
64 0.517032 0.357621 2.3791 0.5 0 0 0 -0.565233 0.530414 2.62115 
65 1.06184 1.77543 2.19875 0.5 0 0 0 -0.468611 -1.40525 2.12129 
66 2.34198 0.861933 2.01784 0.5 0 0 0 0.0264692 -1.35145 1.67449 
67 1.10297 0.68853 2.0263 0.5 0 0 0 -0.327826 -0.221809 3.45701 
68 2.05806 1.47708 1.72368 0.5 0 0 0 0.44383 0.165805 1.00097 
69 1.40306 0.74294 2.26945 0.5 0 0 0 -0.0126731 -0.601914 3.56689 
77 0.387378 1.54418 1.42857 0.5 0 0 0 -2.22888 -0.47741 2.42524 
71 0.737591 0.532098 1.43849 0.5 0 0 0 -1.94543 -0.911194 1.66719 
72 1.00639 2.24106 2.44179 0.5 0 0 0 0.00217476 -1.25801 1.46168 
73 2.05738 1.03318 1.69109 0.5 0 0 0 0.568009 -0.88278 1.23016 
74 2.23184 1.0152 2.36175 0.5 0 0 0 -0.384274 -1.45763 2.519 
75 0.0297532 2.31119 2.22174 0.5 0 0 0 -2.353 -1.61489 0.705434 
76 0.971332 1.10814 1.45357 0.5 0 0 0 -0.382563 -0.281264 1.8109 
12 1.34529 1.51116 1.24546 0.5 0 0 0 0.683693 0.3773 0.874131 
13 1.86622 1.32627 1.2581 0.5 0 0 0 0.996956 -0.0560769 0.662341 
312 2.49224 -0.0785666 1.66923 0.5 0 0 0 -0.146781 -2.94585 1.29963 
42 1.22906 0.726337 1.23556 0.5 0 0 0 0.353161 -0.502417 1.1591 
79 1.43519 2.24236 3.26307 0.5 0 0 0 0.0223917 -2.28924 1.21433 
80 0.722447 0.183727 2.71179 0.5 0 0 0 1.47957 0.523525 2.97286 
81 1.07278 0.414992 2.90583 0.5 0 0 0 1.62679 0.318586 4.42157 
82 1.30862 1.94322 2.75297 0.5 0 0 0 -0.307575 -2.04009 1.90995 
83 1.70365 2.04277 2.87995 0.5 0 0 0 0.281023 -1.52926 1.51925 
84 1.24768 0.840065 3.71743 0.5 0 0 0 1.33458 -3.77935 4.56242 
85 2.02471 1.84018 2.82635 0.5 0 0 0 0.380601 -1.35914 1.64397 
106 1.36418 1.31961 2.6111 0.5 0 0 0 -0.889957 -2.18666 3.25916 
87 0.89879 2.29173 3.34265 0.5 0 0 0 -0.293873 -2.93001 0.785237 
88 1.94611 1.38118 2.97944 0.5 0 0 0 -0.745004 -2.926 2.85473 
89 1.47552 0.236493 3.78197 0.5 0 0 0 0.219531 1.79093 4.58091 
100 0.580243 2.16469 2.54008 0.5 0 0 0 -0.486508 -1.9882 1.75432 
91 1.72848 1.44582 2.74129 0.5 0 0 0 -0.619491 -2.43803 2.67719 
92 0.12776 2.09688 2.83731 0.5 0 0 0 -1.29449 -2.82359 1.55047 
93 0.715291 0.310078 2.79203 0.5 0 0 0 1.35813 0.930399 3.27142 
94 1.45135 1.943 2.62582 0.5 0 0 0 0.0977366 -1.59535 1.72396 
95 2.18938 2.14758 3.16347 0.5 0 0 0 0.868213 -1.23575 1.36447 
96 0.949786 1.87737 2.59395 0.5 0 0 0 -0.66137 -2.26213 2.27298 
97 1.79654 0.470838 3.60671 0.5 0 0 0 -2.34248 -1.28797 5.27486 
98 0.273035 1.57182 2.88925 0.5 0 0 0 -0.47255 -2.6955 1.99007 
99 2.15148 1.76571 3.33726 0.5 0 0 0 -0.0623892 -2.43022 1.9413 
105 0.748322 0.114096 3.13353 0.5 0 0 0 2.42386 0.8058 3.07569 
186 0.405521 2.44493 2.60323 0.5 0 0 0 -0.466301 -1.47818 1.2044 
102 1.84309 1.71235 3.01667 0.5 0 0 0 -0.358364 -2.45638 2.17463 
103 0.4286 1.03809 3.21401 0.5 0 0 0 1.28689 -1.21714 2.32734 
231 1.26226 2.35113 3.50859 0.5 0 0 0 0.166528 -2.63997 0.961261 
62 2.18333 1.76447 2.56416 0.5 0 0 0 0.450494 -0.647159 1.47222 
131 1.85476 1.65836 3.77352 0.5 0 0 0 -0.993856 -4.30594 2.03109 
56 2.44013 0.522565 2.48153 0.5 0 0 0 -0.939935 -1.83346 2.60188 
107 1.79922 0.179209 4.53983 0.5 0 0 0 -2.45771 2.41493 -3.09014 
108 1.07476 1.50087 4.4532 0.5 0 0 0 2.22967 -3.92917 -0.410824 
109 1.80418 0.539853 4.27431 0.5 0 0 0 -4.08277 -0.270225 -1.06202 
110 1.90994 0.686698 4.17966 0.5 0 0 0 -4.68604 -2.33675 0.5353 
139 1.01003 0.534248 4.84209 0.5 0 0 0 4.18314 -0.557651 -2.80637 
112 1.75815 0.697993 4.66539 0.5 0 0 0 -1.94878 -1.78475 -4.66945 
113 1.92754 1.25301 4.43647 0.5 0 0 0 -2.16215 -4.8758 -0.595463 
114 0.873035 0.925221 4.4801 0.5 0 0 0 4.96977 -2.01794 -2.1931 
115 1.84018 0.570502 4.46818 0.5 0 0 0 -3.72922 -0.563747 -3.38016 
116 0.780092 0.159627 4.30329 0.5 0 0 0 4.86657 0.454626 -1.14686 
117 0.976252 0.936253 4.21247 0.5 0 0 0 4.8889 -3.28001 -0.842544 
138 0.027368 1.19266 4.38545 0.5 0 0 0 0.033322 -1.92596 0.369972 
119 0.767848 1.80935 4.39848 0.5 0 0 0 1.55603 -2.82255 0.538744 
120 1.48919 0.684098 4.13283 0.5 0 0 0 0.291263 -2.81501 1.22376 
121 1.88094 0.771544 3.94804 0.5 0 0 0 -3.88954 -3.60984 3.38562 
122 0.203662 -0.136036 4.0761 0.5 0 0 0 1.17967 -1.13931 0.140698 
123 1.2201 0.0988155 4.57301 0.5 0 0 0 3.27523 1.89716 -2.9563 
124 0.694259 0.48942 4.10318 0.5 0 0 0 4.9887 -0.112461 -0.715107 
125 1.57983 0.388123 4.1862 0.5 0 0 0 -1.13351 2.13309 0.184494 
126 1.32393 0.547609 4.31046 0.5 0 0 0 3.6282 -0.260787 -2.29432 
127 1.22247 2.04541 4.70512 0.5 0 0 0 0.529038 -2.49872 0.738639 
128 1.13277 0.893294 4.24917 0.5 0 0 0 4.63074 -3.84375 -1.04807 
129 0.157216 1.59081 4.15841 0.5 0 0 0 1.00248 -2.69925 -0.130435 
130 0.546463 0.828473 4.34958 0.5 0 0 0 3.60258 -1.03145 -1.40419 
137 0.139753 2.14501 3.86316 0.5 0 0 0 -0.174198 -3.34813 -0.349374 
132 2.24816 1.87937 3.83285 0.5 0 0 0 -0.369885 -2.65502 1.08218 
133 1.3657 0.564182 4.27384 0.5 0 0 0 2.91034 -0.547932 -1.67052 
134 1.70918 2.16353 4.92569 0.5 0 0 0 -0.345908 -2.30069 0.356026 
135 2.26417 0.167798 4.66813 0.5 0 0 0 -2.70219 -0.457271 -0.977834 
136 1.59585 1.61778 4.25902 0.5 0 0 0 -0.174864 -5.05036 0.598182 
86 1.99542 1.44374 3.89323 0.5 0 0 0 -1.58171 -4.76336 2.01589 
252 1.97124 2.33459 4.62375 0.5 0 0 0 -0.380372 -2.50456 -0.187759 
372 2.44553 0.703618 4.33782 0.5 0 0 0 -4.58134 -1.31111 -0.490215 
111 1.47988 2.39441 3.94323 0.5 0 0 0 0.573408 -2.60422 1.12593 
90 1.33534 1.25017 3.83519 0.5 0 0 0 0.0442731 -5.92766 2.69792 
104 1.86756 1.04358 3.82198 0.5 0 0 0 -2.65218 -5.30321 3.6283 
118 2.50959 1.67309 4.55116 0.5 0 0 0 -2.00897 -2.35959 -0.414603 
101 1.6383 0.949568 3.8076 0.5 0 0 0 -1.76171 -5.38766 4.47976 
140 2.46899 2.49534 0.521338 0.5 0 0 0 -0.128894 -0.497098 0.0925429 
141 0.969147 3.25075 0.881218 0.5 0 0 0 -0.687588 -0.0542448 0.763193 
142 1.05819 3.61895 0.280842 0.5 0 0 0 0.0762391 0.567408 -0.305178 
143 0.613285 3.01274 0.597921 0.5 0 0 0 -0.779417 -0.0736959 1.18851 
167 1.3425 2.79902 0.683512 0.5 0 0 0 0.862554 -0.285227 0.459316 
168 1.60813 2.59703 0.915718 0.5 0 0 0 0.694575 -0.0649782 0.373866 
146 1.06776 3.21913 0.367264 0.5 0 0 0 0.564965 -0.407099 0.1375 
147 0.573221 4.49282 0.517006 0.5 0 0 0 1.15783 -0.17148 0.303691 
148 1.97432 3.78988 0.433877 0.5 0 0 0 0.683024 -0.36895 -0.379255 
149 0.68385 3.59682 0.0907857 0.5 0 0 0 -0.319986 1.05818 -0.717005 
150 1.89594 4.42723 0.806374 0.5 0 0 0 -0.262429 0.0303631 0.357123 
151 0.0449833 3.44437 0.106179 0.5 0 0 0 -1.64519 0.617791 -0.0464269 
152 1.35725 3.63101 1.14385 0.5 0 0 0 0.113072 -0.00936248 0.199523 
153 2.20121 4.40131 0.258864 0.5 0 0 0 -0.252392 -0.13362 -0.978046 
154 2.3391 4.58275 0.684235 0.5 0 0 0 -0.384986 -0.355657 0.255408 
155 1.29543 3.739 0.711873 0.5 0 0 0 -0.056297 0.395996 0.295773 
156 0.44886 4.37762 1.0583 0.5 0 0 0 -0.637628 -0.993192 1.12877 
157 2.28879 2.65211 1.12402 0.5 0 0 0 0.333574 -0.230732 0.723472 
158 1.97602 4.15403 0.975273 0.5 0 0 0 0.404536 -0.540364 0.510225 
159 1.30201 3.80288 0.707776 0.5 0 0 0 -0.132013 0.516254 0.258987 
160 2.25977 2.64392 -0.0733068 0.5 0 0 0 -0.478467 -0.501388 -2.67292 
23 0.962136 2.54199 0.248238 0.5 0 0 0 0.775223 -0.195277 -0.0476549 
162 1.69244 3.28375 0.688213 0.5 0 0 0 1.10811 -0.411998 0.186943 
163 0.0413299 4.44313 0.0101742 0.5 0 0 0 0.227724 -0.442891 -0.609375 
164 2.14711 2.84689 0.191506 0.5 0 0 0 -0.0991973 -0.12153 -1.10238 
165 0.0909412 3.27534 0.313762 0.5 0 0 0 -1.79329 0.168286 0.889068 
166 2.19765 3.29178 0.984016 0.5 0 0 0 0.426606 -0.0728536 0.437571 
169 0.463444 3.13038 2.39827 0.5 0 0 0 -0.761601 0.716131 0.0717208 
170 1.91535 3.15614 2.11444 0.5 0 0 0 0.849966 -0.609223 0.276129 
171 0.0731177 4.12223 2.28627 0.5 0 0 0 -2.32456 -0.63897 -1.31681 
172 1.10385 2.49108 1.83479 0.5 0 0 0 0.11369 -0.089817 0.287159 
173 1.82174 3.36307 1.88121 0.5 0 0 0 0.624442 -0.353015 -0.192775 
174 1.26915 2.64237 1.45142 0.5 0 0 0 0.152423 0.0685864 0.0522631 
175 1.5165 4.31087 1.98113 0.5 0 0 0 0.608821 -0.492242 -0.249122 
176 1.55215 2.54248 1.97066 0.5 0 0 0 1.0777 -0.388561 0.455861 
177 -0.000877409 2.86161 2.38797 0.5 0 0 0 -2.34365 0.446011 0.184789 
178 1.44946 3.12326 1.43829 0.5 0 0 0 0.262648 -0.115135 -0.0446886 
179 2.14587 3.06959 2.45799 0.5 0 0 0 1.21842 -1.04108 0.798676 
180 1.15672 3.75587 1.50516 0.5 0 0 0 -0.819928 -0.0253841 -0.175289 
181 1.90675 4.8254 1.69836 0.5 0 0 0 -0.110059 0.569132 -0.338458 
182 1.13561 4.0265 1.86655 0.5 0 0 0 -0.897711 -0.269056 -0.176347 
183 1.54777 4.578 2.2453 0.5 0 0 0 0.40783 -0.184499 0.381965 
184 0.375304 2.61523 1.7266 0.5 0 0 0 -1.25191 0.288651 -0.281842 
185 1.31385 4.74035 2.28151 0.5 0 0 0 -0.397735 0.234656 0.573711 
204 1.32469 2.72488 2.02243 0.5 0 0 0 0.411316 -0.151416 0.337916 
187 1.38995 2.5981 2.25108 0.5 0 0 0 0.72913 -0.475113 0.785688 
188 1.50496 3.99843 2.40065 0.5 0 0 0 0.211199 -0.474666 0.650939 
189 1.72033 3.51606 2.26762 0.5 0 0 0 0.268679 -0.402685 0.325114 
202 0.972518 3.69504 1.79271 0.5 0 0 0 -1.44561 -0.0254675 -0.100541 
191 2.16537 2.98689 2.46313 0.5 0 0 0 1.3192 -1.07883 0.829753 
192 1.88901 3.66891 2.05625 0.5 0 0 0 0.648518 -0.477142 -0.120446 
193 0.891341 3.87886 2.4315 0.5 0 0 0 -1.18044 -0.0753226 0.529371 
194 0.584982 3.06104 2.15149 0.5 0 0 0 -0.56162 0.719588 -0.13137 
195 1.99794 2.84629 1.96781 0.5 0 0 0 1.27015 -0.681282 0.435293 
196 1.34713 4.40977 1.55938 0.5 0 0 0 -0.112871 0.028805 -0.882846 
190 1.78495 4.93382 1.1726 0.5 0 0 0 -1.13941 1.85131 -0.304654 
198 0.864704 4.5435 2.00967 0.5 0 0 0 -2.11468 0.135881 -0.143083 
199 1.34387 3.07488 2.36976 0.5 0 0 0 -0.0318106 -0.265275 0.531327 
200 2.34843 5.0293 2.31953 0.5 0 0 0 -0.796859 1.59987 0.324366 
201 0.447624 2.72568 2.13465 0.5 0 0 0 -0.558383 0.0893321 0.113437 
70 0.869077 2.53772 2.15017 0.5 0 0 0 -0.00745874 -0.379541 0.682912 
145 2.08491 2.5666 1.35062 0.5 0 0 0 0.613468 -0.220205 0.593894 
161 0.3042 3.15922 1.21597 0.5 0 0 0 -2.20405 0.586597 0.685943 
205 1.20045 3.53231 3.03398 0.5 0 0 0 0.0678487 -0.334038 0.264394 
206 1.96354 4.32896 3.0356 0.5 0 0 0 -0.11026 -0.374478 0.795661 
207 0.125245 4.09144 3.71369 0.5 0 0 0 -0.808862 -0.464176 0.10916 
208 0.843593 2.50922 3.69925 0.5 0 0 0 0.234162 -2.55689 0.728862 
209 1.51897 3.92171 3.16326 0.5 0 0 0 0.196405 -0.117598 0.840575 
210 1.84193 3.57401 3.51447 0.5 0 0 0 0.186006 -0.797574 0.527483 
211 1.88266 3.75203 2.61169 0.5 0 0 0 0.452279 -0.560285 0.722414 
212 1.26728 4.95011 2.96345 0.5 0 0 0 -0.263375 0.344913 0.888332 
213 2.05997 3.14167 2.58517 0.5 0 0 0 0.926558 -0.952214 0.886771 
214 1.24451 3.2732 3.65915 0.5 0 0 0 0.794246 -0.803022 0.93248 
215 0.723579 3.1322 3.31571 0.5 0 0 0 -0.405252 -0.703731 -0.116951 
216 0.445423 3.1858 3.33118 0.5 0 0 0 -1.08575 -0.462285 -0.477943 
217 2.47751 2.71684 2.75587 0.5 0 0 0 1.39725 -1.20606 0.862046 
218 2.38559 5.03044 3.71336 0.5 0 0 0 -0.964579 1.53895 0.410934 
219 1.09024 2.61489 3.18493 0.5 0 0 0 0.202241 -1.69428 0.472059 
220 2.3237 4.8339 2.9577 0.5 0 0 0 -0.617997 0.361524 0.828746 
221 1.05556 3.48504 3.60298 0.5 0 0 0 0.438427 -0.23316 0.80524 
222 2.43948 3.20193 3.0653 0.5 0 0 0 0.899351 -1.47817 0.585503 
223 1.90845 2.5835 3.33421 0.5 0 0 0 1.00387 -1.39155 0.908046 
224 0.518839 4.9229 3.11834 0.5 0 0 0 -0.680209 1.04937 -0.188452 
225 0.511126 3.84252 3.64451 0.5 0 0 0 -0.152869 0.0961283 0.347043 
226 0.947696 4.03003 2.86602 0.5 0 0 0 -0.664849 0.111336 0.686456 
227 1.10353 3.04116 3.11188 0.5 0 0 0 0.291874 -0.946501 0.135923 
228 0.260906 4.35829 2.60106 0.5 0 0 0 -1.13166 -0.263855 -0.406397 
229 0.262291 4.30495 3.51799 0.5 0 0 0 -0.219792 -0.166079 -0.264811 
230 1.60814 2.91279 3.13403 0.5 0 0 0 0.859892 -1.11713 0.63779 
234 1.25336 3.65657 3.14788 0.5 0 0 0 0.170559 -0.177684 0.462569 
232 2.45705 3.29093 3.07977 0.5 0 0 0 0.789062 -1.45296 0.514946 
233 1.25657 4.7676 3.4016 0.5 0 0 0 0.262788 -0.270155 0.631692 
472 2.51544 4.84304 2.81897 0.5 0 0 0 -0.522585 0.376587 0.860385 
251 1.85862 2.53245 3.78308 0.5 0 0 0 0.796266 -1.97058 0.861838 
452 2.41993 3.93783 3.55702 0.5 0 0 0 -0.618535 -0.767711 -0.227188 
254 1.67058 4.93834 3.76207 0.5 0 0 0 -0.108461 -0.00656579 -0.126827 
197 1.56003 4.63702 2.47551 0.5 0 0 0 0.194491 -0.0431967 0.939146 
235 1.25867 4.88885 4.11646 0.5 0 0 0 -0.0651457 -0.422479 -0.499982 
236 2.01962 3.92686 3.99277 0.5 0 0 0 -1.36738 -0.449678 -0.153234 
237 0.594826 2.54954 3.92612 0.5 0 0 0 0.437815 -2.27652 0.911884 
238 0.923659 4.77169 4.37611 0.5 0 0 0 0.149997 -0.396477 -0.108922 
239 0.871883 3.75292 3.98213 0.5 0 0 0 0.547446 0.0328731 1.33276 
240 2.06137 4.57361 4.57908 0.5 0 0 0 -2.31818 1.31104 0.100605 
241 2.18402 4.38619 4.75143 0.5 0 0 0 -2.57567 0.696943 0.680944 
242 0.0972859 3.19401 4.41599 0.5 0 0 0 0.712128 -0.0226717 0.530364 
243 -0.0210837 2.72651 4.80957 0.5 0 0 0 0.478531 -2.54413 1.85153 
244 0.523825 4.91629 4.8473 0.5 0 0 0 -0.892515 0.136738 1.01526 
245 1.52926 3.07 4.95431 0.5 0 0 0 -1.28625 -1.12749 1.45292 
246 1.24538 3.71928 4.4173 0.5 0 0 0 -0.181749 -0.942118 1.0363 
247 2.42627 3.3571 3.82754 0.5 0 0 0 -0.0792558 -1.8032 -0.263721 
248 1.72735 2.67638 4.86735 0.5 0 0 0 -0.71701 -1.99975 0.514668 
249 1.67259 3.00146 4.12672 0.5 0 0 0 0.268933 -1.74655 0.717805 
250 1.29947 2.62045 3.9529 0.5 0 0 0 0.753679 -2.08423 1.28432 
259 0.587316 2.82169 3.88904 0.5 0 0 0 0.414878 -1.32136 0.940602 
258 0.0372897 2.95954 4.02069 0.5 0 0 0 -0.312586 -0.790842 -0.239193 
253 0.163212 2.67725 3.94064 0.5 0 0 0 -0.22265 -1.89757 0.00970557 
498 2.4724 3.56392 4.29257 0.5 0 0 0 -1.20932 -2.02093 -0.680325 
255 0.213927 3.66474 4.84727 0.5 0 0 0 0.696206 0.259898 1.04145 
256 2.32355 4.09435 4.60624 0.5 0 0 0 -2.25462 -0.685978 -0.152662 
257 1.27312 4.24124 4.86157 0.5 0 0 0 -0.926692 -1.02027 1.4444 
260 4.00548 -0.157007 0.919833 0.5 0 0 0 -0.22418 -2.77518 0.556822 
261 3.19554 2.28939 1.12981 0.5 0 0 0 -0.766219 0.0920756 1.34736 
262 4.78768 2.0216 0.404285 0.5 0 0 0 1.76551 0.433134 -1.08033 
263 4.8635 0.62683 0.989599 0.5 0 0 0 1.1393 -1.77779 0.856513 
264 3.25883 0.915983 0.201981 0.5 0 0 0 -0.773142 0.954938 -0.970717 
265 4.90556 1.41686 1.11293 0.5 0 0 0 1.84973 0.293373 1.42054 
266 4.83437 0.647195 -0.0129601 0.5 0 0 0 0.867672 -0.263051 -3.22847 
267 3.45727 1.79731 0.886211 0.5 0 0 0 -1.61329 -0.356143 0.38065 
268 2.89322 0.522861 0.844921 0.5 0 0 0 -0.153666 -0.39753 1.69452 
269 3.96981 1.81192 0.224032 0.5 0 0 0 -1.04666 -0.483313 -2.25321 
270 3.93632 1.90246 1.01937 0.5 0 0 0 -0.967607 0.53213 1.32233 
293 3.02089 2.402 0.572197 0.5 0 0 0 -0.796676 -0.433141 0.208535 
272 4.42309 1.79277 0.741692 0.5 0 0 0 0.0471767 0.71868 0.202814 
273 4.85215 1.36362 0.800133 0.5 0 0 0 1.45523 -0.322757 -0.105138 
274 2.68345 0.714078 0.824482 0.5 0 0 0 0.23121 -0.0904063 1.49868 
275 2.53787 2.34774 0.0564297 0.5 0 0 0 -0.496725 -1.07384 -2.058 
276 5.08108 0.0669032 0.78781 0.5 0 0 0 1.14241 -1.66539 0.654439 
294 3.1399 0.0914731 0.349252 0.5 0 0 0 0.150569 -2.31535 -0.195698 
278 3.60826 1.88445 0.935534 0.5 0 0 0 -1.47448 -0.0204978 0.739703 
279 3.71217 0.457454 0.171534 0.5 0 0 0 0.354219 -1.32186 -1.49382 
295 2.73142 1.13215 0.898672 0.5 0 0 0 -0.15963 0.170651 0.868971 
281 3.0564 0.151186 0.970886 0.5 0 0 0 -0.451393 -1.93749 1.7753 
282 3.87439 1.69556 1.09784 0.5 0 0 0 -1.31066 0.0497529 1.41494 
283 3.80612 2.33926 -0.181314 0.5 0 0 0 -1.10117 -0.928783 -3.77619 
284 4.16863 2.09977 0.500955 0.5 0 0 0 -0.298027 0.731168 -0.333545 
285 3.41144 2.33265 0.439943 0.5 0 0 0 -1.11912 -0.145077 -0.370677 
286 3.72182 0.963261 0.427493 0.5 0 0 0 -1.13996 -0.231009 -0.451667 
287 4.34117 1.0384 0.421507 0.5 0 0 0 -0.48683 -1.23536 -1.49494 
288 4.07943 1.6191 1.03377 0.5 0 0 0 -1.10323 0.123605 1.24626 
289 4.36668 1.05292 0.596486 0.5 0 0 0 -0.63707 -1.32404 -0.787467 
290 3.33102 0.992296 0.623111 0.5 0 0 0 -1.22165 0.311904 0.681999 
291 2.90505 1.00381 0.0831232 0.5 0 0 0 -0.432336 1.52777 -1.78154 
297 3.16279 0.422631 1.81526 0.5 0 0 0 -1.29623 -1.55317 0.77715 
298 3.83872 2.08748 2.17162 0.5 0 0 0 -1.14475 -0.142811 1.04436 
299 3.06608 0.732186 2.23275 0.5 0 0 0 -0.806992 -0.563658 1.53061 
323 3.16957 1.7184 1.5588 0.5 0 0 0 -0.673967 -0.158873 1.1561 
301 3.32708 1.70196 2.15389 0.5 0 0 0 -0.572184 0.0773913 1.27867 
302 3.70477 0.970471 1.808 0.5 0 0 0 -0.87257 0.195367 1.52372 
303 3.80395 0.847812 1.94422 0.5 0 0 0 -0.641811 0.039182 1.64925 
292 4.33292 1.2853 1.24701 0.5 0 0 0 -0.639626 -0.249339 1.77507 
305 4.06195 1.45734 1.37119 0.5 0 0 0 -1.02086 0.152791 2.08141 
306 4.61122 1.24738 1.92467 0.5 0 0 0 0.787588 -0.0452691 1.5552 
307 4.02805 0.00288761 2.16168 0.5 0 0 0 -1.98918 -2.04561 -0.125293 
308 4.72506 0.104427 2.27495 0.5 0 0 0 0.0573358 -0.247024 0.0162043 
309 3.95474 0.747125 1.9207 0.5 0 0 0 -0.468716 -0.275997 1.65554 
310 4.61076 2.32872 1.97826 0.5 0 0 0 0.484435 -0.142859 0.410058 
311 3.53785 2.25908 2.09173 0.5 0 0 0 -0.893406 0.158213 1.12884 
321 4.85074 -0.0225742 2.20582 0.5 0 0 0 0.482351 -0.650793 -0.309907 
313 2.56726 1.50595 2.20378 0.5 0 0 0 0.109438 0.00593315 1.31398 
320 2.69246 1.31431 1.87261 0.5 0 0 0 0.0635412 -0.0689643 0.908795 
315 3.26738 0.871673 1.9548 0.5 0 0 0 -0.804973 -0.121841 1.1674 
316 4.50045 1.00423 2.30412 0.5 0 0 0 0.3077 0.0216584 0.921355 
317 4.42453 1.96834 2.33396 0.5 0 0 0 -0.426087 -0.757482 0.429073 
318 3.62756 0.647094 1.42441 0.5 0 0 0 -1.29698 -0.89421 0.717551 
319 3.17122 2.16818 1.97117 0.5 0 0 0 -0.361803 0.250585 1.24399 
271 4.89447 1.59839 1.20695 0.5 0 0 0 1.99244 1.0574 1.86752 
19 2.58919 1.86325 1.17351 0.5 0 0 0 0.0130873 -0.26431 0.539877 
280 3.82516 0.808416 1.18766 0.5 0 0 0 -1.36622 -0.816521 0.795683 
300 4.20682 2.38483 1.22814 0.5 0 0 0 -0.043723 0.85002 1.8576 
296 4.29953 0.620857 1.1735 0.5 0 0 0 -0.391128 -1.69156 0.799712 
277 3.47973 2.13585 1.17681 0.5 0 0 0 -1.08768 0.311769 1.56485 
324 4.20048 1.07209 3.60418 0.5 0 0 0 -1.49447 0.447566 -0.557418 
325 3.13523 0.346646 3.34055 0.5 0 0 0 -3.1252 -1.26453 1.33756 
326 3.66738 1.47199 3.67458 0.5 0 0 0 -1.94323 -0.405508 -0.0546957 
327 4.15863 1.37271 2.56514 0.5 0 0 0 -0.87973 -0.248741 0.532216 
328 3.56053 0.746072 2.82267 0.5 0 0 0 -1.23032 0.197324 0.970849 
329 4.6547 1.85819 2.7612 0.5 0 0 0 0.287392 -1.60663 -0.422541 
330 3.3792 1.61927 3.26274 0.5 0 0 0 -1.49014 -0.393441 0.612953 
331 4.42014 1.68674 3.2659 0.5 0 0 0 -1.11422 -1.2687 -0.407846 
332 4.72993 0.335383 2.57275 0.5 0 0 0 0.295593 0.86881 -0.287265 
333 2.66867 0.745647 3.45058 0.5 0 0 0 -3.12676 -1.52278 2.19022 
334 4.39709 0.492252 3.23251 0.5 0 0 0 -0.533138 0.856176 -1.84094 
335 5.05889 2.33763 2.86349 0.5 0 0 0 3.04191 -1.00709 -0.90375 
336 4.05518 0.349998 3.25552 0.5 0 0 0 -1.75576 0.276351 -0.965792 
350 2.94785 1.6205 2.67101 0.5 0 0 0 -0.331956 -0.231899 1.44431 
338 2.75763 1.047 3.70241 0.5 0 0 0 -3.05268 -1.44822 1.35403 
339 2.70521 0.895137 2.70663 0.5 0 0 0 -1.03011 -1.15815 2.43848 
340 2.93396 1.02898 3.59674 0.5 0 0 0 -2.76055 -1.00177 1.2385 
341 4.47472 1.99478 3.43292 0.5 0 0 0 -1.11101 -1.62613 0.0347098 
342 4.92135 1.88467 3.61398 0.5 0 0 0 1.08779 -1.75783 0.254997 
343 3.24144 1.5906 2.62381 0.5 0 0 0 -0.676341 -0.187448 1.25352 
349 4.19678 -0.0384193 3.2198 0.5 0 0 0 -1.68688 -1.348 -1.61042 
345 3.47821 0.0426439 3.05536 0.5 0 0 0 -2.73629 -2.21428 0.525317 
346 3.69692 0.81252 3.53319 0.5 0 0 0 -2.44876 0.19598 0.133114 
347 2.80181 1.66491 2.63694 0.5 0 0 0 -0.102944 -0.190732 1.44761 
348 2.63913 1.65881 2.67645 0.5 0 0 0 0.040237 -0.424367 1.55991 
352 4.9476 1.25163 3.70678 0.5 0 0 0 1.53041 -0.0803873 -0.468132 
469 4.12803 2.45322 2.60915 0.5 0 0 0 -1.94921 -0.327584 -0.220406 
304 2.73536 0.148558 2.52865 0.5 0 0 0 -1.73126 -2.67686 1.93457 
384 4.55124 0.313808 3.78156 0.5 0 0 0 -1.08606 0.714383 -1.93748 
351 4.81681 0.433188 4.13216 0.5 0 0 0 0.535593 1.2844 -0.255337 
381 3.28513 1.873 4.23841 0.5 0 0 0 -1.69189 -1.05927 -1.04753 
353 3.42784 1.25796 4.13505 0.5 0 0 0 -2.41239 -0.741773 -0.231573 
354 3.93463 1.93868 4.94643 0.5 0 0 0 -0.46944 -0.731155 1.15873 
355 4.89446 2.33383 4.00751 0.5 0 0 0 0.313306 -1.36279 1.33094 
356 4.45178 -0.17318 4.7697 0.5 0 0 0 -1.86013 -2.81272 1.5855 
383 4.13177 0.484753 4.99293 0.5 0 0 0 -2.19907 0.864355 2.5645 
358 5.0929 1.5728 4.75785 0.5 0 0 0 1.28514 -0.321796 1.65877 
359 3.01962 1.92092 4.29426 0.5 0 0 0 -1.64706 -1.29437 -1.07766 
360 4.55822 0.294845 4.19704 0.5 0 0 0 -1.2076 0.680645 -0.312275 
361 5.01071 2.27454 4.16296 0.5 0 0 0 0.815267 -1.71603 1.74478 
362 4.1711 0.254776 4.2464 0.5 0 0 0 -3.31797 0.0155901 -0.205623 
363 3.91126 0.319089 4.53698 0.5 0 0 0 -4.12024 -0.229074 0.557579 
364 2.66471 1.94633 4.90104 0.5 0 0 0 -2.03345 -1.87521 0.775534 
365 3.16968 1.7958 4.59542 0.5 0 0 0 -1.63182 -1.52827 -0.42904 
366 4.61143 0.911581 4.1486 0.5 0 0 0 -0.161735 1.71025 0.501559 
367 3.81674 -0.0602688 3.84489 0.5 0 0 0 -4.3823 -2.21117 0.18936 
368 4.06428 1.84855 4.28442 0.5 0 0 0 -1.15821 -0.718771 -0.0177415 
369 3.49419 1.48241 4.35656 0.5 0 0 0 -1.88355 -0.953654 -0.468693 
370 2.82996 0.443273 4.66007 0.5 0 0 0 -3.5465 -1.08081 0.0900745 
371 4.72583 0.250743 4.64226 0.5 0 0 0 0.353954 0.645471 1.6131 
382 3.88417 0.944616 3.84084 0.5 0 0 0 -2.45399 0.362084 -0.0352393 
373 4.63288 0.300497 3.94052 0.5 0 0 0 -0.776928 0.734371 -1.37515 
374 4.534 0.486212 4.0481 0.5 0 0 0 -1.13015 1.24193 -0.778625 
375 5.03451 0.0100875 4.98315 0.5 0 0 0 3.59458 -1.1868 3.20882 
376 4.10392 1.60788 4.6828 0.5 0 0 0 -0.582535 -0.440869 0.4534 
377 4.01537 2.10371 5.10769 0.5 0 0 0 -0.110027 -0.494929 2.13374 
378 2.91758 1.64261 5.01093 0.5 0 0 0 -1.92853 -2.16824 1.57488 
379 3.53376 0.926491 5.0741 0.5 0 0 0 -2.38324 -0.425512 1.83396 
380 3.06475 2.29046 4.29764 0.5 0 0 0 -1.41918 -1.2523 -1.06817 
385 2.72742 3.16667 0.678629 0.5 0 0 0 -0.259388 0.0375726 0.4778 
386 4.46002 4.72631 0.0499655 0.5 0 0 0 0.670156 0.32922 -0.709473 
387 3.86554 3.94207 0.138868 0.5 0 0 0 0.119327 -0.411008 -0.427964 
388 4.3202 4.0172 1.07918 0.5 0 0 0 -0.817636 -0.1728 -1.10383 
389 3.81848 3.08829 0.79496 0.5 0 0 0 -0.593831 0.0886295 0.755311 
390 3.64731 4.11213 0.128383 0.5 0 0 0 0.0900812 -0.597268 0.0534286 
391 5.05324 4.33 1.0758 0.5 0 0 0 2.14311 1.08707 -1.29516 
392 4.88879 2.67893 0.295456 0.5 0 0 0 1.32117 0.365094 -0.297379 
393 4.52615 4.58374 0.677713 0.5 0 0 0 -0.0149042 1.27486 -0.991394 
394 2.76375 2.92559 1.08837 0.5 0 0 0 0.0172077 -0.151017 1.30102 
395 4.91112 2.95983 0.998613 0.5 0 0 0 1.35494 -0.497194 1.14146 
396 4.08241 3.0766 0.017499 0.5 0 0 0 -0.34391 0.450776 -1.5252 
397 5.07978 4.04744 0.825035 0.5 0 0 0 2.38235 -0.0625621 -1.63043 
398 2.92734 4.94159 0.00820616 0.5 0 0 0 -0.477164 2.03756 -1.50095 
399 3.38819 4.92149 0.588319 0.5 0 0 0 0.578008 1.09103 -0.330935 
400 3.33768 4.51273 0.419339 0.5 0 0 0 0.195505 -0.603869 0.275922 
401 3.37373 2.65717 0.0719764 0.5 0 0 0 -0.978746 -0.396999 -1.65022 
402 2.72655 3.11912 0.688012 0.5 0 0 0 -0.262856 0.00997926 0.537453 
403 4.76397 3.22273 0.18295 0.5 0 0 0 0.43127 0.481353 -1.34396 
404 4.20748 2.63553 0.142003 0.5 0 0 0 -0.164182 0.531362 -0.893855 
405 4.05946 4.87616 -0.0238906 0.5 0 0 0 0.282744 0.873197 -0.164232 
406 4.20552 3.58906 1.03062 0.5 0 0 0 -0.887314 -0.743067 -0.290773 
407 2.81353 4.2113 -0.0113414 0.5 0 0 0 -0.34672 -0.769297 -1.25046 
408 4.99351 3.11745 0.424441 0.5 0 0 0 1.24822 -0.0506709 -0.253377 
409 3.77205 3.30856 0.562627 0.5 0 0 0 -0.535866 0.0680755 0.0361661 
410 3.87007 2.62727 0.885784 0.5 0 0 0 -0.532508 0.714035 1.23153 
411 4.18382 2.65307 1.06403 0.5 0 0 0 -0.135336 0.559334 1.46054 
412 3.09159 3.18162 0.446709 0.5 0 0 0 -0.480405 0.0500185 0.0614807 
413 2.9187 3.71694 0.925147 0.5 0 0 0 -0.225706 -0.363102 0.330749 
414 2.70955 4.4843 0.643287 0.5 0 0 0 -0.10716 -0.93026 0.142364 
415 2.63879 4.93668 1.11349 0.5 0 0 0 -1.07914 0.886353 -0.319856 
417 3.08579 3.60768 0.193221 0.5 0 0 0 -0.439145 -0.300436 -0.622326 
418 4.81607 4.17572 1.6567 0.5 0 0 0 0.591372 -0.344413 0.045266 
419 2.97104 3.7773 2.20128 0.5 0 0 0 0.527096 -1.67734 0.597754 
420 4.87673 3.94972 2.41376 0.5 0 0 0 0.274811 -1.5763 0.67715 
421 4.87511 4.5704 1.80973 0.5 0 0 0 1.01149 1.67478 -0.455564 
422 4.26911 4.54909 1.75393 0.5 0 0 0 0.210657 0.978855 0.159617 
423 3.64884 4.60708 1.39653 0.5 0 0 0 0.361062 0.133728 -1.23179 
424 4.35685 3.80957 1.43823 0.5 0 0 0 -0.729116 -1.1653 0.524543 
425 2.78397 3.15329 1.33966 0.5 0 0 0 0.223649 -0.293625 1.28216 
426 3.24265 4.5535 2.11578 0.5 0 0 0 0.105255 -0.908389 1.6601 
427 3.29534 4.61705 1.65762 0.5 0 0 0 -0.18008 -0.610705 -0.144496 
428 4.92768 4.31069 2.00987 0.5 0 0 0 0.632326 -0.19917 0.0995352 
429 3.19584 4.83428 1.72876 0.5 0 0 0 -0.356609 0.283541 0.170786 
430 2.95763 4.84836 1.32105 0.5 0 0 0 -0.875926 0.354226 -0.984214 
431 3.50764 2.67592 2.37492 0.5 0 0 0 -0.874468 -0.138923 0.589053 
432 3.95776 2.50817 1.48001 0.5 0 0 0 -0.674921 0.427619 1.94283 
433 2.74246 4.3553 2.39778 0.5 0 0 0 -0.216778 -1.01729 0.873517 
434 3.13472 4.50779 1.94044 0.5 0 0 0 -0.332022 -1.0792 0.870665 
435 3.61635 4.6595 1.62656 0.5 0 0 0 0.532158 0.0850996 -0.176521 
436 3.34107 3.27576 2.05507 0.5 0 0 0 -0.141785 -0.940323 0.961105 
437 3.80655 3.9833 1.78454 0.5 0 0 0 -0.714545 -1.51616 0.940767 
438 5.00235 3.52829 1.86043 0.5 0 0 0 1.73063 -1.93259 0.236673 
439 4.48503 4.48045 2.45638 0.5 0 0 0 -0.699914 0.100512 1.4468 
440 2.64624 3.87468 2.23009 0.5 0 0 0 0.374649 -1.16785 0.247902 
441 2.92967 4.74914 2.12022 0.5 0 0 0 -0.681662 -0.00186899 1.10782 
442 3.06368 4.58908 1.3818 0.5 0 0 0 -0.70249 -0.75302 -1.0574 
443 3.87393 4.11949 1.96442 0.5 0 0 0 -0.42612 -1.3655 1.44368 
444 2.67806 4.35639 1.89243 0.5 0 0 0 -0.768881 -0.933475 -0.157714 
445 4.42925 3.75365 1.23855 0.5 0 0 0 -0.571376 -1.03443 -0.0131096 
446 4.16136 3.88013 2.29143 0.5 0 0 0 -0.97174 -1.56495 1.40253 
447 3.98413 3.8338 1.70991 0.5 0 0 0 -1.00338 -1.50685 1.0225 
448 4.54614 2.8292 2.2281 0.5 0 0 0 -0.167341 0.27291 -0.265066 
449 3.08114 3.86142 1.29596 0.5 0 0 0 -0.376895 -0.892119 0.0160057 
450 3.483 3.36566 1.39672 0.5 0 0 0 -0.55593 -0.72353 1.08937 
416 4.43939 3.86705 1.2623 0.5 0 0 0 -0.553433 -0.823802 -0.162316 
203 2.54258 2.99443 1.48495 0.5 0 0 0 0.543036 -0.349875 1.11901 
322 2.89681 2.52125 1.86351 0.5 0 0 0 0.201401 -0.0969058 1.34299 
314 4.95155 2.49957 1.43987 0.5 0 0 0 2.18018 0.0170288 0.881022 
479 2.67201 3.66332 3.67497 0.5 0 0 0 -0.20328 -1.64072 -0.627213 
453 4.81673 2.73412 3.2535 0.5 0 0 0 0.831765 0.571397 -0.423153 
454 3.9686 3.31053 2.81272 0.5 0 0 0 -1.04512 -0.0947147 0.106197 
455 2.97859 4.28331 3.66018 0.5 0 0 0 -0.726456 -0.931954 -1.02436 
456 2.78681 4.65171 3.10914 0.5 0 0 0 -0.203226 -0.442492 0.326351 
457 3.04669 4.89391 2.9408 0.5 0 0 0 0.553124 0.687024 0.706025 
458 3.38147 3.15474 2.90913 0.5 0 0 0 -0.536572 -0.877591 0.204824 
459 4.79833 4.06688 2.63942 0.5 0 0 0 -0.128169 -1.05992 1.14739 
460 4.3388 2.93317 3.14829 0.5 0 0 0 -1.28457 1.05566 -0.479578 
461 4.46961 4.44766 2.57147 0.5 0 0 0 -0.803985 -0.0313546 1.57317 
462 4.70144 4.99922 2.54256 0.5 0 0 0 0.456928 4.60246 1.38126 
463 4.41337 2.63817 2.73773 0.5 0 0 0 -1.22608 -0.00246146 -0.778237 
464 3.08229 3.82561 3.12878 0.5 0 0 0 0.298942 -1.73452 -0.110307 
465 3.57021 3.93288 3.56066 0.5 0 0 0 0.454532 -1.22718 -1.19865 
466 4.19206 2.57746 3.01757 0.5 0 0 0 -2.12584 -0.251495 -0.640426 
467 3.47468 4.43689 3.46201 0.5 0 0 0 0.871003 -0.333505 -0.872419 
468 4.83205 2.71881 2.53954 0.5 0 0 0 1.39735 0.238112 -0.96665 
344 4.18939 2.52631 3.41191 0.5 0 0 0 -2.05238 -0.494584 0.00251835 
470 4.48469 2.52909 3.64937 0.5 0 0 0 -1.05982 -0.473961 0.538371 
471 3.84038 4.76543 3.03905 0.5 0 0 0 0.428584 1.21796 0.489342 
451 2.79986 3.79808 2.49961 0.5 0 0 0 0.673075 -1.50332 0.668428 
473 2.91846 5.08611 3.74857 0.5 0 0 0 -0.149511 2.67777 0.232625 
474 4.50733 2.85757 3.6255 0.5 0 0 0 -0.710837 1.04246 0.308558 
478 3.989 2.61315 3.41298 0.5 0 0 0 -2.49921 -0.216076 -0.0580105 
476 4.67836 3.70549 3.0108 0.5 0 0 0 0.0893489 -0.00661692 0.817125 
477 2.80107 4.25511 2.5663 0.5 0 0 0 0.0882124 -1.26932 0.940684 
337 4.00853 2.47712 3.28526 0.5 0 0 0 -2.56701 -0.58792 -0.210798 
475 4.80453 4.05407 3.78608 0.5 0 0 0 0.939226 -0.0504923 -0.155909 
480 3.58954 3.80888 4.79313 0.5 0 0 0 1.28057 -1.32195 0.955176 
481 4.13979 3.02607 4.9578 0.5 0 0 0 -0.268085 -1.47014 2.1422 
482 3.77862 3.59843 4.00779 0.5 0 0 0 0.420582 -0.998474 -1.0969 
483 4.40531 4.8875 4.1061 0.5 0 0 0 0.262935 0.500324 -1.75137 
484 3.17256 4.00241 3.96809 0.5 0 0 0 -0.446813 -1.44893 -1.51104 
485 3.66543 3.93622 4.40885 0.5 0 0 0 1.30953 -0.835912 -0.600746 
486 4.72061 4.70311 4.34975 0.5 0 0 0 -0.0981487 -0.898982 -1.36607 
487 3.27989 3.12527 4.27902 0.5 0 0 0 -0.664677 -1.98173 -0.831721 
488 4.67013 3.1766 4.66623 0.5 0 0 0 0.0222223 0.0685287 0.971127 
489 3.35018 4.83714 5.08975 0.5 0 0 0 -0.173622 3.09007 3.98323 
490 3.58041 3.44621 4.24508 0.5 0 0 0 -0.036382 -1.7395 -0.884288 
491 3.7132 4.11091 4.82949 0.5 0 0 0 2.05127 -0.117063 1.33685 
492 2.664 3.19062 4.79125 0.5 0 0 0 -1.28698 -2.59092 0.922991 
493 4.51495 3.66926 4.72374 0.5 0 0 0 1.18569 0.523195 0.678101 
494 3.42614 3.64514 5.12505 0.5 0 0 0 0.777601 -2.09045 3.3119 
495 2.68329 4.06724 4.41671 0.5 0 0 0 -1.05368 -0.908343 -1.15859 
496 2.62237 3.80935 4.95757 0.5 0 0 0 -1.37827 -1.77668 1.45778 
497 3.38169 4.37698 3.9444 0.5 0 0 0 0.446699 -0.250727 -1.31596 
357 3.44984 2.49539 4.63855 0.5 0 0 0 -0.880723 -1.29873 0.135078 
499 3.95607 2.50645 4.05608 0.5 0 0 0 -1.53374 -0.749088 0.251143 
500 4.65467 4.93223 4.974 0.5 0 0 0 -0.724984 -0.119524 1.69262 
501 4.62616 4.8156 4.90395 0.5 0 0 0 -0.283499 -0.293768 1.29256 
502 2.68186 3.97566 4.77886 0.5 0 0 0 -0.998804 -1.16842 0.287557 
503 2.93974 4.25916 4.55901 0.5 0 0 0 -0.375543 -0.128572 -0.685875 
504 3.55114 3.30534 4.291 0.5 0 0 0 -0.234664 -1.87472 -0.698588 
505 3.69577 4.82261 4.28552 0.5 0 0 0 1.41997 1.77432 -0.194307 
506 4.09437 4.02174 3.97423 0.5 0 0 0 1.82425 0.0294094 -0.9472 
507 4.9127 2.81898 3.94309 0.5 0 0 0 0.483161 0.989963 0.557191 
508 2.87514 3.9281 4.68635 0.5 0 0 0 -0.39166 -1.40763 -0.269389 
509 3.30514 4.75552 4.40391 0.5 0 0 0 0.17881 1.78576 -0.100176 
510 3.08449 4.49513 4.06086 0.5 0 0 0 -0.59598 0.201667 -1.22198 
511 2.64437 3.03164 4.50455 0.5 0 0 0 -1.02992 -2.20819 -0.126226 
512 2.66599 2.82479 4.36837 0.5 0 0 0 -0.847 -1.88591 -0.442522 
513 4.86974 3.02688 4.29851 0.5 0 0 0 0.304256 1.03355 0.590995 
