ITEM: TIMESTEP
0
ITEM: NUMBER OF ATOMS
216
ITEM: BOX BOUNDS pp pp pp
0.0000000000000000e+00 1.5969212012997900e+01
0.0000000000000000e+00 1.5969212012997900e+01
0.0000000000000000e+00 1.5969212012997900e+01
ITEM: ATOMS id type fx fy fz x y z rho_SPH width_SPH omega_SPH u_SPH vx vy vz 
13 1 0.0508011408744003 0.3074442529006775 -0.1757146708129134 2.6361213437688091 2.4354808611614263 1.1889211753213957 0.0000365817752293 2.1059252681396412 0.8174222530457887 0.0000000000000000 -0.0000000000000000 -0.0000000000000000 0.0000000000000000 
31 1 0.1035640554567251 -0.0705402331891891 -0.1300832268027408 5.2029980897876653 2.2314349359550083 1.9691513635513795 0.0000325337041207 2.2240931327402471 0.9728067835708420 0.0000000000000000 -0.0000000000000000 -0.0000000000000000 0.0000000000000000 
36 1 -0.0549996862409895 0.3675137332495956 0.0795402838828398 1.8784096760113662 5.0544341163284887 4.8510119060967218 0.0000332616607417 2.0840038231378282 0.7312043221217801 0.0000000000000000 -0.0000000000000000 0.0000000000000000 0.0000000000000000 
39 1 0.1851965316943451 -0.2385815071172530 0.0333455749790750 3.1046737749230968 0.0372201614295236 4.3432495749246121 0.0000398948012673 2.0737014512616723 0.7950948534354826 0.0000000000000000 0.0000000000000000 0.0000000000000000 0.0000000000000000 
67 1 -0.1015142840640936 0.0873022187993020 -0.0536066016813947 1.2888110541140345 0.9357838815836910 2.8463526362173872 0.0000443684065975 1.9969836719628853 0.6990703360172524 0.0000000000000000 -0.0000000000000000 0.0000000000000000 -0.0000000000000000 
79 1 0.0532218212926585 0.2295010942451022 0.0017913796649185 2.3752104248063439 1.7170366405657966 3.1455585541284452 0.0000422386445326 2.0223736699081343 0.7448114495717352 0.0000000000000000 -0.0000000000000000 0.0000000000000000 0.0000000000000000 
96 1 -0.2849408166301091 0.1698203410532437 0.0987288619239500 0.3033308348367855 2.0702141513291785 5.1003923391945616 0.0000350226287348 2.1318731002948703 0.8608671413120299 0.0000000000000000 0.0000000000000000 0.0000000000000000 -0.0000000000000000 
159 2 -0.0879266313954067 0.2963467777382483 -0.0894853331203673 4.2229015164229260 4.5271130953891596 1.5701811674610244 0.0000296757712803 2.2390619469714235 0.9698955877309903 0.0000000000000000 0.0000000000000000 0.0000000000000000 -0.0000000000000000 
168 2 -0.0164520823136574 0.0644776008210693 0.1206661110605351 1.9536597076398867 1.1060868000160622 4.6991530523529468 0.0000401262432143 2.0586762462355335 0.8001632541987844 0.0000000000000000 0.0000000000000000 0.0000000000000000 -0.0000000000000000 
174 2 0.0499816834451029 0.1143963664671577 0.0062470504480091 2.1891396860517900 1.2525294212906883 3.1176423843848582 0.0000440024460984 1.9979560381933958 0.7138128419569807 0.0000000000000000 0.0000000000000000 -0.0000000000000000 -0.0000000000000000 
182 2 0.0028827857198298 0.0527339803979226 -0.1087661174002719 1.1696872460208181 0.7111354165445287 1.0675757255308793 0.0000400851089823 2.0577187491871483 0.7848381186695393 0.0000000000000000 -0.0000000000000000 -0.0000000000000000 0.0000000000000000 
185 2 -0.3034982016235611 0.3643663272047722 -0.0693976766786899 0.1084589493272304 3.8574590681280578 4.6827534387619840 0.0000314658205095 2.1467544744658476 0.8451463481941096 0.0000000000000000 0.0000000000000000 0.0000000000000000 0.0000000000000000 
196 2 0.1663781883276536 -0.2120733252818209 -0.2224768974949102 4.8123200184050772 0.8657671358197940 0.9207228163636827 0.0000308850441857 2.2613488030522655 0.9608494122044102 0.0000000000000000 -0.0000000000000000 0.0000000000000000 0.0000000000000000 
30 1 -0.2092439877933933 0.1999094784183524 -0.2380260546922061 6.6586208258604165 4.7403695106737409 3.3926083711503572 0.0000335888080278 2.2158061696471458 0.9315202348003032 0.0000000000000000 -0.0000000000000000 0.0000000000000000 0.0000000000000000 
34 1 -0.2675080603076988 -0.2027099426045747 -0.0559100252075966 7.9160441021429051 1.7109833904724101 0.0839693004117784 0.0000380010172450 2.0493993479749815 0.7670113422073608 0.0000000000000000 -0.0000000000000000 0.0000000000000000 0.0000000000000000 
57 1 -0.0480128913794690 -0.2400050522076300 0.1772260513008005 9.6462616477765977 0.9722536806888668 1.6560860019384505 0.0000375042204235 2.0977655781080657 0.8215871495499552 0.0000000000000000 -0.0000000000000000 0.0000000000000000 -0.0000000000000000 
108 1 -0.0314630713517627 -0.1741948761571920 0.0855403304784677 9.1426822524358702 1.5198503500788094 2.9242808349316811 0.0000355921230403 2.1493556537985543 0.8870191863454238 0.0000000000000000 0.0000000000000000 -0.0000000000000000 0.0000000000000000 
123 2 0.2253848638995589 -0.0716178693695581 -0.1423170690209999 9.8400127097555288 4.3635750867789449 5.1248068195321110 0.0000395599342261 2.0536821294712730 0.8025306336714875 0.0000000000000000 0.0000000000000000 0.0000000000000000 0.0000000000000000 
154 2 -0.1140916302133319 0.3176508393464013 -0.1282031948783989 5.3358651614453931 4.3130362093824077 1.2529048075334386 0.0000303487400143 2.2264613136843190 0.9621668992743319 0.0000000000000000 0.0000000000000000 0.0000000000000000 -0.0000000000000000 
184 2 0.1337088220144144 0.2790675647696120 -0.0132283523436052 9.3941946961059255 3.8138622158425504 1.3485064280227250 0.0000382400406299 2.0883715775345912 0.7859317349912953 0.0000000000000000 -0.0000000000000000 -0.0000000000000000 -0.0000000000000000 
188 2 0.4209485019294310 0.1653501126557982 -0.2279898282320665 10.4806834107629747 5.2223092484897879 5.1455808672588805 0.0000377569683272 2.0538334902469204 0.7847508074910040 0.0000000000000000 -0.0000000000000000 -0.0000000000000000 -0.0000000000000000 
207 2 -0.0102121308532244 -0.0150499858358669 -0.0924470579239158 8.7888734296514759 3.6478947129879340 3.6994596532051305 0.0000385092042620 2.0990433672520883 0.8343866920984625 0.0000000000000000 0.0000000000000000 -0.0000000000000000 -0.0000000000000000 
66 1 0.1316011787751726 -0.2028952110293334 0.1371061732693973 10.9931534268240796 0.8525834684028681 3.3704427237371757 0.0000334031613663 2.1894165499061016 0.9089967252142201 0.0000000000000000 0.0000000000000000 -0.0000000000000000 0.0000000000000000 
114 2 0.2685992182090864 0.5212423763465420 0.1496707762979914 10.6621289753141841 4.2281178530907173 0.1995464571261551 0.0000331609171826 2.1601649013352726 0.8602496346140892 0.0000000000000000 -0.0000000000000000 -0.0000000000000000 0.0000000000000000 
143 2 0.2433640658494301 0.2445817911166645 0.1732341257198680 11.5846102649845140 2.2813169683743180 1.5246117912735593 0.0000338758415137 2.2011743709042007 0.9108835388305341 0.0000000000000000 0.0000000000000000 0.0000000000000000 -0.0000000000000000 
155 2 -0.1601524567175135 -0.1117270334572479 0.1309829299768129 14.3818450127962656 0.0310165897362293 3.7741347349607790 0.0000326116018406 2.1558529700631333 0.8966714673666401 0.0000000000000000 0.0000000000000000 -0.0000000000000000 0.0000000000000000 
210 2 -0.0300982463805604 0.1761690738014400 0.0186862986502396 13.6169654385163135 1.8385902468521633 4.0240726535412739 0.0000306957060567 2.2460862056247919 0.9687913046160597 0.0000000000000000 0.0000000000000000 -0.0000000000000000 -0.0000000000000000 
41 1 -0.0582091389909944 -0.1370921286227207 -0.0826684348484202 1.0479823628532303 7.8307292796942871 1.6228118483354246 0.0000262534817307 2.2691612756595365 0.8790745452035551 0.0000000000000000 0.0000000000000000 -0.0000000000000000 -0.0000000000000000 
76 1 -0.0052929295836524 0.1692489696555155 -0.0135055924149193 5.2670174663807234 8.4514012314872691 2.5424192640078478 0.0000231989136411 2.4309845782317505 1.0406144432128939 0.0000000000000000 0.0000000000000000 -0.0000000000000000 0.0000000000000000 
77 1 -0.0605302065646957 0.2380336448589256 -0.1041032969865901 1.8873348212906433 5.5972871890823601 3.3157547005407313 0.0000297792049928 2.1749911917715625 0.8390047539516458 0.0000000000000000 0.0000000000000000 -0.0000000000000000 0.0000000000000000 
131 2 0.2378241828509779 -0.3048413745628251 0.0058386767716295 2.2808236366898487 10.2169387683069868 0.1370995980355691 0.0000323351081846 2.1257729610621845 0.7480042040526401 0.0000000000000000 0.0000000000000000 -0.0000000000000000 -0.0000000000000000 
139 2 -0.1167132449997667 0.2179375812797762 0.0131140090141782 1.5079583806025718 6.7640735488577040 3.8081683671778412 0.0000280960803656 2.1848259844045623 0.8196170172335717 0.0000000000000000 -0.0000000000000000 -0.0000000000000000 -0.0000000000000000 
202 2 0.0060048768743978 -0.0992942264541908 -0.1407692842095758 2.5168297745906680 7.5777065810084601 0.5582900381492495 0.0000244061293666 2.3384201866952248 0.9588043216829172 0.0000000000000000 -0.0000000000000000 0.0000000000000000 0.0000000000000000 
2 1 0.0777352502254003 0.4240212216348616 -0.1487473520881556 8.8955131783415684 6.5118506223968442 0.9718530812322836 0.0000272495222280 2.2778024287063019 0.9553499159048254 0.0000000000000000 -0.0000000000000000 0.0000000000000000 0.0000000000000000 
12 1 -0.0234486245988724 0.4262971673849328 -0.1172536948690982 8.9202222289108306 8.8118917869554956 3.9482139086175807 0.0000255405509101 2.3532927964305523 0.9216627176744980 0.0000000000000000 -0.0000000000000000 -0.0000000000000000 0.0000000000000000 
17 1 -0.1356856873719734 0.3540093062532548 -0.1669949621345151 6.1599567082886084 8.4847428884159299 4.3037888204183012 0.0000257844202217 2.2764701819405166 0.9257209196848460 0.0000000000000000 0.0000000000000000 0.0000000000000000 0.0000000000000000 
64 1 -0.1100776326621887 0.4291279820558990 -0.2835741494397811 8.0166583706572592 6.8266267791423569 2.7114724225449054 0.0000303706121730 2.1906436866452346 0.8623038432783128 0.0000000000000000 0.0000000000000000 0.0000000000000000 0.0000000000000000 
119 2 0.0453532311728840 0.2356081383731219 -0.2772321749472206 9.0507396377378626 5.6662364871297255 4.3786141247462238 0.0000414772431240 2.0108275414511581 0.6949976100546071 0.0000000000000000 -0.0000000000000000 0.0000000000000000 0.0000000000000000 
152 2 0.3977504417067492 0.3154488825657249 -0.2503068457311314 10.2558206748221163 5.3797299948548964 2.5342630759497951 0.0000327722141934 2.1338013733628092 0.8180865384051038 0.0000000000000000 -0.0000000000000000 0.0000000000000000 -0.0000000000000000 
216 2 0.1124837256212724 0.1915910775083036 -0.2902869391498608 9.2781224781070719 5.4814335942591299 3.9163757933032772 0.0000406953640184 2.0097935343525841 0.6852417285092777 0.0000000000000000 0.0000000000000000 0.0000000000000000 -0.0000000000000000 
20 1 -0.0116206553016639 -0.0045934339148140 0.2971612928456266 13.8334013116745904 9.8181480783910615 3.5322387953535577 0.0000258154864368 2.2000352256423747 0.8494844279431876 0.0000000000000000 -0.0000000000000000 0.0000000000000000 -0.0000000000000000 
21 1 -0.0726089237896296 -0.2093238475316391 0.2133693417555677 13.8752571485026674 9.1822931020226761 2.7027772792241258 0.0000278035604155 2.1587010972567549 0.7792768052341017 0.0000000000000000 0.0000000000000000 -0.0000000000000000 0.0000000000000000 
102 1 -0.0948965183838347 -0.0572430337556405 0.0057842893011762 14.8935880810876284 7.3370627597235476 3.1276064858534944 0.0000240941098444 2.3206567999918484 0.9242011867896408 0.0000000000000000 -0.0000000000000000 -0.0000000000000000 0.0000000000000000 
169 2 -0.1231300902038977 0.2954736129042657 0.0609607950872873 15.6881866710235851 5.8635329601031936 5.1465311655147996 0.0000273055923850 2.2143503562066567 0.8351049087997983 0.0000000000000000 -0.0000000000000000 -0.0000000000000000 0.0000000000000000 
178 2 -0.1918186964779346 -0.1593795839921032 0.1683407527840610 12.6533547433074993 10.0129102350153545 2.2877029052055771 0.0000286125876271 2.1591138055963848 0.7695033381087344 0.0000000000000000 0.0000000000000000 0.0000000000000000 -0.0000000000000000 
194 2 -0.0954752852370801 -0.2925007442548127 0.1400259713670546 15.0661940002525210 10.2030572022459491 0.9544775753706874 0.0000349450723768 2.0816128252644357 0.7067676511278603 0.0000000000000000 0.0000000000000000 -0.0000000000000000 -0.0000000000000000 
37 1 0.1421931498471396 -0.3828034138614674 0.2184679334540088 2.3399531441569121 13.0984470661995385 3.3358820496504484 0.0000330077670089 2.1208207443388476 0.8131632735068813 0.0000000000000000 0.0000000000000000 0.0000000000000000 -0.0000000000000000 
45 1 0.3673385943377850 -0.1459704970434346 0.0715461884494075 3.8143764359531422 11.2404775261117376 0.8796568816213481 0.0000288127643416 2.2025722641900005 0.8496829271807564 0.0000000000000000 -0.0000000000000000 -0.0000000000000000 0.0000000000000000 
89 1 0.2582981769519909 -0.1804946371401398 0.0123255667101483 2.5051147371778919 13.6505779802884231 2.0421593557663500 0.0000347925156600 2.1201698008533509 0.8300602846455543 0.0000000000000000 -0.0000000000000000 0.0000000000000000 0.0000000000000000 
141 2 0.2774887684360845 -0.2852272931093203 0.1985393364278367 2.5575871080487405 11.4618389076841876 1.6897576812830561 0.0000323326411994 2.1215732803525711 0.7774776072500883 0.0000000000000000 0.0000000000000000 -0.0000000000000000 0.0000000000000000 
148 2 0.0598857164983684 -0.2238877209144817 0.2505893615265813 1.0077469276524043 10.7144834971497396 1.6724991361834929 0.0000332000487947 2.1287779620984231 0.7811624034581065 0.0000000000000000 -0.0000000000000000 -0.0000000000000000 0.0000000000000000 
190 2 -0.2850950983914985 -0.1044896952896235 0.0280126626996311 0.0454527159036751 15.8464604790093571 2.5115546202012164 0.0000391063815269 2.0652461301209311 0.7865984451816268 0.0000000000000000 -0.0000000000000000 -0.0000000000000000 0.0000000000000000 
197 2 0.3479423739939137 -0.2601456651406991 -0.1038331408673040 3.4935909632265636 14.7759627396488966 1.8520586157164081 0.0000334248295112 2.1872310237905710 0.8923507497925185 0.0000000000000000 0.0000000000000000 0.0000000000000000 0.0000000000000000 
199 2 0.2930331382903558 -0.2524683666479096 0.1537113713365359 4.8899049341152363 11.6366646316002420 3.6216079770011946 0.0000227421211043 2.3909119413218001 0.9612705443362519 0.0000000000000000 -0.0000000000000000 0.0000000000000000 0.0000000000000000 
213 2 -0.1072552892465693 -0.3819562337792894 0.3085349641824898 1.3803908297089655 13.2407119156552149 3.4764967845400818 0.0000319252288006 2.1612844582493214 0.8742181957458633 0.0000000000000000 -0.0000000000000000 0.0000000000000000 0.0000000000000000 
11 1 -0.1997896296362868 -0.1714897447155722 0.0073336042933734 9.3253860261421728 11.1026805493046599 0.3719277500135310 0.0000249856922229 2.2416945414277398 0.8795654470794088 0.0000000000000000 0.0000000000000000 0.0000000000000000 -0.0000000000000000 
95 1 -0.2409049232324267 -0.1580786590338742 0.1149920642673741 9.8836467394396852 11.2293233515197457 1.2761902913473027 0.0000268340512338 2.1550946310610137 0.7769097380278485 0.0000000000000000 0.0000000000000000 -0.0000000000000000 -0.0000000000000000 
104 1 -0.1804514402246526 -0.3795316337271288 0.0238781831020266 8.2810742589182809 15.2414753880166192 1.5767585588810509 0.0000297582976096 2.2097515868160462 0.9153201654659264 0.0000000000000000 -0.0000000000000000 -0.0000000000000000 0.0000000000000000 
111 2 0.2839839609453054 -0.3056932791232258 -0.0986166930852668 5.4540856428077742 15.9263911394626003 4.7095784922096406 0.0000321500543792 2.2051213487088179 0.9195408274188217 0.0000000000000000 0.0000000000000000 -0.0000000000000000 0.0000000000000000 
128 2 -0.0328882288519519 -0.5212036552397953 0.0909988461732483 9.2640109140036628 15.2303085011066361 4.9584168850284183 0.0000275086047233 2.2667980527324403 0.9380498833373263 0.0000000000000000 0.0000000000000000 0.0000000000000000 0.0000000000000000 
138 2 -0.2302989516537070 -0.0937378652732675 0.2072403599355784 9.5689793423487171 11.9001609668728747 2.7332749658015043 0.0000242982586309 2.2261831757525865 0.8497505968262888 0.0000000000000000 0.0000000000000000 -0.0000000000000000 -0.0000000000000000 
150 2 -0.2005450760998073 -0.3337814382843932 0.0531421138144983 9.2209816665065230 14.4835620506394793 1.2961761665410674 0.0000293454088680 2.2092941924546641 0.8735223116367765 0.0000000000000000 0.0000000000000000 0.0000000000000000 0.0000000000000000 
153 2 0.2295185870430488 -0.2890122911457391 0.0237568549093951 5.8220224739969941 13.5549324134110840 3.4027457451982333 0.0000246242421405 2.3758311972076500 0.9762730440306270 0.0000000000000000 -0.0000000000000000 -0.0000000000000000 0.0000000000000000 
22 1 -0.1444105759769014 -0.1698372559984800 0.2336707136879272 14.1414523710621669 14.6534272280662687 1.8098177211459494 0.0000321162965861 2.2070142877660972 0.9696812865046003 0.0000000000000000 -0.0000000000000000 -0.0000000000000000 0.0000000000000000 
52 1 -0.0860408667308212 -0.0077210702517061 0.2279281921831855 10.9816819782723485 11.3169372678468445 2.8973527791211500 0.0000261750298769 2.1784279481766329 0.7923390678771047 0.0000000000000000 0.0000000000000000 0.0000000000000000 0.0000000000000000 
61 1 -0.2049754609029525 -0.1310604292963400 0.1864128560735332 11.6964613209835910 11.6274924152720054 1.6188395764013168 0.0000297017289052 2.1553842210880854 0.7853554864027872 0.0000000000000000 0.0000000000000000 0.0000000000000000 -0.0000000000000000 
145 2 -0.0763199726196432 -0.1967078506403094 0.1627647993149872 12.7722267172933837 15.2360146761612238 0.4150656383812812 0.0000353297317667 2.1454594558222029 0.9066778020341488 0.0000000000000000 -0.0000000000000000 -0.0000000000000000 0.0000000000000000 
147 2 -0.1936661524572121 -0.2533290560419248 0.1628925767906640 11.1218360463273793 14.1491541978832736 0.9593627533379835 0.0000316609074234 2.2117205027735931 0.8964921622073490 0.0000000000000000 -0.0000000000000000 0.0000000000000000 -0.0000000000000000 
181 2 -0.2373415347150202 -0.1217776143865651 0.1714708863888531 14.7955427392976411 15.6572399843092693 2.9263219504936591 0.0000341733541431 2.1139207369777111 0.8669595477844370 0.0000000000000000 0.0000000000000000 -0.0000000000000000 -0.0000000000000000 
193 2 -0.0768123998966903 -0.1482788722831788 0.0828328842954289 15.4592060462148773 10.9793445314293105 0.5233444758326222 0.0000363692053890 2.0736539573190500 0.7370822980999803 0.0000000000000000 0.0000000000000000 0.0000000000000000 -0.0000000000000000 
26 1 -0.1204687070330779 0.3478877329650520 0.2262869798509802 2.4917493202046721 4.7889337415685622 5.8734568254391517 0.0000308961959236 2.1532630764676028 0.8408857304389559 0.0000000000000000 0.0000000000000000 -0.0000000000000000 -0.0000000000000000 
72 1 -0.0648681276962758 0.1138003044391370 0.1043308491882416 4.8307181201875249 2.6821761313516519 8.6021792071011625 0.0000333239496709 2.1590984056536850 0.8979162152977969 0.0000000000000000 0.0000000000000000 -0.0000000000000000 -0.0000000000000000 
140 2 0.0211089666418876 0.0400916378299316 0.0203064835760462 5.0670367283164994 1.6163200305081564 5.9365037069862741 0.0000343023966310 2.2059372905870527 0.9339870676685135 0.0000000000000000 -0.0000000000000000 0.0000000000000000 -0.0000000000000000 
156 2 0.0037266556411404 0.6078522763161610 -0.0598793531823619 1.3652973821955643 3.0400369616887217 10.3609537040346158 0.0000308840621129 2.1525684908217180 0.8819611005341275 0.0000000000000000 0.0000000000000000 -0.0000000000000000 -0.0000000000000000 
164 2 -0.2028656228732367 0.3527546125362899 0.2138425377519257 0.9684708211808554 3.3987675505809620 5.6129014725290425 0.0000327931332561 2.1304416711360279 0.8614522979173509 0.0000000000000000 -0.0000000000000000 -0.0000000000000000 0.0000000000000000 
173 2 0.0993989082722157 0.1993963496922144 -0.0781720424866275 2.1328426651614585 1.2997749665430209 10.3446841015586148 0.0000394952493718 2.0431607727120644 0.7523932719998845 0.0000000000000000 0.0000000000000000 -0.0000000000000000 0.0000000000000000 
16 1 -0.2548393000854947 0.0593608543673523 0.0317541375598039 5.7970708277526901 4.2992747002808738 6.4728080252631237 0.0000354196099484 2.0908112851272618 0.8651511216321097 0.0000000000000000 -0.0000000000000000 -0.0000000000000000 -0.0000000000000000 
40 1 -0.1568517914832075 0.0170233985315364 0.0262786608439470 6.0815750436211102 3.9987583945216385 6.0275853801133117 0.0000357099294909 2.1044567217625580 0.8865575530219811 0.0000000000000000 0.0000000000000000 -0.0000000000000000 -0.0000000000000000 
55 1 0.0934679811295581 -0.4233128337580283 0.0347683902374603 7.7165502870387748 0.1960897575709414 6.1317360113756534 0.0000305440683887 2.2046542120350940 0.9016133587444540 0.0000000000000000 -0.0000000000000000 -0.0000000000000000 0.0000000000000000 
65 1 -0.0663637025637378 -0.3385625450495445 0.0033787260361685 9.0945828774775102 1.3723054265718087 6.1663202846348151 0.0000336549594546 2.1851231513810987 0.9188367838312953 0.0000000000000000 -0.0000000000000000 0.0000000000000000 -0.0000000000000000 
85 1 -0.0868738488459640 -0.2808083813198657 -0.0525663040103810 9.9049134616847905 2.4142832151613298 8.6737809556840553 0.0000357731341666 2.1907721606318402 0.9408209608957353 0.0000000000000000 0.0000000000000000 -0.0000000000000000 -0.0000000000000000 
103 1 -0.2162658597864157 0.0781677352014163 -0.0252513159238972 7.3389878046234429 5.2823237804432628 6.4435333686446876 0.0000388689344032 2.1063591772911989 0.8406189085638268 0.0000000000000000 0.0000000000000000 -0.0000000000000000 0.0000000000000000 
105 1 0.0537435208904290 -0.0351134016547250 0.1290444548800989 5.6799509175057867 2.0001974032104801 9.3575002159855991 0.0000333438713788 2.1531558609854091 0.8875157212519950 0.0000000000000000 0.0000000000000000 0.0000000000000000 -0.0000000000000000 
112 2 -0.1888617839357653 -0.0247885457925620 0.0925287759099884 7.9657330287040935 4.3391889882189432 10.1418142322747205 0.0000349906693670 2.1998834587578706 0.9505070882363451 0.0000000000000000 0.0000000000000000 -0.0000000000000000 -0.0000000000000000 
125 2 0.0918214524100178 -0.2042981477897625 0.1923876944911940 6.4350225909778711 1.2271075961338156 9.0828396357164127 0.0000322119433970 2.1855445065409551 0.9051575447372228 0.0000000000000000 -0.0000000000000000 0.0000000000000000 0.0000000000000000 
136 2 -0.2273309969617563 0.0386707440798476 0.1587544719951529 5.8086203406788774 4.0900056578390922 7.5754990467228884 0.0000343806523890 2.1218923431521333 0.8897244335169995 0.0000000000000000 0.0000000000000000 0.0000000000000000 0.0000000000000000 
158 2 -0.0660410383542748 -0.3651248119860048 0.0125658929411493 8.5751208704116735 1.3185393649840202 8.1489605174619211 0.0000325602230277 2.2025284875465001 0.9386974314925326 0.0000000000000000 0.0000000000000000 0.0000000000000000 -0.0000000000000000 
8 1 0.1427496862447970 -0.0892336452979160 -0.2110246159684642 12.0411920715036000 1.6920365316773553 5.7684846350679413 0.0000348721999754 2.1215334015941645 0.8509397487279515 0.0000000000000000 -0.0000000000000000 0.0000000000000000 0.0000000000000000 
15 1 0.1205560839388994 -0.0642031971464002 -0.1737418317528443 14.3884500134284146 1.1467037740481651 8.5028193759392945 0.0000368524098899 2.0802674719571899 0.8360185454977217 0.0000000000000000 0.0000000000000000 0.0000000000000000 -0.0000000000000000 
19 1 0.0937046842301949 -0.0327652509191143 -0.1621957829876917 13.6616554374267203 1.4495749869192347 8.1112061096516843 0.0000380185345858 2.0549706650238990 0.7939178237310451 0.0000000000000000 -0.0000000000000000 0.0000000000000000 0.0000000000000000 
75 1 0.1364591549099860 0.2727909853540216 -0.0276895248799473 12.1767120064756238 3.5920748396352362 10.4422404223805838 0.0000423368246299 2.0218952885609118 0.7480810107632874 0.0000000000000000 -0.0000000000000000 -0.0000000000000000 -0.0000000000000000 
87 1 0.0644028659069482 -0.0956141581412106 -0.1194627789286919 14.6620073845474916 0.7847443899219810 10.3391815386533583 0.0000380931901646 2.1181773523734062 0.8762301813005110 0.0000000000000000 -0.0000000000000000 -0.0000000000000000 -0.0000000000000000 
100 1 0.3435731221416472 0.3583678439239932 -0.0604299478610823 12.7913008369886008 4.4608044586358631 9.6457820200032831 0.0000369848634143 2.0891876252195667 0.8104928070401212 0.0000000000000000 0.0000000000000000 0.0000000000000000 0.0000000000000000 
127 2 0.0306798478598241 -0.1756706936717870 -0.1055607898341508 11.5509355588051079 1.6327068349592904 6.7059043624755281 0.0000364203613551 2.1062964972208231 0.8434097182896755 0.0000000000000000 0.0000000000000000 0.0000000000000000 0.0000000000000000 
166 2 -0.0687946179166004 -0.3866790087698260 -0.1345413875238606 12.4254130137174617 0.0522288756557039 7.0252537303384219 0.0000342499917318 2.1176344581433892 0.7970588122931309 0.0000000000000000 -0.0000000000000000 0.0000000000000000 -0.0000000000000000 
179 2 0.3482858007042679 0.1747395135913810 -0.1155636034184151 12.0003051542232626 4.7982255930943012 7.4716619124648513 0.0000343362021126 2.2150499683068703 0.9301503348180599 0.0000000000000000 -0.0000000000000000 -0.0000000000000000 0.0000000000000000 
204 2 0.1768429107400410 0.1690334404539978 -0.1514971128690613 13.3323494005362839 2.5205568037411261 9.6940020716598898 0.0000396577130700 2.0729992164876707 0.8137745218495491 0.0000000000000000 -0.0000000000000000 0.0000000000000000 0.0000000000000000 
205 2 0.1058360431974190 -0.0021023344067403 -0.1847114160407203 13.6876993476561335 1.5710371988422978 6.9144996259433924 0.0000356938401672 2.0918125464671737 0.8226275378566941 0.0000000000000000 0.0000000000000000 -0.0000000000000000 -0.0000000000000000 
4 1 -0.2448025004589872 -0.1422012134444427 -0.2066757068875166 4.6558786365175502 10.4912036368558255 10.5433852300193394 0.0000270174478467 2.2017980322870443 0.8346177019336890 0.0000000000000000 -0.0000000000000000 -0.0000000000000000 0.0000000000000000 
63 1 -0.0872059387375050 0.1452504700422188 0.2234022976407600 1.7831388627023663 8.3416095745264940 6.1962173481623770 0.0000219499780212 2.3570585278066805 0.9265742777934008 0.0000000000000000 0.0000000000000000 0.0000000000000000 -0.0000000000000000 
68 1 -0.1735068510100952 0.1358839145319001 0.0911176366724341 3.8821011304289819 9.1042019974808976 6.6107988296006557 0.0000233207861531 2.2547401588230471 0.9059584229604815 0.0000000000000000 0.0000000000000000 0.0000000000000000 0.0000000000000000 
91 1 -0.2616366522494733 0.2934529114386051 0.0473101518142542 3.9579265194058153 5.3478184271335216 5.5495089936986854 0.0000309683576889 2.1973975423740857 0.8879985000594902 0.0000000000000000 -0.0000000000000000 -0.0000000000000000 0.0000000000000000 
109 2 0.1070857461999099 0.3051974541238106 0.2392594643049308 0.0665226233290164 7.2319211989557957 7.4880482349728359 0.0000217389089166 2.3007859132537156 0.8766957301977462 0.0000000000000000 0.0000000000000000 -0.0000000000000000 -0.0000000000000000 
116 2 -0.2690805023229854 0.1736956164474139 0.1114263801953857 4.1932581730421754 8.8038048561308742 7.0743016318896617 0.0000243828216141 2.2323619898731328 0.8852103274478580 0.0000000000000000 -0.0000000000000000 0.0000000000000000 -0.0000000000000000 
6 1 -0.2280473112445076 0.3673668186011493 -0.0984023903021110 6.2723777790024924 9.0836147406155021 7.8451259407451506 0.0000286968861332 2.2018945926419637 0.8298189097163797 0.0000000000000000 0.0000000000000000 -0.0000000000000000 0.0000000000000000 
43 1 0.1369137597562754 0.3641126267326606 0.0235646746787707 9.2579678137012174 7.0188369770349190 7.9921696992927105 0.0000405142118916 2.0281548547650248 0.7376083692746918 0.0000000000000000 0.0000000000000000 0.0000000000000000 -0.0000000000000000 
46 1 -0.1157643495667427 0.5068479356429498 -0.1755112681690291 7.8133274338256573 8.5926347648547949 6.5499483363276036 0.0000316393335961 2.1571293011382582 0.8051875685065362 0.0000000000000000 -0.0000000000000000 -0.0000000000000000 0.0000000000000000 
69 1 -0.2582702517167071 0.4023425701977297 -0.1277873714809784 6.2299189255910594 7.5567079858937234 5.9883542177346962 0.0000321949692017 2.1735790352733195 0.8259754749518512 0.0000000000000000 0.0000000000000000 -0.0000000000000000 -0.0000000000000000 
86 1 0.0009711643125899 0.4778161726440160 -0.0270424755203748 8.7750731961741177 7.5505047516956152 7.8057382849227119 0.0000397266445807 2.0269097190407956 0.7160676127159217 0.0000000000000000 0.0000000000000000 -0.0000000000000000 -0.0000000000000000 
107 1 -0.4253267884348764 0.0650297983807430 -0.0171399356300840 5.3890900705495985 8.4987728072106776 9.9329836804547806 0.0000275660627547 2.2455113755310587 0.8705547991275547 0.0000000000000000 0.0000000000000000 0.0000000000000000 -0.0000000000000000 
134 2 0.1553249163559710 0.5749847896570172 0.0231297230038412 9.3253734537292150 9.3527081476907536 9.2279978712487178 0.0000283761188322 2.2189643992240509 0.8725073851465598 0.0000000000000000 -0.0000000000000000 0.0000000000000000 0.0000000000000000 
146 2 -0.1470838592223317 0.0593540214878420 0.1991235257364665 8.3228310731246449 6.0632800013301287 8.8511874808708519 0.0000381681162129 2.1118014045826312 0.8654744006006690 0.0000000000000000 -0.0000000000000000 0.0000000000000000 -0.0000000000000000 
175 2 0.1359022041623169 0.4933967105474758 0.0725435152385607 8.9886916258141909 8.0260315790673538 8.7003207225862305 0.0000368279747483 2.0556045281806767 0.7384543627671949 0.0000000000000000 -0.0000000000000000 0.0000000000000000 -0.0000000000000000 
186 2 0.3664909472612717 0.3139192041467038 -0.1916999599233775 10.2221204973065483 5.9345425946927222 5.9909191268182358 0.0000391736184828 2.0553156863636382 0.7815699159527003 0.0000000000000000 -0.0000000000000000 0.0000000000000000 0.0000000000000000 
200 2 -0.3765962164697625 0.1235594277240114 0.1128165683870180 6.5184840951142800 6.4291095630965032 10.6327950711300243 0.0000321661958913 2.2119237048279619 0.8940000684133873 0.0000000000000000 0.0000000000000000 0.0000000000000000 0.0000000000000000 
206 2 0.0734078413486410 0.2365319164122424 -0.1046866035657782 6.8466928015482793 10.3024609972103605 10.3104199321664485 0.0000280240366755 2.2372557832076501 0.8550754767698188 0.0000000000000000 0.0000000000000000 0.0000000000000000 0.0000000000000000 
5 1 0.1478926461646271 -0.1823739472629121 -0.0990336279576403 14.6907633645737103 9.9655432218541975 10.0196377064754483 0.0000193418223100 2.4329256025482957 0.9901585486972615 0.0000000000000000 -0.0000000000000000 0.0000000000000000 -0.0000000000000000 
27 1 0.2955010484396319 0.2519636584684425 -0.0692240636827731 13.7401410523506797 6.6974358571032857 6.9385573999497270 0.0000267067411401 2.2558185535767583 0.8936973509901949 0.0000000000000000 -0.0000000000000000 -0.0000000000000000 0.0000000000000000 
56 1 0.0876353798707451 0.1856533295752980 0.1402408361306478 12.8479304433342669 9.8367927895001888 5.5246863934538357 0.0000218217564232 2.3889978475317446 0.9934229699209772 0.0000000000000000 0.0000000000000000 -0.0000000000000000 -0.0000000000000000 
74 1 0.3746759896392130 0.4896083501641081 0.2168787851748526 12.1209271426069378 6.7235038376359118 10.0000672516108207 0.0000308057245479 2.1600638730302135 0.8306381800487193 0.0000000000000000 -0.0000000000000000 -0.0000000000000000 0.0000000000000000 
98 1 0.3797371978475428 0.4675039902639226 -0.1860766780165062 10.8077774410380147 7.4691783490092343 6.5827009978040358 0.0000328856832815 2.1682440913954135 0.8434218848349534 0.0000000000000000 0.0000000000000000 0.0000000000000000 -0.0000000000000000 
110 2 0.3080366825990926 0.4169008342658608 0.1973710546631272 11.1763896419677220 6.5405351502858284 9.5818123365445160 0.0000342935775197 2.1459050342188108 0.8399363825471511 0.0000000000000000 0.0000000000000000 0.0000000000000000 0.0000000000000000 
180 2 0.2993570211453895 0.3235273677700268 0.2013061273306704 14.6124772939853447 7.6723993240916677 7.9828626476839348 0.0000230072931619 2.2453739899319372 0.8253358898760701 0.0000000000000000 0.0000000000000000 0.0000000000000000 0.0000000000000000 
208 2 0.4724729045817685 0.4541124947399836 0.1555426515918716 14.0320039433092845 6.5655604289697322 9.5804520217668809 0.0000254279602359 2.2351037682099992 0.8637752002984486 0.0000000000000000 -0.0000000000000000 0.0000000000000000 0.0000000000000000 
3 1 0.0835533934444414 -0.2124672545162799 -0.0763065287058098 4.4624324222652350 12.4193128445265835 10.5298550879103647 0.0000294243662314 2.1802084920624143 0.8244560769009059 0.0000000000000000 -0.0000000000000000 0.0000000000000000 -0.0000000000000000 
14 1 -0.0614651221940831 -0.0751603505914795 -0.1080125571629776 2.1595778835566022 15.9467142347761843 9.4182654536122712 0.0000385094775797 2.0829078184349319 0.8059069569064893 0.0000000000000000 -0.0000000000000000 -0.0000000000000000 -0.0000000000000000 
71 1 0.1724458717192457 -0.3954442200389813 -0.0319287300473448 3.6030850723898427 14.2289148619688390 8.6052115715306829 0.0000356896423289 2.0801010049277533 0.7521275658142196 0.0000000000000000 -0.0000000000000000 0.0000000000000000 0.0000000000000000 
81 1 0.0884149304460553 -0.2851686589972084 0.0093784952294079 2.8946259017315916 14.6794277730957159 10.0615786809549750 0.0000382738306918 2.0440704357093376 0.7418434943515479 0.0000000000000000 0.0000000000000000 -0.0000000000000000 -0.0000000000000000 
129 2 0.0012581718194453 -0.5780189169542974 -0.0011263676576870 3.0468825133209165 14.2294120643206643 6.0562499389093052 0.0000339309789182 2.1278390995632970 0.8126177446011088 0.0000000000000000 0.0000000000000000 0.0000000000000000 -0.0000000000000000 
144 2 0.1152133100441659 -0.1560331409770394 0.0251312550947389 3.8162998565884374 15.6435247024245410 8.1054556128369146 0.0000374712567546 2.0933703437304105 0.8004778113504967 0.0000000000000000 -0.0000000000000000 -0.0000000000000000 -0.0000000000000000 
161 2 -0.1851520416979096 -0.4672735427245372 -0.1169233214289374 0.1449180526095895 14.2556644286586920 8.1267727572179478 0.0000289681175972 2.2867746361969585 0.9489176807641235 0.0000000000000000 -0.0000000000000000 0.0000000000000000 -0.0000000000000000 
162 2 -0.1641809863148228 -0.4763030909362732 -0.0154747071697004 2.2943403529625042 12.0554281229998370 7.4349335739996736 0.0000231233548650 2.4191844431985450 0.9699915578381980 0.0000000000000000 -0.0000000000000000 -0.0000000000000000 0.0000000000000000 
189 2 0.2621943632262126 -0.4326931439810814 -0.0369706203494902 4.1943602075238884 14.4966172204628663 6.5473978544670492 0.0000346452153550 2.0937136219622827 0.7735503430676630 0.0000000000000000 -0.0000000000000000 0.0000000000000000 0.0000000000000000 
209 2 0.0751748314893393 -0.3357372686686709 0.0396167004781446 3.0451313559038513 14.0748012387220616 10.5072274826744856 0.0000358546316797 2.0668803100049278 0.7607349945730149 0.0000000000000000 0.0000000000000000 0.0000000000000000 0.0000000000000000 
215 2 -0.2000386394010341 -0.4058280501319721 0.1678992802289180 1.2803336529178106 14.6088227565218514 5.3567612279936299 0.0000325991292640 2.2006316126425371 0.9000642831531085 0.0000000000000000 -0.0000000000000000 -0.0000000000000000 -0.0000000000000000 
1 1 -0.0673485315141092 -0.3208305170519668 -0.0823468717071997 9.4614748272825384 14.0109317686786152 8.7749772553259326 0.0000231950400436 2.3392431664532731 1.0038095035186008 0.0000000000000000 -0.0000000000000000 0.0000000000000000 -0.0000000000000000 
23 1 0.2967812746590008 -0.4080671494329685 -0.0371669921275765 5.5258662489020578 15.1107867929307798 6.5386256920526975 0.0000329415333036 2.1191189650704541 0.8055421461140601 0.0000000000000000 -0.0000000000000000 -0.0000000000000000 0.0000000000000000 
132 2 0.2936498617678835 -0.3728540877521289 0.0079790710906430 6.3112162871090858 14.5692299015547988 7.9644887065894494 0.0000276942542419 2.2550566186007819 0.9147308909149331 0.0000000000000000 -0.0000000000000000 -0.0000000000000000 -0.0000000000000000 
120 2 -0.0192716489064652 -0.4454812503422617 -0.2079552572535125 14.1809478927201891 15.2854477214436635 8.4680210114642200 0.0000329460264099 2.1577784344553366 0.8785644697270314 0.0000000000000000 0.0000000000000000 0.0000000000000000 -0.0000000000000000 
135 2 -0.1986098002115996 -0.4344193516328902 -0.0827322997365836 11.0576596286031617 13.9942638465912434 8.2857091081220222 0.0000255117785916 2.2369246364958846 0.8786624594970432 0.0000000000000000 -0.0000000000000000 -0.0000000000000000 0.0000000000000000 
137 2 0.0441608359811729 0.1421121309706615 -0.0657031329260877 11.8395741658138700 10.9095595687413169 7.3509674902768323 0.0000207195747342 2.4600727752762523 0.9851546402713796 0.0000000000000000 -0.0000000000000000 -0.0000000000000000 0.0000000000000000 
151 2 -0.0724592387342711 -0.4029025658351622 -0.1215499104333976 14.1538673930054468 12.8200932367163905 7.7123592165139341 0.0000229022553828 2.3442414732582284 0.9686844021946895 0.0000000000000000 -0.0000000000000000 -0.0000000000000000 -0.0000000000000000 
195 2 -0.0944560749863304 -0.3422006743689860 -0.1958191921377347 13.9443204115800619 12.7009374600912945 9.6762497255006465 0.0000254422921780 2.2736382332724738 0.8877964257934519 0.0000000000000000 -0.0000000000000000 0.0000000000000000 0.0000000000000000 
201 2 -0.1272372552022542 -0.4044964825299708 -0.1114687796361766 11.2423236507685331 13.7409441166795983 9.4587961485133167 0.0000255832353358 2.2558868124781126 0.9159462117425349 0.0000000000000000 0.0000000000000000 0.0000000000000000 0.0000000000000000 
214 2 -0.1023728634499971 -0.4672582150462258 0.0766150275575923 11.1276980141062349 15.0074762038715299 5.3471063497675138 0.0000274992602277 2.2742647110859422 0.9192994619076453 0.0000000000000000 0.0000000000000000 0.0000000000000000 -0.0000000000000000 
25 1 0.0273085435609315 0.1765442836177351 -0.0299718617211070 0.9849398196155945 1.2868073593855585 10.9496122308235435 0.0000401183047640 2.0406629032894132 0.7593430453179975 0.0000000000000000 -0.0000000000000000 0.0000000000000000 -0.0000000000000000 
28 1 0.1635223230930659 0.1979340194025463 -0.0152764435550245 0.7647876915670052 1.3848707951684969 12.0751345751305674 0.0000395420280368 2.0675392178419321 0.7888118081834591 0.0000000000000000 -0.0000000000000000 0.0000000000000000 -0.0000000000000000 
48 1 0.0563445120957327 0.5366873391524556 -0.0125950335502052 2.3572057777441171 2.7289370367833428 10.7127167975223294 0.0000343655871115 2.0791900775902632 0.7733864574933246 0.0000000000000000 -0.0000000000000000 -0.0000000000000000 0.0000000000000000 
49 1 -0.2080771183299431 0.2676109651878951 -0.0327799355415912 3.8218739392277796 4.6192517518308991 14.6263046563246171 0.0000285647811497 2.2179555971156182 0.8735101231111548 0.0000000000000000 -0.0000000000000000 -0.0000000000000000 0.0000000000000000 
83 1 -0.0527822387567504 0.3816600469158120 0.0016843281054224 3.9026151097453772 3.1752601601730488 10.8890139412291642 0.0000316878026258 2.1759598682845658 0.8637351959379745 0.0000000000000000 0.0000000000000000 -0.0000000000000000 0.0000000000000000 
94 1 -0.0397043826462331 0.4472813258840385 0.0152201785281166 0.5296939064883858 2.2050522542836588 15.4334877202967498 0.0000357789117667 2.0777374549787844 0.8181292077933585 0.0000000000000000 -0.0000000000000000 -0.0000000000000000 0.0000000000000000 
97 1 0.0650082807378120 0.4395343761091027 -0.1359361772885010 1.9621220286769343 2.8089206906427595 15.6174044181918443 0.0000338914947676 2.1259029994846710 0.8350154684547149 0.0000000000000000 -0.0000000000000000 -0.0000000000000000 -0.0000000000000000 
115 2 0.3011679801791374 -0.1807087653414232 0.1095294651183658 4.2912913122785881 0.5570941828004472 12.6022455795309938 0.0000301118782284 2.2907511468589439 0.9770297243455555 0.0000000000000000 -0.0000000000000000 0.0000000000000000 -0.0000000000000000 
130 2 -0.0178372596147938 0.2284999879473646 0.0053336324242974 0.6127880314447277 1.6165087707856580 15.7273472633220930 0.0000375143006093 2.0613249482133211 0.8042012313477612 0.0000000000000000 -0.0000000000000000 0.0000000000000000 -0.0000000000000000 
165 2 -0.4121724907426664 0.3016446658047470 -0.0699904225664342 4.2077917474052988 5.3018401503001531 11.8995148011834040 0.0000264582915362 2.2620499041142734 0.9168361457778142 0.0000000000000000 0.0000000000000000 0.0000000000000000 -0.0000000000000000 
177 2 0.1049444684683782 0.4465169963285494 0.0053138311893123 2.0849862686030760 2.7273566483820231 12.9676201696694910 0.0000340025077262 2.1504696711001365 0.8299312032335844 0.0000000000000000 -0.0000000000000000 0.0000000000000000 0.0000000000000000 
192 2 0.1063171651368864 0.3627237914220018 0.0334166740491438 0.1503308421852370 2.0284188265664334 13.9990898316118741 0.0000368794227869 2.1015110591141113 0.8337164853715886 0.0000000000000000 0.0000000000000000 -0.0000000000000000 0.0000000000000000 
18 1 -0.2006796196698459 0.2318214226414182 0.1627918274095784 10.1532740472814407 3.5842463095339192 11.8504246212869813 0.0000393810347211 2.0788332580459441 0.8345324786038900 0.0000000000000000 0.0000000000000000 0.0000000000000000 -0.0000000000000000 
38 1 -0.1845598642508750 -0.0921077902295515 0.0387110720036176 7.5564541115519308 3.2121452990341979 11.7722142086462362 0.0000331018279334 2.2083307572805562 0.9410796443803321 0.0000000000000000 0.0000000000000000 -0.0000000000000000 0.0000000000000000 
54 1 -0.2850154060785215 -0.0998895178997914 0.0301602336008076 10.0582571644691594 2.8337900663500721 11.3056132941000556 0.0000400078505810 2.0478068116623054 0.8087260011339017 0.0000000000000000 -0.0000000000000000 0.0000000000000000 0.0000000000000000 
70 1 -0.1040440440120272 0.0803959331450145 -0.0229714209687406 5.3510734992823092 3.4759484797145217 13.7363218978270094 0.0000312550186484 2.2353342552937141 0.9190978258649138 0.0000000000000000 0.0000000000000000 0.0000000000000000 -0.0000000000000000 
84 1 -0.2454517781617659 -0.1255928243937490 -0.0460062639068839 7.8192848849626841 2.0736997909128356 15.8995403927878272 0.0000382289919097 2.0456524708853969 0.7643380184535817 0.0000000000000000 0.0000000000000000 0.0000000000000000 -0.0000000000000000 
171 2 -0.2130612527099088 -0.2645329171812416 -0.0913441868240922 7.3152908032441575 1.7440264696697612 13.6259237715487931 0.0000312623722507 2.2012599236524619 0.9436828475036718 0.0000000000000000 0.0000000000000000 0.0000000000000000 -0.0000000000000000 
172 2 -0.3066810812308083 -0.2766413525608476 -0.1371254828458963 7.8445877190719191 1.7246235730094817 15.0601074592529383 0.0000361565137281 2.0678761644695838 0.7987997847230789 0.0000000000000000 0.0000000000000000 -0.0000000000000000 -0.0000000000000000 
187 2 -0.3194455878700253 -0.4671143553559994 -0.0129126725240041 9.5067968844063575 1.6604348105366897 10.8691454109033891 0.0000341415880001 2.1546829455844589 0.9242030078686972 0.0000000000000000 -0.0000000000000000 -0.0000000000000000 0.0000000000000000 
191 2 -0.1265557658201791 -0.0490578309168686 0.0000324987465904 9.4409226175683649 2.3433953755293029 15.2291216249837973 0.0000403799612296 2.0672085869402816 0.7870460047387189 0.0000000000000000 -0.0000000000000000 0.0000000000000000 -0.0000000000000000 
198 2 -0.0990005835407830 0.3358402444427681 0.0036339167290363 8.1329397087581832 4.5547301356932799 15.8403395701234295 0.0000332723388004 2.1934628129436105 0.8848242025473274 0.0000000000000000 -0.0000000000000000 -0.0000000000000000 -0.0000000000000000 
29 1 0.2707865466974053 0.4898717744702467 0.1221181053859553 12.1899856223187175 5.1152064427869126 15.2684815879977140 0.0000257093973925 2.3322280210611934 0.9893664022049425 0.0000000000000000 -0.0000000000000000 -0.0000000000000000 0.0000000000000000 
32 1 0.0476636402834459 -0.1733822366153033 0.0249192475291146 14.4761472012204138 0.0760211354610528 13.4569233689669758 0.0000385331671060 2.1311368906923445 0.8863857323099023 0.0000000000000000 0.0000000000000000 -0.0000000000000000 -0.0000000000000000 
44 1 0.2059456873390690 0.6335055704070486 0.2350832468003599 12.3369644837384111 3.5440894137322996 13.4583356486696193 0.0000389738710834 2.0626573547710900 0.7724252632188964 0.0000000000000000 0.0000000000000000 0.0000000000000000 -0.0000000000000000 
47 1 0.1463909402696318 0.0404161875693373 -0.0272385596273538 13.8549788138908081 1.4426343186404638 11.9837654514942269 0.0000405894807260 2.0970817144282856 0.8531704926868905 0.0000000000000000 0.0000000000000000 -0.0000000000000000 -0.0000000000000000 
60 1 -0.2451314537807324 -0.2277529782943343 -0.1029925662652088 11.2895856735642806 2.0272135177541202 11.4794009870084359 0.0000420073499273 2.0401921161651915 0.7861960949622948 0.0000000000000000 -0.0000000000000000 0.0000000000000000 -0.0000000000000000 
80 1 0.0526989818614294 0.5309522317482973 -0.0370210815811405 15.5134296468542168 4.8587011233388306 14.3644042496698621 0.0000231786376715 2.4899534212968799 1.0513990377030880 0.0000000000000000 0.0000000000000000 0.0000000000000000 0.0000000000000000 
90 1 -0.0726286677726113 -0.0736844810492622 0.1323747545955665 11.9575446940521495 1.2732101357821446 14.3439832452256599 0.0000434045813399 2.0042863366028181 0.7494189982560382 0.0000000000000000 0.0000000000000000 0.0000000000000000 0.0000000000000000 
121 2 0.0173595101491506 -0.0019780755909079 0.2099989868294266 12.0902250082558016 1.2972158890276533 14.8086780424878484 0.0000426850963723 2.0107371783175223 0.7539879550348865 0.0000000000000000 -0.0000000000000000 -0.0000000000000000 -0.0000000000000000 
122 2 0.0160743167635795 -0.0307392971618553 0.2267403490582198 12.0808930363974127 0.9141463598734527 15.3675463570622046 0.0000406745157569 2.0448532223542877 0.7971764242336767 0.0000000000000000 0.0000000000000000 0.0000000000000000 -0.0000000000000000 
126 2 0.2849029902633210 0.4355469310566067 0.0005809556296221 12.3815874862990238 3.7709041631353148 11.1534899016212190 0.0000416713679006 2.0278755807747970 0.7447947036726553 0.0000000000000000 0.0000000000000000 0.0000000000000000 -0.0000000000000000 
142 2 0.1528819386918128 0.5054929612330872 0.1812207744120878 12.2426183496162615 2.9287262106117646 13.7444252894646368 0.0000422401431299 2.0182121973771707 0.7390658066450474 0.0000000000000000 -0.0000000000000000 -0.0000000000000000 -0.0000000000000000 
211 2 0.0603960535166674 0.0037602638218025 0.0799974023746254 12.6022425376393379 1.6146666490556543 13.3660758540691873 0.0000443580853676 2.0021924808434735 0.7448792560790961 0.0000000000000000 -0.0000000000000000 0.0000000000000000 -0.0000000000000000 
33 1 -0.0056940843036013 -0.4342077517321402 -0.4111637070868349 1.4113764055694127 9.9096000114096725 14.2572410001341279 0.0000271505174611 2.2471304034021466 0.8531801276125619 0.0000000000000000 -0.0000000000000000 0.0000000000000000 -0.0000000000000000 
124 2 -0.2851682886857234 0.2068804902229159 -0.1033165377649984 3.5325478582330279 6.2648717875044380 14.4097019950602458 0.0000242183710915 2.3097807432704616 0.9664421583099801 0.0000000000000000 -0.0000000000000000 -0.0000000000000000 0.0000000000000000 
53 1 0.1571750965269333 0.1191989721361085 0.1519853595712164 7.6030019908752777 9.7724095804328517 13.3563175743963960 0.0000283662310934 2.1934161937620789 0.8159295684239365 0.0000000000000000 -0.0000000000000000 -0.0000000000000000 -0.0000000000000000 
73 1 -0.1492442321403080 -0.0155775985038163 -0.0180256265620968 5.8981440761873865 9.5796864646484767 11.9944086400612555 0.0000309090670789 2.1563290501575088 0.7662159864171109 0.0000000000000000 -0.0000000000000000 -0.0000000000000000 0.0000000000000000 
82 1 -0.2288472833681633 0.1652184463944686 0.0395193378609325 5.4150450181514120 5.7056229315779250 13.0576356389947623 0.0000302889386249 2.1616554536152019 0.8344247695776537 0.0000000000000000 -0.0000000000000000 0.0000000000000000 -0.0000000000000000 
88 1 0.1848694760181257 0.2652388292535021 0.2821068245221614 8.2756986586679524 7.4299915274903698 13.0008235482952816 0.0000293870228337 2.1673074929697060 0.8622876828077756 0.0000000000000000 0.0000000000000000 -0.0000000000000000 -0.0000000000000000 
93 1 -0.0359007752515242 0.1842952788893501 0.2445243616682144 7.8477308573714923 6.0606918301292971 12.5660908623568286 0.0000324860641928 2.1529284674319253 0.8795776595524399 0.0000000000000000 -0.0000000000000000 0.0000000000000000 -0.0000000000000000 
157 2 0.1933285195639404 0.2543466128511972 0.2398751133199588 8.6267280516297369 7.9587451351543574 11.6936620977941050 0.0000305435240660 2.1944248385600211 0.8612564220137989 0.0000000000000000 -0.0000000000000000 -0.0000000000000000 0.0000000000000000 
167 2 -0.0234977207213924 -0.0438131032976344 0.2283863852150001 6.2935060439276258 9.0203211276813953 14.7311931621969165 0.0000257021966016 2.3062428483376749 0.9061035699038178 0.0000000000000000 -0.0000000000000000 -0.0000000000000000 0.0000000000000000 
176 2 -0.1175126050271698 0.2026505676215447 0.1991612730247782 6.7581527940682289 6.7453218405947979 13.6513773958777413 0.0000302896960707 2.1647919960875797 0.8428110164993891 0.0000000000000000 -0.0000000000000000 -0.0000000000000000 0.0000000000000000 
7 1 -0.0137949706717401 -0.2565062177824543 -0.1741462003666474 12.8660022017444557 8.7222886625119500 14.5843562584852844 0.0000222402560970 2.3184330436001903 0.9743550949883528 0.0000000000000000 -0.0000000000000000 0.0000000000000000 0.0000000000000000 
59 1 -0.0942478255631948 -0.3979648090436272 -0.1922584098275834 13.4431536145008810 8.6884617482271747 15.3642630684144752 0.0000247095318802 2.2238993045793465 0.8621829944270388 0.0000000000000000 -0.0000000000000000 -0.0000000000000000 0.0000000000000000 
62 1 -0.0313409599715080 -0.5331754626942135 -0.2745462719973023 14.8570411583436872 9.1382607742091917 15.3898677439696971 0.0000288564593925 2.1607898171130238 0.7554095781767552 0.0000000000000000 0.0000000000000000 -0.0000000000000000 -0.0000000000000000 
212 2 0.3527665149872941 0.4795293690975202 0.2327674630529520 12.9058741311153007 6.4498055983094167 12.0085075964534589 0.0000245205636153 2.3394007955915432 0.9540140121289903 0.0000000000000000 -0.0000000000000000 -0.0000000000000000 -0.0000000000000000 
35 1 -0.0349736071602649 -0.0986328487245799 -0.0356854549020951 4.5430448213601329 11.3831979368669209 12.2936254414448864 0.0000306277758771 2.1338180047861308 0.7622528216668268 0.0000000000000000 -0.0000000000000000 -0.0000000000000000 -0.0000000000000000 
42 1 0.0973115623231711 -0.0793695659112467 -0.0260944767220690 3.5888673999874583 11.4278977162656332 14.1928742895477900 0.0000302009684853 2.1736694867323685 0.8222541230169552 0.0000000000000000 -0.0000000000000000 0.0000000000000000 0.0000000000000000 
51 1 0.1501986452799027 -0.1196036278361614 -0.1658402732066409 1.8656104302646153 12.4579806573930831 14.7101992479672070 0.0000322078885926 2.1989986176968861 0.8966308623805798 0.0000000000000000 0.0000000000000000 0.0000000000000000 0.0000000000000000 
117 2 0.0915785499577831 -0.1055765179803932 0.0187233937540028 0.2712683881323142 15.7072344006027542 15.0767912043335084 0.0000355943137440 2.1922206430011109 0.9518697634668736 0.0000000000000000 0.0000000000000000 0.0000000000000000 0.0000000000000000 
118 2 0.0253846884670569 -0.3616664085740184 -0.0788895566606344 0.2046075561260870 14.7061360677486004 11.5491060671358365 0.0000345341245215 2.2054290296301549 0.9091844519961559 0.0000000000000000 -0.0000000000000000 0.0000000000000000 0.0000000000000000 
149 2 0.3221494253497929 -0.1196427641893326 0.0862353477998548 3.1681278214421758 15.4778605275050900 13.3369748871099532 0.0000307217086179 2.2898745676843024 1.0047703398070869 0.0000000000000000 -0.0000000000000000 0.0000000000000000 -0.0000000000000000 
183 2 0.1751535219993071 0.0623010257756511 0.0764345301516035 5.2102500552731854 11.7893847617806653 14.4050833214716043 0.0000283892739908 2.1942089230254562 0.8417149867975114 0.0000000000000000 0.0000000000000000 -0.0000000000000000 -0.0000000000000000 
203 2 0.1581220394069761 -0.2619674998038841 0.0489527592531373 3.1882636255408894 13.8421576749626620 11.3545825499235704 0.0000336336237579 2.1168349433324849 0.8219560445502262 0.0000000000000000 0.0000000000000000 -0.0000000000000000 0.0000000000000000 
10 1 -0.2047047408891068 -0.2269666165069528 -0.1772495827530346 10.2935423904408694 12.8619436843609876 13.0659460887132699 0.0000257035720365 2.2165606131296363 0.9301301875348994 0.0000000000000000 0.0000000000000000 -0.0000000000000000 -0.0000000000000000 
50 1 0.1029633392381010 -0.0273021408229700 0.0234100604206163 8.3350172417180097 11.0917314590289173 14.3786733313144541 0.0000249170320029 2.2885899389585980 0.8925384391546068 0.0000000000000000 -0.0000000000000000 0.0000000000000000 0.0000000000000000 
58 1 0.0477679666930702 -0.1023784532648900 -0.0254166084556865 7.3685863256001429 14.4830898618328732 12.3172086322656256 0.0000236864691588 2.5031707989768952 1.0404696983231527 0.0000000000000000 0.0000000000000000 -0.0000000000000000 0.0000000000000000 
113 2 0.1618305352519698 0.1077922166022665 -0.0002505490144014 5.8777038495668341 12.1152073947491559 13.0384931499443173 0.0000288301567843 2.1789453583460472 0.8093744648172474 0.0000000000000000 -0.0000000000000000 0.0000000000000000 0.0000000000000000 
133 2 0.0587947236417709 -0.2055979002737765 -0.0928764376054349 6.3588132053766255 14.4542748341431491 15.8223067579874783 0.0000251598484533 2.4256321849581703 1.0331175375478432 0.0000000000000000 -0.0000000000000000 0.0000000000000000 0.0000000000000000 
9 1 -0.0151500073728951 -0.1738567160027775 -0.1245487109616839 15.8777738059205333 11.5519935857186322 15.3987177685172227 0.0000360960948350 2.0849000565557887 0.7621407120242585 0.0000000000000000 0.0000000000000000 0.0000000000000000 0.0000000000000000 
24 1 -0.2781876851130178 -0.2898376120168675 -0.1652138796832677 10.8792958699831228 14.0335973954850797 13.0545910176049613 0.0000284770384540 2.2191521362405950 0.9660735956979646 0.0000000000000000 0.0000000000000000 -0.0000000000000000 -0.0000000000000000 
78 1 -0.1354193248974128 -0.4249834464498412 -0.1814189043439559 14.3628276669608468 13.5271987715916016 12.5733533359039917 0.0000321234443606 2.1704740083718548 0.9054247573528733 0.0000000000000000 -0.0000000000000000 -0.0000000000000000 -0.0000000000000000 
92 1 -0.0966299279101299 -0.2944161783813609 -0.0260467172996891 13.3730228893872649 14.4127355452331187 14.9618913599177255 0.0000352148745376 2.1585529524366054 0.9070579648684040 0.0000000000000000 -0.0000000000000000 -0.0000000000000000 -0.0000000000000000 
99 1 0.1073443172152011 0.0425979104498579 -0.0430294480385025 10.8481373917769073 10.8286830804734517 10.9997161844119304 0.0000222613440994 2.4460709788077173 0.9747263431402030 0.0000000000000000 -0.0000000000000000 0.0000000000000000 0.0000000000000000 
101 1 0.0004321719960425 -0.3925328406466801 -0.2868449916129250 15.9257537413092471 11.9204673388597282 13.7463523898838851 0.0000318545006568 2.1495136642654069 0.8350099621795370 0.0000000000000000 -0.0000000000000000 0.0000000000000000 -0.0000000000000000 
106 1 0.0140913277868790 -0.4611899416200425 -0.1900378376964573 15.0515931414745161 11.4376993693628890 11.1457491282317402 0.0000234389786055 2.2985000811721079 0.9290581301280301 0.0000000000000000 0.0000000000000000 0.0000000000000000 -0.0000000000000000 
160 2 -0.1810835307855406 -0.3229283716605941 -0.2097614750363906 10.7094889737362902 13.1617950994887938 12.5205921513885023 0.0000262208657658 2.2023759588526799 0.9378734506451615 0.0000000000000000 0.0000000000000000 -0.0000000000000000 -0.0000000000000000 
163 2 -0.2562483093872274 -0.2700622001837469 -0.1469619243027421 13.1725263549203113 12.2815336819713821 15.2407807391989856 0.0000313247716102 2.2386821534243295 0.8880799715237220 0.0000000000000000 0.0000000000000000 -0.0000000000000000 -0.0000000000000000 
170 2 -0.1168226043773339 -0.3722477825452251 -0.2208448492213310 14.7884971963523597 12.8701740555670199 13.0837205992346295 0.0000319489889700 2.1451226314602101 0.8678852582221828 0.0000000000000000 0.0000000000000000 -0.0000000000000000 0.0000000000000000 
