ITEM: TIMESTEP
0
ITEM: NUMBER OF ATOMS
8
ITEM: BOX BOUNDS pp pp pp
0.0000000000000000e+00 4.8819591223992003e+00
0.0000000000000000e+00 4.8819591223992003e+00
0.0000000000000000e+00 4.8819591223992003e+00
ITEM: ATOMS id type fx fy fz x y z rho_SPH width_SPH omega_SPH u_SPH vx vy vz 
8 3 0.1262181570070260 -0.1446789533894625 0.4207705251261010 1.6803260007827143 0.0926757709304676 1.4016820283688107 0.0000073050525843 2.4334076523829138 0.1749345890651927 0.0000000000000000 -15.0508184605153126 20.5840131626364844 7.8762854058318874 
4 2 -0.0601218602872731 -0.0677948200912509 -0.1323291001784564 2.7270022481356526 1.9337257802056282 0.3127937079036167 0.0000046892824161 2.5802734325657219 0.1593086493101226 0.0000000000000000 3.8587364515162137 9.4370152372069551 8.0029661724122665 
6 3 0.1239951463647171 0.3124056788457667 0.2400985479635781 4.8246916802983826 2.2215343300295416 2.3036231637675928 0.0000055913850840 2.4852189523659689 0.1209544906438746 0.0000000000000000 5.3878960340127691 -19.7543855144476765 -9.5200423293884704 
7 3 -0.0396229662733692 0.2670897663886699 0.1412990202888275 3.3769858722209922 2.1199918628495138 2.9399105237482557 0.0000076078884260 2.4102145732405100 0.1657263164348528 0.0000000000000000 9.6629224265025258 -0.8296276481888255 1.6437569235565781 
1 1 1.9289086869145387 -2.1550704706506223 1.3658047326724903 1.8214807326507032 2.9619344168347586 4.1100761010512503 0.0000000000000000 1.5000000000000000 0.0000000000000000 0.0000000000000000 0.0483305442940756 -0.0568325701698801 0.0337354870151984 
2 1 -1.6806782783935226 2.1413475837007971 -1.6387102439713890 0.8765450937513494 4.1097523503185762 3.3310601555297330 0.0000000000000000 1.5000000000000000 0.0000000000000000 0.0000000000000000 -0.0483305442940758 0.0568325701698802 -0.0337354870151987 
5 2 0.1758493466644400 0.0163410721487792 -0.4341280748580825 1.3575415502453905 3.8120573883794564 3.2139034336416543 0.0000077406976408 2.4029623962590216 0.1619613582291493 0.0000000000000000 16.2865231166437461 9.0679237548820204 -0.5983492498219416 
3 2 -0.5745482319965570 -0.3696398569526766 0.0371945929569310 2.8485877161109334 4.3637470124772992 2.7984897841120846 0.0000080790169295 2.3822611618685947 0.1522346956600662 0.0000000000000000 -20.1452595681599504 -18.5049389920889702 -7.4046169225903320 
