ITEM: TIMESTEP
0
ITEM: NUMBER OF ATOMS
6
ITEM: BOX BOUNDS pp pp pp
0.0000000000000000e+00 4.8819591223992003e+00
0.0000000000000000e+00 4.8819591223992003e+00
0.0000000000000000e+00 4.8819591223992003e+00
ITEM: ATOMS id type fx fy fz x y z rho_SPH width_SPH omega_SPH 
1 1 0.0000024371331469 -0.0000015422255878 -0.0000012952303342 2.7270022481356526 1.9337257802056282 0.3127937079036167 0.0000249078751850 1.7044425160561478 0.7548066458803159 
4 2 -0.0000119991741030 0.0000021195382749 -0.0000104869599215 1.6803260007827143 0.0926757709304676 1.4016820283688107 0.0000245691321849 1.6997383738020770 0.6146414180227352 
2 1 0.0000059744964468 0.0000019444756531 0.0000008642879550 2.8485877161109334 4.3637470124772992 2.7984897841120846 0.0000287992198777 1.6829867796196183 0.6203867774425066 
3 1 -0.0000088848616216 0.0000014410483236 0.0000095403292440 1.3575415502453905 3.8120573883794564 3.2139034336416543 0.0000271241307954 1.6894170189609401 0.6274060653335048 
5 2 0.0000017313264092 -0.0000008098722516 -0.0000055784309323 4.8246916802983826 2.2215343300295416 2.3036231637675928 0.0000262936832281 1.6949024017355767 0.6848217771644776 
6 2 0.0000107410797218 -0.0000031529644122 0.0000069560039889 3.3769858722209922 2.1199918628495138 2.9399105237482557 0.0000282597564970 1.6837113419761853 0.5776738824873400 
