ITEM: TIMESTEP
0
ITEM: NUMBER OF ATOMS
216
ITEM: BOX BOUNDS pp pp pp
0.0000000000000000e+00 1.6119873854239600e+01
0.0000000000000000e+00 1.6119873854239600e+01
0.0000000000000000e+00 1.6119873854239600e+01
ITEM: ATOMS id type fx fy fz x y z rho_SPH width_SPH omega_SPH u_SPH vx vy vz 
13 1 0.1129167801122099 0.2499069825911284 -0.2061850076475270 2.6422971990109443 2.3570599298790533 1.0203444206404955 0.0000358516921007 2.1080440741873887 0.8072848196723793 0.0000000000000000 -0.0000000000000000 -0.0000000000000000 0.0000000000000000 
31 1 0.1011184542790690 -0.0541022859196948 -0.1161416167205005 5.3020601851221141 2.1455141718219410 1.8603876265025916 0.0000315150013162 2.2310623166424204 0.9663858639623975 0.0000000000000000 -0.0000000000000000 -0.0000000000000000 0.0000000000000000 
36 1 -0.0488189854693716 0.3540894331446901 0.0965096875386933 1.9277928457431122 5.0325787760239589 4.9033409545700444 0.0000325818101586 2.0898206196711921 0.7288581295999199 0.0000000000000000 -0.0000000000000000 0.0000000000000000 0.0000000000000000 
67 1 -0.1023054720515116 0.1044800955392888 -0.0564036676939930 1.4116796522883779 1.0405567396584250 2.8446568029148800 0.0000435142579115 2.0030763222292070 0.6950204010948373 0.0000000000000000 -0.0000000000000000 0.0000000000000000 -0.0000000000000000 
79 1 0.0619443054076302 0.1896329628925609 -0.0059600962185293 2.3702874984034468 1.7430266269537953 3.1159600184390563 0.0000414810678420 2.0266253520104995 0.7372317869792562 0.0000000000000000 -0.0000000000000000 0.0000000000000000 0.0000000000000000 
96 1 -0.3298738516740689 0.1929452359795188 0.1251629517817413 0.3119370262289295 2.1142349172283943 5.0281896321167805 0.0000344569425061 2.1284211626947487 0.8422726409756314 0.0000000000000000 0.0000000000000000 0.0000000000000000 -0.0000000000000000 
154 2 -0.0705652477403625 0.2563148931553441 -0.0840412360512133 5.3534048257681235 4.3756463838727440 1.1744113388356938 0.0000294818826368 2.2360190555013784 0.9538170348559524 0.0000000000000000 0.0000000000000000 0.0000000000000000 -0.0000000000000000 
159 2 -0.1127523495678197 0.3156286841215846 -0.0824723799157429 4.1783585018377991 4.4686523573388648 1.5125502851299508 0.0000290321790775 2.2443918900975257 0.9561193132300643 0.0000000000000000 0.0000000000000000 0.0000000000000000 -0.0000000000000000 
168 2 -0.0523789564082895 0.0684759600080161 0.1227255965612004 1.9881685722128066 1.0961176096481346 4.7924715230552266 0.0000391764044706 2.0672670081838254 0.7976654540810384 0.0000000000000000 0.0000000000000000 0.0000000000000000 -0.0000000000000000 
174 2 0.0704268880066375 0.1256602522534289 -0.0088484158329977 2.3021647030174410 1.3338126121690308 3.3159681489480408 0.0000427528442926 2.0083524970493585 0.7194239823393050 0.0000000000000000 0.0000000000000000 -0.0000000000000000 -0.0000000000000000 
182 2 -0.0083197214825999 0.0290918625772297 -0.1402378290397363 1.2890028152790867 0.7100169282737090 1.1529071893382350 0.0000392668023803 2.0652412965874349 0.7813598493951648 0.0000000000000000 -0.0000000000000000 -0.0000000000000000 0.0000000000000000 
185 2 -0.3170790303816952 0.3315009442190954 -0.0376145050473232 0.1795237746375971 3.8781558421655533 4.7556250230401105 0.0000309427404290 2.1469400676303625 0.8300405161949512 0.0000000000000000 0.0000000000000000 0.0000000000000000 0.0000000000000000 
196 2 0.1551264795974349 -0.1963111575258297 -0.2358130776421501 4.8965252825098480 0.9828835007325716 0.8882595524076101 0.0000300587066360 2.2611926840027050 0.9574388027634896 0.0000000000000000 -0.0000000000000000 0.0000000000000000 0.0000000000000000 
30 1 -0.2063451929866652 0.2133253945918892 -0.2130666279668241 6.6013300895145788 4.8353118791150207 3.4026530643337649 0.0000317057735382 2.2560076288659063 0.9481570568620734 0.0000000000000000 -0.0000000000000000 0.0000000000000000 0.0000000000000000 
34 1 -0.2377788495428971 -0.2206237457323525 -0.0504151387656539 8.0033402429468730 1.6804751988216569 0.0437634492384734 0.0000368818643828 2.0611400572569170 0.7736292323938433 0.0000000000000000 -0.0000000000000000 0.0000000000000000 0.0000000000000000 
57 1 -0.0218662515746340 -0.2288325696482927 0.1648674648861331 9.8173600005719681 0.9754594946083532 1.7571514327643134 0.0000364419177850 2.1079658158961752 0.8218790017903586 0.0000000000000000 -0.0000000000000000 0.0000000000000000 -0.0000000000000000 
108 1 -0.0384388377873272 -0.1508678136460253 0.1091597261109925 9.2541014426880768 1.5090840496041449 3.0588425168691424 0.0000344850077744 2.1554069226412498 0.8858024650906049 0.0000000000000000 0.0000000000000000 -0.0000000000000000 0.0000000000000000 
111 2 0.2982715378347902 -0.2719436650692484 -0.0971671271832604 5.5271454889503602 0.0273919481584866 4.7764726996836648 0.0000314382977560 2.2018549355602426 0.9153139592594713 0.0000000000000000 0.0000000000000000 -0.0000000000000000 0.0000000000000000 
123 2 0.1976598526708726 -0.0585408296094519 -0.1357876503781035 9.7847052974923265 4.4002271195643008 5.2460469267436167 0.0000384010685248 2.0651164853849382 0.8018718122442448 0.0000000000000000 0.0000000000000000 0.0000000000000000 0.0000000000000000 
184 2 0.1394148178804106 0.2437250310686407 -0.0024115411253041 9.4140579966667399 3.8275908264372247 1.3762865179334285 0.0000371075506047 2.1038367624595553 0.7893346540644895 0.0000000000000000 -0.0000000000000000 -0.0000000000000000 -0.0000000000000000 
188 2 0.3888956206035111 0.1416801649705722 -0.2211702681986811 10.5091679847979940 5.2584651116655294 5.2273463669569615 0.0000366512871453 2.0652182717371952 0.7872011264160987 0.0000000000000000 -0.0000000000000000 -0.0000000000000000 -0.0000000000000000 
207 2 0.0109087979771471 -0.0442088832345471 -0.0622041167752129 8.9379748397051699 3.5617107642105155 3.8335555790131877 0.0000368593783898 2.1186481052884805 0.8413329756306788 0.0000000000000000 0.0000000000000000 -0.0000000000000000 -0.0000000000000000 
66 1 0.1364174758207586 -0.1996083986139275 0.1408313036661091 10.9739456639508823 0.8324227688192530 3.4335457975154222 0.0000324860218015 2.1929336733679894 0.8993188307407366 0.0000000000000000 0.0000000000000000 -0.0000000000000000 0.0000000000000000 
114 2 0.2603867514722795 0.5122242429772216 0.1480244355500090 10.8358884977169296 4.3573732244494945 0.0189346614198937 0.0000316468698259 2.1866853047874431 0.8772241105427885 0.0000000000000000 -0.0000000000000000 -0.0000000000000000 0.0000000000000000 
143 2 0.2417180168564483 0.2483398977708247 0.1774046817169426 11.7244632161986253 2.3127575102415325 1.5828918475325260 0.0000325343821880 2.2247920516493114 0.9162293127326523 0.0000000000000000 0.0000000000000000 0.0000000000000000 -0.0000000000000000 
155 2 -0.1519342059965393 -0.1208705884894409 0.1338704219353908 14.5297596666790678 0.0272504128521646 3.7270235926006468 0.0000316469480263 2.1639081104629794 0.8971918868948614 0.0000000000000000 0.0000000000000000 -0.0000000000000000 0.0000000000000000 
210 2 -0.0525209005925998 0.2184157445791101 0.0292539687843762 13.8512531882853729 1.9461854010566619 3.9922192665228486 0.0000292851931738 2.2754507538437059 0.9801290701711753 0.0000000000000000 0.0000000000000000 -0.0000000000000000 -0.0000000000000000 
41 1 -0.0308736938039286 -0.1549925584466374 -0.0735208234495619 1.0782354776648679 7.9711375073393862 1.7159786846990093 0.0000257167572571 2.2778379024198854 0.8758837067602412 0.0000000000000000 0.0000000000000000 -0.0000000000000000 -0.0000000000000000 
76 1 0.0112735911610962 0.1373840477341911 -0.0058454091231064 5.2920474697591793 8.5028162330752970 2.5021335507549671 0.0000226274780070 2.4458509058369131 1.0349388593076696 0.0000000000000000 0.0000000000000000 -0.0000000000000000 0.0000000000000000 
77 1 -0.0668811126312925 0.2350570932274486 -0.1044198737498448 1.8514835599990269 5.6588811938908403 3.3958183165855376 0.0000290992538351 2.1740763947944415 0.8309615757880701 0.0000000000000000 0.0000000000000000 -0.0000000000000000 0.0000000000000000 
131 2 0.2334409032745643 -0.2788730463727793 0.0154552244729014 2.3412821543396607 10.3107824997954989 0.0737566144275703 0.0000319235651320 2.1318160377712654 0.7447206602870611 0.0000000000000000 0.0000000000000000 -0.0000000000000000 -0.0000000000000000 
139 2 -0.1133690676859568 0.1886001218409488 0.0018325463479233 1.6163234297269307 6.6740055930163615 3.7379235012715704 0.0000274762564160 2.1886730076484833 0.8196173371585256 0.0000000000000000 -0.0000000000000000 -0.0000000000000000 -0.0000000000000000 
202 2 -0.0007596740535155 -0.1018435938655739 -0.1540706915424863 2.5006341978155811 7.6982947819458607 0.5391533250781122 0.0000240308082083 2.3410335601200978 0.9509675255634182 0.0000000000000000 -0.0000000000000000 0.0000000000000000 0.0000000000000000 
2 1 0.0600213083614927 0.4401598683216941 -0.1353955132910142 8.9494669335759340 6.5124860941515186 0.9428025479743967 0.0000269189749438 2.2656962665403446 0.9378397245803844 0.0000000000000000 -0.0000000000000000 0.0000000000000000 0.0000000000000000 
12 1 -0.0446086934398823 0.4153719302924537 -0.0963541532041627 8.9060652041881863 8.9372235048123247 3.8141513659103872 0.0000242034558950 2.3809384619443406 0.9297347518039497 0.0000000000000000 -0.0000000000000000 -0.0000000000000000 0.0000000000000000 
17 1 -0.1023199282597688 0.3322426964378691 -0.1601166182001863 6.2616955152652363 8.6645458340843380 4.3552531126608045 0.0000245957814813 2.2945695815652893 0.9245020468402354 0.0000000000000000 0.0000000000000000 0.0000000000000000 0.0000000000000000 
64 1 -0.0713075327416031 0.4149144192770408 -0.2703671082490652 8.1177574730707089 6.8063206427781813 2.6099578615075494 0.0000295259501950 2.1958174760025848 0.8608079764705737 0.0000000000000000 0.0000000000000000 0.0000000000000000 0.0000000000000000 
119 2 0.0096327005427818 0.2320805137307037 -0.2516365580457968 9.0499811252457718 5.7062370448195461 4.3939304955202818 0.0000398739624877 2.0258063650600562 0.7008971983596003 0.0000000000000000 -0.0000000000000000 0.0000000000000000 0.0000000000000000 
152 2 0.4074556282065503 0.2886001439343969 -0.2264161423912104 10.3626080903741347 5.3903679881383484 2.5379131096817069 0.0000316359000259 2.1463037207856752 0.8155439592757074 0.0000000000000000 -0.0000000000000000 0.0000000000000000 -0.0000000000000000 
216 2 0.1216563821149464 0.2247611994358703 -0.2895031259045351 9.3884217088762512 5.5654399485494324 3.7963194332624353 0.0000386316455201 2.0271431115716716 0.6886501238035295 0.0000000000000000 0.0000000000000000 0.0000000000000000 -0.0000000000000000 
20 1 -0.0405420884542990 -0.0077782751481778 0.2882080713372641 13.8932106997525047 9.9487868660002423 3.5683576726336126 0.0000251652626835 2.2034769211019043 0.8400735522339696 0.0000000000000000 -0.0000000000000000 0.0000000000000000 -0.0000000000000000 
21 1 -0.0816170985684969 -0.2050060575976323 0.1935778634005478 13.9883477123989675 9.0818565370724080 2.7302857945156500 0.0000265098238722 2.1795976106144797 0.7858981024168972 0.0000000000000000 0.0000000000000000 -0.0000000000000000 0.0000000000000000 
102 1 -0.1129838260103019 -0.0568905319266875 0.0051567101458428 15.0808042351841607 7.3373953242171126 3.2155456381870420 0.0000234221817222 2.3303214022062244 0.9250719438747753 0.0000000000000000 -0.0000000000000000 -0.0000000000000000 0.0000000000000000 
169 2 -0.0561861848802755 0.2373289120102013 0.0671585222143169 15.7828329523266699 6.0393760483193990 5.3021596896779437 0.0000261638368614 2.2377551034994250 0.8273196744437187 0.0000000000000000 -0.0000000000000000 -0.0000000000000000 0.0000000000000000 
178 2 -0.1980296187432622 -0.1760412094381252 0.1871618643919732 12.8281353117666441 10.0646436855168577 2.3959987964688598 0.0000274901785626 2.1701578822357277 0.7727465793387257 0.0000000000000000 0.0000000000000000 0.0000000000000000 -0.0000000000000000 
194 2 -0.1476344282958095 -0.3064982987414827 0.1318239275214608 15.2078873084110633 10.3519418350427070 0.8506879615224836 0.0000344522585463 2.0841815056860300 0.7041047536324601 0.0000000000000000 0.0000000000000000 -0.0000000000000000 -0.0000000000000000 
37 1 0.0816728723834664 -0.3815982210050181 0.2341334315838351 2.1841622317899922 13.1533428550274003 3.3760681254575968 0.0000314774916218 2.1390067735514240 0.8281359778244788 0.0000000000000000 0.0000000000000000 0.0000000000000000 -0.0000000000000000 
39 1 0.1736442173353938 -0.2798569075864473 0.0149345467386887 3.0911152771723454 15.9913751737272811 4.2785138193352026 0.0000389733063460 2.0801578423236320 0.7803712144889952 0.0000000000000000 0.0000000000000000 0.0000000000000000 0.0000000000000000 
45 1 0.3165751654300367 -0.0855257957481687 0.0968854730457800 4.0498825311653341 11.2152956828658326 1.0343578413128440 0.0000271075293383 2.2409934394697988 0.8688009825854883 0.0000000000000000 -0.0000000000000000 -0.0000000000000000 0.0000000000000000 
89 1 0.2752670351096720 -0.1639973449918537 -0.0198665196647602 2.5507810435399576 13.7447254615917398 1.9390979627898237 0.0000331316782354 2.1442158770864310 0.8480361898020886 0.0000000000000000 -0.0000000000000000 0.0000000000000000 0.0000000000000000 
141 2 0.3020223721527693 -0.2492660487023887 0.2037842510888790 2.5828560717207893 11.4726254493221198 1.8476575495019991 0.0000308474891455 2.1432017345405789 0.7809328535493093 0.0000000000000000 0.0000000000000000 -0.0000000000000000 0.0000000000000000 
148 2 0.0731616378943394 -0.2056923075943738 0.2526637911643671 0.9686818554517462 10.8075146055984899 1.5896734984686840 0.0000328865440625 2.1274516479569971 0.7668612683477307 0.0000000000000000 -0.0000000000000000 -0.0000000000000000 0.0000000000000000 
197 2 0.3411162098107761 -0.2734488834179628 -0.1333678936847685 3.5112337762652079 14.8939523146773212 1.7834174778893075 0.0000317797430853 2.2133379685340211 0.9044149541917896 0.0000000000000000 0.0000000000000000 0.0000000000000000 0.0000000000000000 
199 2 0.2771923379550330 -0.2364986806891972 0.1754140876329853 4.9306273987173910 11.7453500753267335 3.6850107473952400 0.0000219479177245 2.4084372579707023 0.9611290485148425 0.0000000000000000 -0.0000000000000000 0.0000000000000000 0.0000000000000000 
213 2 -0.0794534043103877 -0.3701591210061826 0.2759362896746411 1.4669639946827380 13.4082837344816923 3.5074862896388339 0.0000311943705097 2.1624174014827684 0.8658231787382817 0.0000000000000000 -0.0000000000000000 0.0000000000000000 0.0000000000000000 
11 1 -0.1916488414517726 -0.1705707639147102 0.0189200578028911 9.4171411198854340 11.2210325458300026 0.2531829513010735 0.0000242166789738 2.2620413408592155 0.8908604689576822 0.0000000000000000 0.0000000000000000 0.0000000000000000 -0.0000000000000000 
95 1 -0.2088588170143238 -0.1362406817237562 0.0972581340878662 9.9620656309648172 11.4215329339786038 1.1654082186358741 0.0000257929872216 2.1825471274240016 0.8020862691868790 0.0000000000000000 0.0000000000000000 -0.0000000000000000 -0.0000000000000000 
104 1 -0.2041783518370851 -0.4153911796426181 0.0637705875142675 8.5290490407551616 15.4360492059291410 1.6960747598751356 0.0000294842876846 2.2068574174373716 0.8994372822873402 0.0000000000000000 -0.0000000000000000 -0.0000000000000000 0.0000000000000000 
128 2 -0.0429506083498100 -0.5240582817452548 0.0885230331849652 9.3196940632366410 15.3722047921963973 4.9563846042542972 0.0000269166348710 2.2792537822386740 0.9336608289760018 0.0000000000000000 0.0000000000000000 0.0000000000000000 0.0000000000000000 
138 2 -0.1988499053590308 -0.0807534110412020 0.2085365034609580 9.6616117621335942 12.0094607630050749 2.8715607227121205 0.0000231490470605 2.2583418149958918 0.8645817848899804 0.0000000000000000 0.0000000000000000 -0.0000000000000000 -0.0000000000000000 
150 2 -0.2398709417853651 -0.3232424001532119 0.0541486045273521 9.2698828583512523 14.5530136597891318 1.2918144917665344 0.0000285716382796 2.2179169911605805 0.8726955787077781 0.0000000000000000 0.0000000000000000 0.0000000000000000 0.0000000000000000 
153 2 0.2023725430224107 -0.2508033615342888 -0.0013890719702963 6.0043947090381415 13.7588065423476404 3.4711181697321898 0.0000236624434287 2.4058166703665478 0.9818336468041103 0.0000000000000000 -0.0000000000000000 -0.0000000000000000 0.0000000000000000 
22 1 -0.1422794013074985 -0.1681844063253476 0.2253574047674758 14.1975881171391336 14.7386414857605850 1.8522403662263400 0.0000311030746359 2.2192592946677774 0.9694534677588044 0.0000000000000000 -0.0000000000000000 -0.0000000000000000 0.0000000000000000 
52 1 -0.0778741056968938 -0.0167445168978971 0.2533142579720382 11.1493290770786562 11.4446580272463319 2.9607084708819360 0.0000251528046897 2.1983377129689785 0.8004701130568034 0.0000000000000000 0.0000000000000000 0.0000000000000000 0.0000000000000000 
61 1 -0.2112727670463786 -0.1733875438859967 0.2224516726539951 11.9348794004342942 11.8040565687802506 1.6905966341040948 0.0000285294191648 2.1814175910205718 0.7991254209578846 0.0000000000000000 0.0000000000000000 0.0000000000000000 -0.0000000000000000 
145 2 -0.0498563979729108 -0.1957248235346996 0.1717212853856514 12.8426104647823713 15.3712466577495164 0.4870901047766498 0.0000343546118647 2.1516429829236055 0.8959420582327794 0.0000000000000000 -0.0000000000000000 -0.0000000000000000 0.0000000000000000 
147 2 -0.1660539333413302 -0.2432824647258743 0.1760671781820867 11.2458426754568759 14.3171577359364317 1.0638370085692217 0.0000310038031364 2.2154930894709066 0.8856420400329803 0.0000000000000000 -0.0000000000000000 0.0000000000000000 -0.0000000000000000 
181 2 -0.2419467505464825 -0.1115507651618231 0.1339384682845116 15.0978901615918293 15.8538747326404295 2.9527750766902896 0.0000338778536100 2.1106584620627218 0.8477528616373927 0.0000000000000000 0.0000000000000000 -0.0000000000000000 -0.0000000000000000 
190 2 -0.2889490538325090 -0.1322294656778960 0.0215230198173778 16.0417810347850853 15.9312082212341686 2.5137475493092682 0.0000375414464680 2.0805788694609175 0.7961346568818921 0.0000000000000000 -0.0000000000000000 -0.0000000000000000 0.0000000000000000 
193 2 -0.0967589508462409 -0.1413719196833553 0.1111457140190074 15.5640077072121414 11.0775643516336739 0.6520161209314064 0.0000354947426909 2.0800413518629535 0.7350700452105161 0.0000000000000000 0.0000000000000000 0.0000000000000000 -0.0000000000000000 
26 1 -0.1125459179111507 0.3625448319238648 0.2595947914828448 2.5493620890468631 4.9077104145810004 6.0067308274475639 0.0000297388182804 2.1659898540993465 0.8411508852085925 0.0000000000000000 0.0000000000000000 -0.0000000000000000 -0.0000000000000000 
72 1 -0.0785729830814846 0.1518034653642567 0.0998538065533507 4.7836240080694665 2.7678841914717407 8.7430664861925198 0.0000325291458871 2.1640681335460084 0.8895098254551175 0.0000000000000000 0.0000000000000000 -0.0000000000000000 -0.0000000000000000 
91 1 -0.2080462090112502 0.2867137460338144 0.0247064495846274 3.9378810312547050 5.2830591866641896 5.6329578827593814 0.0000299642140116 2.2048423301879985 0.8914935350938545 0.0000000000000000 -0.0000000000000000 -0.0000000000000000 0.0000000000000000 
140 2 0.0711018358367774 0.0564955763636148 0.0169313284711027 5.0277286101544219 1.4623142293988693 5.8394834928854999 0.0000333741842271 2.2152727002517283 0.9311524405045871 0.0000000000000000 -0.0000000000000000 0.0000000000000000 -0.0000000000000000 
156 2 -0.0193276113228465 0.5678227680513174 -0.0609860120753501 1.3775289110241111 3.0192089418181549 10.4464593846054914 0.0000302127382815 2.1551490300416516 0.8662667438038736 0.0000000000000000 0.0000000000000000 -0.0000000000000000 -0.0000000000000000 
164 2 -0.1981770145053756 0.3499644445715678 0.2058158084607136 0.9810655252271259 3.3650934664347560 5.6039945948195884 0.0000322804161961 2.1323325331688299 0.8523189657265325 0.0000000000000000 -0.0000000000000000 -0.0000000000000000 0.0000000000000000 
173 2 0.0588105774165780 0.2332157002803594 -0.0339947764998639 2.3137913148375109 1.3056834076233268 10.4014203626275155 0.0000387098267325 2.0484530148826159 0.7432421294939389 0.0000000000000000 0.0000000000000000 -0.0000000000000000 0.0000000000000000 
16 1 -0.2243686808668104 0.0547462411249237 0.0276056906882243 5.9475958402047162 4.3332800421516176 6.6160467536752705 0.0000344041470502 2.0998098117250130 0.8678850031349422 0.0000000000000000 -0.0000000000000000 -0.0000000000000000 -0.0000000000000000 
40 1 -0.1842396763061152 0.0350873685636131 -0.0074343788071555 6.0900295485517715 4.1793796438763939 6.2108032783295037 0.0000344236411456 2.1127840660718049 0.8869920156516158 0.0000000000000000 0.0000000000000000 -0.0000000000000000 -0.0000000000000000 
55 1 0.1115861106844703 -0.4188494617390361 0.0176683523642838 7.6807065368133367 0.2489761353685778 6.2157142034751569 0.0000299014355094 2.2199088266663995 0.9048578897645183 0.0000000000000000 -0.0000000000000000 -0.0000000000000000 0.0000000000000000 
65 1 -0.0453740751960937 -0.3043735619790723 -0.0113925775821988 9.2608897554653371 1.4608304499034825 6.3325190191696921 0.0000328182531030 2.1964693238357498 0.9117721040593737 0.0000000000000000 -0.0000000000000000 0.0000000000000000 -0.0000000000000000 
85 1 -0.1269650634497276 -0.2175067316696958 -0.0785042483986758 10.0535559170793682 2.3076018644950489 8.7376303455959441 0.0000349535502392 2.1891368134217979 0.9300914540683328 0.0000000000000000 0.0000000000000000 -0.0000000000000000 -0.0000000000000000 
103 1 -0.2029843975206168 0.0486027224698284 -0.0222924871875263 7.5166287179083380 5.2744731963629983 6.6550307616993152 0.0000377788549433 2.1169097598623878 0.8438984057072282 0.0000000000000000 0.0000000000000000 -0.0000000000000000 0.0000000000000000 
105 1 0.0833706481961174 -0.0042486578277327 0.1784629932312671 5.6701556239580730 2.0939946597932715 9.3555500117988579 0.0000327645532336 2.1565989035319886 0.8806001244404580 0.0000000000000000 0.0000000000000000 0.0000000000000000 -0.0000000000000000 
112 2 -0.2159299882059830 -0.0095524312624339 0.0790321942011089 8.0586138877203499 4.4160449949573124 10.3185352303197391 0.0000340655599901 2.2113648426313182 0.9452914960028482 0.0000000000000000 0.0000000000000000 -0.0000000000000000 -0.0000000000000000 
125 2 0.1300275918061501 -0.1837537385870180 0.1687652554588392 6.4575244337059692 1.1371985790647607 9.1374803317071862 0.0000312332203630 2.2045800793224792 0.9077972208697448 0.0000000000000000 -0.0000000000000000 0.0000000000000000 0.0000000000000000 
136 2 -0.2232490569468200 0.0499529053342965 0.1421593050255965 5.8410286485644178 4.1461850350429508 7.7178428178929996 0.0000334419654693 2.1280896282937700 0.8863371650187789 0.0000000000000000 0.0000000000000000 0.0000000000000000 0.0000000000000000 
158 2 -0.0822952277596968 -0.3598293216650334 -0.0012296117985932 8.6499178635853511 1.3912785563581906 8.3208511901291473 0.0000318946938544 2.2087757821735057 0.9406611794032673 0.0000000000000000 0.0000000000000000 0.0000000000000000 -0.0000000000000000 
8 1 0.1085075189070573 -0.1125871769700629 -0.2471262099471322 12.2832456460860246 1.6731386740164134 5.8674951049737940 0.0000332308680251 2.1410557744348275 0.8543749489290717 0.0000000000000000 -0.0000000000000000 0.0000000000000000 0.0000000000000000 
15 1 0.1128966754146607 -0.0729247928706929 -0.1722807915952286 14.4744672845086573 1.1130457835427450 8.5465607934565071 0.0000356088390305 2.0890789698677876 0.8336113176842858 0.0000000000000000 0.0000000000000000 0.0000000000000000 -0.0000000000000000 
19 1 0.0831458151154225 -0.0375902932877887 -0.1951787855760070 13.7178656765194820 1.4120573451492433 8.2326034623208493 0.0000368532135018 2.0638134548956053 0.7902921222736503 0.0000000000000000 -0.0000000000000000 0.0000000000000000 0.0000000000000000 
75 1 0.1688905340995861 0.2526792503336809 -0.0619949565826243 12.2760030193636300 3.6737539506070060 10.6613710126680701 0.0000415925779590 2.0248988337427369 0.7380048006545108 0.0000000000000000 -0.0000000000000000 -0.0000000000000000 -0.0000000000000000 
87 1 0.0633010174195756 -0.0913862856329693 -0.0867733009537493 14.7006240185642092 0.8459834714370260 10.4795016671020207 0.0000369510553476 2.1285149666799636 0.8783438857293723 0.0000000000000000 -0.0000000000000000 -0.0000000000000000 -0.0000000000000000 
100 1 0.3741244797760105 0.3544772528065847 -0.0641448865427656 12.8295946124228557 4.6131853225382402 9.8900802382821045 0.0000361025974499 2.0949200036362416 0.8015878456717956 0.0000000000000000 0.0000000000000000 0.0000000000000000 0.0000000000000000 
127 2 0.0710534046442792 -0.1446398234660001 -0.1326447424012249 11.6252209077335760 1.7012241416305542 6.8154080484636310 0.0000351834091741 2.1206737033846288 0.8500247834555674 0.0000000000000000 0.0000000000000000 0.0000000000000000 0.0000000000000000 
166 2 -0.0780145963893476 -0.3656663118499435 -0.1266383054215295 12.3720961893461396 0.0176478732690946 7.2021294744319295 0.0000332472437859 2.1293859525535863 0.7935607775790526 0.0000000000000000 -0.0000000000000000 0.0000000000000000 -0.0000000000000000 
179 2 0.3917944980611228 0.1522136502499525 -0.1300347649221690 12.1496414376696809 4.8692261526975544 7.5569478134901447 0.0000329829810125 2.2396889580754573 0.9351287939412972 0.0000000000000000 -0.0000000000000000 -0.0000000000000000 0.0000000000000000 
204 2 0.2323137254444337 0.1756048458782750 -0.1776336876352986 13.5190916042385965 2.5790115209479483 9.9405403999445578 0.0000384204308431 2.0873764835226147 0.8172266163964361 0.0000000000000000 -0.0000000000000000 0.0000000000000000 0.0000000000000000 
205 2 0.1176575906578240 -0.0300412218200289 -0.1922078051662731 13.8848719721743397 1.5367077856317131 7.0546321592602954 0.0000341365803790 2.1070001698463319 0.8288145643521987 0.0000000000000000 0.0000000000000000 -0.0000000000000000 -0.0000000000000000 
4 1 -0.2204321940401878 -0.1726098811006223 -0.1898577846686638 4.6535435326456982 10.5703223987151684 10.6403213802995698 0.0000255866022748 2.2393633749729074 0.8530811125439171 0.0000000000000000 -0.0000000000000000 -0.0000000000000000 0.0000000000000000 
63 1 -0.0676845297472962 0.1493063912653348 0.2376963719156472 1.7271929777173964 8.4439801123759253 6.3973979598990196 0.0000211365606861 2.3662132247186345 0.9332113114586423 0.0000000000000000 0.0000000000000000 0.0000000000000000 -0.0000000000000000 
68 1 -0.1655191182605380 0.1432100221189086 0.0687485035304503 3.8702895132618402 9.2314071144997261 6.5908772797619015 0.0000224011869521 2.2734387766548272 0.9144853475868456 0.0000000000000000 0.0000000000000000 0.0000000000000000 0.0000000000000000 
109 2 0.1403068752912463 0.2587166453642875 0.2322619635731863 0.0636660909520302 7.3665868746458347 7.5426700566994338 0.0000212469674695 2.2947452541484115 0.8548789169654619 0.0000000000000000 0.0000000000000000 -0.0000000000000000 -0.0000000000000000 
116 2 -0.2924012658104387 0.1548655638460054 0.1146420870047103 4.1417464427483779 8.7701536787210159 7.1712747818529614 0.0000233869901767 2.2485189638004655 0.8775837918738622 0.0000000000000000 -0.0000000000000000 0.0000000000000000 -0.0000000000000000 
6 1 -0.2312047058581232 0.3710981822743480 -0.0887467254933230 6.2587178288341940 9.1750379062874821 7.9014848635970916 0.0000275224766015 2.2153465834331367 0.8328226247057814 0.0000000000000000 0.0000000000000000 -0.0000000000000000 0.0000000000000000 
43 1 0.1471257002575569 0.3593824157212949 -0.0265532366191713 9.4651169008495994 7.0610268615406104 7.9236149198070125 0.0000398752662090 2.0325891673628971 0.7311084787959976 0.0000000000000000 0.0000000000000000 0.0000000000000000 -0.0000000000000000 
46 1 -0.1256056718855974 0.5094174658335893 -0.1710627334727038 7.7547810658903753 8.6296779939751538 6.6494460654253285 0.0000308773198987 2.1578671929664166 0.7907687344545283 0.0000000000000000 -0.0000000000000000 -0.0000000000000000 0.0000000000000000 
69 1 -0.2869454050601972 0.3842116172131381 -0.1295538844518632 6.4721717309465507 7.7490251795694363 6.0822971235292611 0.0000312138981041 2.1774985508378242 0.8164395071585924 0.0000000000000000 0.0000000000000000 -0.0000000000000000 -0.0000000000000000 
86 1 -0.0046571534379106 0.4753359122428356 -0.0487129422114826 8.8856246694716479 7.6120901819814977 7.8038088158149650 0.0000389047154183 2.0343776846018522 0.7126696231854268 0.0000000000000000 0.0000000000000000 -0.0000000000000000 -0.0000000000000000 
107 1 -0.4027467505905449 0.0943762483214358 -0.0485055268742069 5.4655759907276860 8.5827803231533899 9.9860380931047494 0.0000265329346938 2.2622901739527959 0.8751985477653960 0.0000000000000000 0.0000000000000000 0.0000000000000000 -0.0000000000000000 
134 2 0.1322930132811450 0.5299251801758742 0.0177505397392081 9.3977547409548894 9.5127742567730795 9.3227491148557835 0.0000273574667851 2.2407295139681978 0.8796130543721221 0.0000000000000000 -0.0000000000000000 0.0000000000000000 0.0000000000000000 
146 2 -0.1482642019476642 0.0714779336748906 0.2230183485628418 8.4128018881370501 6.1477583838642831 9.0594629753137585 0.0000370908039941 2.1261609385832978 0.8678252460689637 0.0000000000000000 -0.0000000000000000 0.0000000000000000 -0.0000000000000000 
175 2 0.1265414589294503 0.5084378826640474 0.0619967820716378 9.1853312035156325 8.0599222110355448 8.7671794313527247 0.0000361232016828 2.0639447437706488 0.7376027226002594 0.0000000000000000 -0.0000000000000000 0.0000000000000000 -0.0000000000000000 
186 2 0.2934789004134575 0.2780117614462766 -0.2046512006753747 10.2942648316973262 6.1042102409317867 5.9761114853040382 0.0000377860838736 2.0654015785586370 0.7714644192240436 0.0000000000000000 -0.0000000000000000 0.0000000000000000 0.0000000000000000 
200 2 -0.4017334891696542 0.1114174766241407 0.0833679232990092 6.5193128223781178 6.4745780220031062 10.6458134380389424 0.0000309523522648 2.2339186089021172 0.9041811466405438 0.0000000000000000 0.0000000000000000 0.0000000000000000 0.0000000000000000 
206 2 0.0632956063353766 0.2436506587687304 -0.1147816597489998 7.0003360597416400 10.3664972134462161 10.4791484164746738 0.0000269022086733 2.2606987927539208 0.8609577747320819 0.0000000000000000 0.0000000000000000 0.0000000000000000 0.0000000000000000 
5 1 0.1551560897057714 -0.1606399523680182 -0.0874252079776811 14.8121928190057126 10.0370669627356754 10.1443057895458573 0.0000189311402879 2.4350382970275923 0.9908193793024948 0.0000000000000000 -0.0000000000000000 0.0000000000000000 -0.0000000000000000 
27 1 0.2928596957040476 0.2396533490116389 -0.0633728245998565 13.8410328039300854 6.8131947078225661 7.0653965607210631 0.0000262838728906 2.2508825919554534 0.8830457035861740 0.0000000000000000 -0.0000000000000000 -0.0000000000000000 0.0000000000000000 
56 1 0.0641826266455156 0.1553284204447755 0.1140049045436478 13.0719038185533041 9.8787718109593268 5.5054537456920247 0.0000214175260351 2.3879800883505435 0.9862062109103530 0.0000000000000000 0.0000000000000000 -0.0000000000000000 -0.0000000000000000 
74 1 0.3871783108798307 0.4627026864910502 0.2161039819441031 12.1552935195782830 6.8688126209864651 10.0255714455392422 0.0000306504731007 2.1585023725708474 0.8238910487117335 0.0000000000000000 -0.0000000000000000 -0.0000000000000000 0.0000000000000000 
98 1 0.3528556833856670 0.4544037330633936 -0.1675284019520590 10.9778477343111636 7.4946454598121885 6.8239298824604910 0.0000325598010065 2.1616744888547483 0.8314726215023702 0.0000000000000000 0.0000000000000000 0.0000000000000000 -0.0000000000000000 
110 2 0.2807668033145904 0.4152358029214349 0.2093962237822707 11.2359311962998891 6.7443884764806565 9.7356032858161470 0.0000335858007463 2.1466804783657958 0.8328527106424076 0.0000000000000000 0.0000000000000000 0.0000000000000000 0.0000000000000000 
180 2 0.2861987889948359 0.2992392279213677 0.1948585208220257 14.7992716765091679 7.7067576301616647 7.9780276609118497 0.0000227841880601 2.2432527901573023 0.8126351611621681 0.0000000000000000 0.0000000000000000 0.0000000000000000 0.0000000000000000 
208 2 0.4973264474687167 0.4330086686493311 0.1309637189601516 14.0400908073961901 6.6176412331525887 9.6864851965470677 0.0000253696277128 2.2340318761759246 0.8501665209732497 0.0000000000000000 -0.0000000000000000 0.0000000000000000 0.0000000000000000 
3 1 0.1275230067933124 -0.2404193571230915 -0.1102107024629664 4.4100162183673906 12.6465108256102798 10.6457581981898333 0.0000289380425828 2.1812953548107190 0.8177329102674874 0.0000000000000000 -0.0000000000000000 0.0000000000000000 -0.0000000000000000 
14 1 -0.0742035066659698 -0.0869077506132767 -0.0687197683421504 2.2968630244496078 16.0348082106224510 9.5414754350370625 0.0000384328179906 2.0732383825715290 0.7828643696031798 0.0000000000000000 -0.0000000000000000 -0.0000000000000000 -0.0000000000000000 
71 1 0.1848988943470816 -0.3891563794314445 -0.0331781530202764 3.6040212242717220 14.3782675193745053 8.8205084996765351 0.0000355516973540 2.0762673247738359 0.7362421130679406 0.0000000000000000 -0.0000000000000000 0.0000000000000000 0.0000000000000000 
81 1 0.0246300827614171 -0.2792577751097567 0.0199474996681276 2.7974441741101455 14.7791394691199578 10.0955393991985041 0.0000380686800997 2.0409567355514007 0.7244319407331054 0.0000000000000000 0.0000000000000000 -0.0000000000000000 -0.0000000000000000 
129 2 0.0049057863992118 -0.5596817472180980 0.0115895048066028 3.0411832633641240 14.4881247331402072 6.2058377510703515 0.0000334773571703 2.1328221405197985 0.8097137715875883 0.0000000000000000 0.0000000000000000 0.0000000000000000 -0.0000000000000000 
144 2 0.1105623410720377 -0.1427686769444205 0.0158481954260173 3.8334412978755070 15.8420635130340983 8.1987058006059357 0.0000369743094273 2.0988492095450537 0.7950192606947560 0.0000000000000000 -0.0000000000000000 -0.0000000000000000 -0.0000000000000000 
161 2 -0.1998904593810416 -0.4431255720613163 -0.1131029486595683 0.0955936295089132 14.4194131254782310 8.1357766269652085 0.0000281095874406 2.3015895246302138 0.9477299913685565 0.0000000000000000 -0.0000000000000000 0.0000000000000000 -0.0000000000000000 
162 2 -0.1337640897453037 -0.4851742518148796 -0.0139801747361210 2.4516629424696714 12.2907802617187354 7.5118387145812431 0.0000230605502721 2.4096550922110236 0.9610282616813071 0.0000000000000000 -0.0000000000000000 -0.0000000000000000 0.0000000000000000 
189 2 0.2676446697089978 -0.4397941793235239 -0.0461096743338323 4.3086482516633371 14.7002092308774834 6.6626629734308906 0.0000340106779098 2.0988070510719359 0.7686614250192393 0.0000000000000000 -0.0000000000000000 0.0000000000000000 0.0000000000000000 
209 2 0.0649518117943786 -0.3412217206900185 0.0761230908081421 2.9775391932804021 14.1433741478705723 10.5499532265816036 0.0000355080505299 2.0638129971232422 0.7382313034084353 0.0000000000000000 0.0000000000000000 0.0000000000000000 0.0000000000000000 
215 2 -0.2453282398257202 -0.4297024369589657 0.1233524383204299 1.2606203470729171 14.7792452377879542 5.4321842361160622 0.0000315678142390 2.2127514062819325 0.8957642492467996 0.0000000000000000 -0.0000000000000000 -0.0000000000000000 -0.0000000000000000 
1 1 -0.0946104763252746 -0.3256980648972046 -0.0632653280383740 9.6559992392789606 14.0444565382736553 8.9539938398516448 0.0000224736174660 2.3389626565116055 0.9960651205741325 0.0000000000000000 -0.0000000000000000 0.0000000000000000 -0.0000000000000000 
23 1 0.3070605194949463 -0.3701733760503642 0.0031169593445941 5.5169486821215488 15.2395679154931347 6.4678360935557837 0.0000322819756640 2.1228331915160088 0.8016395859116809 0.0000000000000000 -0.0000000000000000 -0.0000000000000000 0.0000000000000000 
132 2 0.2940862335191683 -0.3692961975247711 0.0004676188408139 6.4708177144848271 14.6829190427976624 8.0689948310518833 0.0000264039151345 2.2886430106592917 0.9312442590031672 0.0000000000000000 -0.0000000000000000 -0.0000000000000000 -0.0000000000000000 
120 2 -0.0332378743663328 -0.4442888161979482 -0.1887286309320508 14.3080497742679391 15.3478389953660983 8.5211941519637477 0.0000316770730028 2.1723672464735455 0.8752960273921813 0.0000000000000000 0.0000000000000000 0.0000000000000000 -0.0000000000000000 
135 2 -0.1825598289980960 -0.4219117624400542 -0.0723198341181988 11.0490003164359969 14.1649234351407216 8.2568977046764065 0.0000249970009428 2.2387294975124656 0.8727026902869415 0.0000000000000000 -0.0000000000000000 -0.0000000000000000 0.0000000000000000 
137 2 0.0433466043846818 0.2088332895880119 -0.0747103823308421 11.8823327171386524 10.8910673986169879 7.4494701191557171 0.0000203041291974 2.4766247130233867 0.9705428871328334 0.0000000000000000 -0.0000000000000000 -0.0000000000000000 0.0000000000000000 
151 2 -0.0689697576484748 -0.3662925197808300 -0.1375702662504615 14.1755579308924951 12.7952829063454825 7.8511693039480441 0.0000220662095624 2.3541954774480924 0.9672755259612257 0.0000000000000000 -0.0000000000000000 -0.0000000000000000 -0.0000000000000000 
195 2 -0.0796905035202343 -0.3595641956733712 -0.1706460731759896 14.0919991028524816 12.8119683769942565 9.7614777284533307 0.0000248123542175 2.2778074385128830 0.8892813473979400 0.0000000000000000 -0.0000000000000000 0.0000000000000000 0.0000000000000000 
201 2 -0.1793273126840640 -0.4724106484892863 -0.1388792363529627 11.4600782533997219 14.0331857938794116 9.5467879214003197 0.0000254033037211 2.2642232465985654 0.9018627657237107 0.0000000000000000 0.0000000000000000 0.0000000000000000 0.0000000000000000 
214 2 -0.0537145058010877 -0.3827205487776522 0.0128026074421780 11.1967225835411135 15.0207615622330124 5.4405694715513473 0.0000261741985411 2.3013692614912493 0.9166464553209382 0.0000000000000000 0.0000000000000000 0.0000000000000000 -0.0000000000000000 
25 1 0.0435641286446264 0.1939789872721228 -0.0515924242125370 1.0002953804251131 1.2098476907156355 10.8747580750087085 0.0000387337510224 2.0547668922981934 0.7625025314341453 0.0000000000000000 -0.0000000000000000 0.0000000000000000 -0.0000000000000000 
28 1 0.1135337437656225 0.1960346136289276 0.0187991851175148 0.7890026169812356 1.5379346968747980 12.0608226593403334 0.0000377444691271 2.0810683952600417 0.7832159158689860 0.0000000000000000 -0.0000000000000000 0.0000000000000000 -0.0000000000000000 
48 1 0.0481038216320662 0.5122499741060683 -0.0061586292533434 2.3872148995302660 2.6860201754972457 10.8545500028457393 0.0000340662721609 2.0769307130042858 0.7531261153840638 0.0000000000000000 -0.0000000000000000 -0.0000000000000000 0.0000000000000000 
49 1 -0.1954135178190964 0.2586604540515370 -0.0419153945427489 3.8685954830673173 4.6771925741867788 14.7602681627006120 0.0000275955484458 2.2337683139757840 0.8774204119080838 0.0000000000000000 -0.0000000000000000 -0.0000000000000000 0.0000000000000000 
83 1 -0.0569786844476621 0.3900330501541555 -0.0214750372867244 4.0060344744601819 3.1789883072061560 10.9049391860373337 0.0000309804921834 2.1791940649096420 0.8552575290443660 0.0000000000000000 0.0000000000000000 -0.0000000000000000 0.0000000000000000 
94 1 -0.0412569756315603 0.4085091641728945 -0.0046766368508469 0.3803207381170560 2.2298078949881472 15.6726877723084304 0.0000344574976285 2.0918593906612899 0.8248487097155576 0.0000000000000000 -0.0000000000000000 -0.0000000000000000 0.0000000000000000 
97 1 0.0394219946965898 0.4466596293198624 -0.1587412766590153 1.9293580248773681 2.9051040650021678 15.8246022505608934 0.0000327636847178 2.1368881280073340 0.8333781390294684 0.0000000000000000 -0.0000000000000000 -0.0000000000000000 -0.0000000000000000 
115 2 0.2934350628127608 -0.1914055732190517 0.1265944099033501 4.3240499813022781 0.5633865605582280 12.7628193988870198 0.0000289742360516 2.3120760255423214 0.9765014743525976 0.0000000000000000 -0.0000000000000000 0.0000000000000000 -0.0000000000000000 
130 2 -0.0594936042390886 0.2710676516589163 0.0152461410656307 0.4875166939884867 1.6880064461745448 15.9507724954920889 0.0000361436977439 2.0744702265081543 0.8075373793269881 0.0000000000000000 -0.0000000000000000 0.0000000000000000 -0.0000000000000000 
165 2 -0.4016869998929913 0.2944399991339263 -0.0289150115664458 4.2267161115771001 5.1853431981247819 11.9550403789981630 0.0000256682800238 2.2843014374603623 0.9258333557091517 0.0000000000000000 0.0000000000000000 0.0000000000000000 -0.0000000000000000 
177 2 0.0836570295003847 0.4519227030069676 0.0437170923809399 2.0430877392448528 2.7250808324584912 13.0744541503704763 0.0000326286144379 2.1671656265575416 0.8326697489072570 0.0000000000000000 -0.0000000000000000 0.0000000000000000 0.0000000000000000 
192 2 0.1034497291913227 0.3385446867843765 0.0220759985026112 0.1786707660835324 2.0968475351041778 14.1908895247818148 0.0000351485783124 2.1197330485518964 0.8401740053954323 0.0000000000000000 0.0000000000000000 -0.0000000000000000 0.0000000000000000 
18 1 -0.2340146436067050 0.1602604690033936 0.1690550330337436 10.1552551825152264 3.4365480071051420 11.8054365025533610 0.0000392345989208 2.0654364450021427 0.8147631941352583 0.0000000000000000 0.0000000000000000 0.0000000000000000 -0.0000000000000000 
38 1 -0.2362103354824284 -0.1115028290448953 0.0055809450753718 7.6392884605463198 3.0861596750976057 12.0596697510897712 0.0000321666105875 2.2162496037637127 0.9375555043833942 0.0000000000000000 0.0000000000000000 -0.0000000000000000 0.0000000000000000 
54 1 -0.2749444378522690 -0.0709999731570891 0.0532843621375021 10.1226733212584215 2.9417265997750217 11.4657253201805460 0.0000396722712296 2.0450913008720146 0.7956772154560555 0.0000000000000000 -0.0000000000000000 0.0000000000000000 0.0000000000000000 
70 1 -0.1203417453441362 0.0678195518341872 -0.0572547840610118 5.4902396672084954 3.5758561498443973 14.0066001617179126 0.0000303310680751 2.2497886216552985 0.9173037362138733 0.0000000000000000 0.0000000000000000 0.0000000000000000 -0.0000000000000000 
84 1 -0.2377685959183955 -0.0820081901438190 -0.0464437074763289 7.8884635114177284 2.2728105958936817 16.0537837696957517 0.0000374162208039 2.0553210866364564 0.7680099529266263 0.0000000000000000 0.0000000000000000 0.0000000000000000 -0.0000000000000000 
171 2 -0.2370921299909531 -0.2653855108499398 -0.1113667588288182 7.4476393405993795 1.8015569987646576 13.7210910197772922 0.0000307829366931 2.2000473623053041 0.9293959375733447 0.0000000000000000 0.0000000000000000 0.0000000000000000 -0.0000000000000000 
172 2 -0.2843748578467098 -0.2629897500739191 -0.1121718987297316 7.9034906417269832 1.7643859474162253 15.2686186100408072 0.0000355787769221 2.0714964765864332 0.7947057398700168 0.0000000000000000 0.0000000000000000 -0.0000000000000000 -0.0000000000000000 
187 2 -0.2945471673775086 -0.4764363065452985 0.0115441548435737 9.6229507052541425 1.6684103969040360 10.8794678230070261 0.0000337614054836 2.1494463596534104 0.9081665524160120 0.0000000000000000 -0.0000000000000000 -0.0000000000000000 0.0000000000000000 
191 2 -0.1527464054587329 -0.0701909712331601 -0.0167122713887959 9.5553010381558643 2.3271412014474433 15.3220211996464659 0.0000392082431333 2.0821514641759942 0.7951959515507084 0.0000000000000000 -0.0000000000000000 0.0000000000000000 -0.0000000000000000 
198 2 -0.0844020244550240 0.3479383116039072 0.0073403529701804 8.2689049978461657 4.7232051570342390 16.0407550666358922 0.0000323251386123 2.2012110049719276 0.8845352008182109 0.0000000000000000 -0.0000000000000000 -0.0000000000000000 -0.0000000000000000 
29 1 0.2725863611836251 0.4764297049104658 0.1564120001837898 12.3523397237481785 5.2029095312051252 15.4630656740496768 0.0000246903484913 2.3463473750139361 0.9903334893847358 0.0000000000000000 -0.0000000000000000 -0.0000000000000000 0.0000000000000000 
32 1 0.0684297996341541 -0.1930153532705309 0.0393835759899412 14.5673614264150313 0.0429276476861717 13.4881283054987513 0.0000368367437783 2.1529103275156158 0.8962265101495382 0.0000000000000000 0.0000000000000000 -0.0000000000000000 -0.0000000000000000 
44 1 0.2083376205697647 0.6142885332870579 0.2342068420733129 12.4024000234225511 3.5751963616106064 13.4803145231310957 0.0000385664629439 2.0649426102907871 0.7692774420197094 0.0000000000000000 0.0000000000000000 0.0000000000000000 -0.0000000000000000 
47 1 0.1554134244106800 0.0017457882992832 -0.0348583740302230 14.0538423415614346 1.3794236569047973 12.0869091953828569 0.0000390706886049 2.1131944393200994 0.8626937715347353 0.0000000000000000 0.0000000000000000 -0.0000000000000000 -0.0000000000000000 
60 1 -0.1956837312723565 -0.2540347179886017 -0.0826552021545726 11.2769960337455011 2.0876710044281745 11.5174063719083684 0.0000412044399393 2.0433947989074022 0.7809495166592096 0.0000000000000000 -0.0000000000000000 0.0000000000000000 -0.0000000000000000 
80 1 0.0499649005406700 0.4885433709447778 -0.0247819973457414 15.6952040442934635 4.9669472836441031 14.4600894723637268 0.0000221811173837 2.5075218000490591 1.0428885391195297 0.0000000000000000 0.0000000000000000 0.0000000000000000 0.0000000000000000 
90 1 -0.0617028547633797 -0.1022792200152142 0.0952385253650517 11.9711345400159193 1.2381896965816375 14.4977153530615315 0.0000418340427897 2.0195300051231642 0.7593076437414440 0.0000000000000000 0.0000000000000000 0.0000000000000000 0.0000000000000000 
121 2 0.0138339016667180 -0.0544730023207147 0.2000994301073638 12.2714275761946041 1.1730191511891590 14.9763589416740253 0.0000411519797624 2.0237981799627955 0.7622465640811710 0.0000000000000000 -0.0000000000000000 -0.0000000000000000 -0.0000000000000000 
122 2 0.0020527686739642 -0.0581196609919884 0.2124844248032104 12.1320534077680744 0.8968636440511182 15.5840765412715907 0.0000394513429969 2.0555505457873275 0.8019055361232975 0.0000000000000000 0.0000000000000000 0.0000000000000000 -0.0000000000000000 
126 2 0.2986742987383589 0.4250775562873380 0.0187314742405767 12.5432970698041899 3.7643433280865186 11.3421413171592214 0.0000411225660064 2.0284399074983588 0.7356016449138879 0.0000000000000000 0.0000000000000000 0.0000000000000000 -0.0000000000000000 
142 2 0.1988439128294094 0.4997185485234298 0.2124402725951977 12.4358922967155259 2.9902465188456300 13.9059339906268278 0.0000406890736346 2.0334040400069675 0.7479475694654095 0.0000000000000000 -0.0000000000000000 -0.0000000000000000 -0.0000000000000000 
211 2 0.0834610332635385 0.0188192137611280 0.0813990380021338 12.6301547659249671 1.7551396263733201 13.5332124116544872 0.0000432067519022 2.0107051778420613 0.7440686832652857 0.0000000000000000 -0.0000000000000000 0.0000000000000000 -0.0000000000000000 
33 1 -0.0132332601514784 -0.4333836564010070 -0.4105889309957129 1.4102877377328189 10.0239307735528040 14.3523903458018243 0.0000269266152444 2.2412033249641246 0.8417990302025724 0.0000000000000000 -0.0000000000000000 0.0000000000000000 -0.0000000000000000 
124 2 -0.2539662602455677 0.1234642987007251 -0.1134822789321035 3.6925145172229246 6.4522324585795481 14.6713144022427997 0.0000235717954838 2.3267381992100056 0.9629461753254444 0.0000000000000000 -0.0000000000000000 -0.0000000000000000 0.0000000000000000 
53 1 0.1344961843928295 0.1319940095246269 0.1223322533424872 7.5412425094833546 9.7830666209509243 13.6091511189047871 0.0000285010040409 2.1724066777518298 0.7841896729030101 0.0000000000000000 -0.0000000000000000 -0.0000000000000000 -0.0000000000000000 
73 1 -0.1278592632601336 0.0081566320347657 -0.0133825762232056 6.1236059035753971 9.6404011398191614 12.1704787072618448 0.0000302899214683 2.1675060128190133 0.7690861589410998 0.0000000000000000 -0.0000000000000000 -0.0000000000000000 0.0000000000000000 
82 1 -0.2521369109576424 0.1621926723697563 0.0296981636907265 5.4839068022251922 5.8914471925614826 13.1634636853513598 0.0000290276606474 2.1871832308353634 0.8495333602432305 0.0000000000000000 -0.0000000000000000 0.0000000000000000 -0.0000000000000000 
88 1 0.1920311831290830 0.2157613910983776 0.2277590116955839 8.3443217027047059 7.5886672464391971 13.1698637632294204 0.0000288282753869 2.1746220032467485 0.8621309948067414 0.0000000000000000 0.0000000000000000 -0.0000000000000000 -0.0000000000000000 
93 1 -0.0399539489286056 0.1755527569955893 0.2231593979843147 7.9226158339628601 6.0525926827145575 12.5622072977747283 0.0000317404997327 2.1745375764250312 0.8913962761483372 0.0000000000000000 -0.0000000000000000 0.0000000000000000 -0.0000000000000000 
157 2 0.1976877978064142 0.2439656867959179 0.2325977526665128 8.7736931767150654 8.0123011137602731 11.8372530479258629 0.0000296822790010 2.2092188912995265 0.8691823306506848 0.0000000000000000 -0.0000000000000000 -0.0000000000000000 0.0000000000000000 
167 2 -0.0076457598425323 -0.0365649144002166 0.2240203434327780 6.3581539459548582 9.2193031325447095 14.8690347552323843 0.0000260457213355 2.2749055617662370 0.8864879918382795 0.0000000000000000 -0.0000000000000000 -0.0000000000000000 0.0000000000000000 
176 2 -0.0914724198928694 0.1578089092686164 0.2134018471431072 6.8649394562489432 6.9709315968888443 13.9145892196115391 0.0000292632430191 2.1830557066286325 0.8443774116380799 0.0000000000000000 -0.0000000000000000 -0.0000000000000000 0.0000000000000000 
7 1 -0.0145814038682606 -0.2417322440829242 -0.1619813463391326 12.9358026475954322 8.7437424610350583 14.6703703883478056 0.0000212402493029 2.3476856722648614 0.9864608395327912 0.0000000000000000 -0.0000000000000000 0.0000000000000000 0.0000000000000000 
59 1 -0.0701036982710048 -0.3866798871431694 -0.2071954346945473 13.7451237378770461 8.7717350021976088 15.5088307444966986 0.0000242296620078 2.2271609836049775 0.8458995665276773 0.0000000000000000 -0.0000000000000000 -0.0000000000000000 0.0000000000000000 
62 1 -0.0665550117806579 -0.5084780606029167 -0.3074705246147674 15.0514970546426881 9.2460615502345274 15.3636897187124752 0.0000278605962564 2.1732371846697234 0.7565854084865968 0.0000000000000000 0.0000000000000000 -0.0000000000000000 -0.0000000000000000 
212 2 0.3573387246729018 0.4850976068127633 0.2463985732629679 12.9920219290622878 6.4212060744750392 12.0966794627437793 0.0000245653076303 2.3295343698423077 0.9389578083231878 0.0000000000000000 -0.0000000000000000 -0.0000000000000000 -0.0000000000000000 
35 1 -0.0254865423319365 -0.0698942735438344 -0.0463477340230588 4.5248815428952858 11.5722401519532330 12.5091894638900403 0.0000298580155201 2.1483812128911364 0.7698933597225659 0.0000000000000000 -0.0000000000000000 -0.0000000000000000 -0.0000000000000000 
42 1 0.0901344497268166 -0.0605976787086289 -0.0250165528601877 3.5949260551695894 11.3662305179410801 14.4604770827553768 0.0000297484517607 2.1742291945415246 0.8076546929472660 0.0000000000000000 -0.0000000000000000 0.0000000000000000 0.0000000000000000 
51 1 0.1383233185660557 -0.1072839396482212 -0.1725138883082398 1.8304719981328936 12.4235587303878265 14.7971530726228853 0.0000316746492044 2.1879028969186303 0.8727741447221942 0.0000000000000000 0.0000000000000000 0.0000000000000000 0.0000000000000000 
101 1 0.0118423697720775 -0.3046787621653432 -0.2538548819380684 0.0992898915940067 12.1689923932828439 13.9650950688298874 0.0000316016921191 2.1542154007939405 0.8379540163712704 0.0000000000000000 -0.0000000000000000 0.0000000000000000 -0.0000000000000000 
117 2 0.0533066219401454 -0.0764929185144333 -0.0031760596916743 0.3194751441503748 15.8666831243003656 15.1969113015961010 0.0000340161393924 2.2179937847758078 0.9564310557521822 0.0000000000000000 0.0000000000000000 0.0000000000000000 0.0000000000000000 
118 2 0.0264604170023701 -0.3251502584915346 -0.0745664382316121 0.3283052203206656 14.7021679084211012 11.6427182079458351 0.0000330775687828 2.2295558421349755 0.9121026481488003 0.0000000000000000 -0.0000000000000000 0.0000000000000000 0.0000000000000000 
149 2 0.3230164837099337 -0.0955543984470241 0.1283372852605370 3.1145800658518987 15.6391588263299433 13.3891090898532603 0.0000298486120243 2.2993730969295294 0.9983203677523713 0.0000000000000000 -0.0000000000000000 0.0000000000000000 -0.0000000000000000 
183 2 0.1694243721578657 0.0849346504464980 0.0746400036325710 5.1959540945963552 11.8419072786229407 14.4077292517090214 0.0000283372350557 2.1840187390056265 0.8227041928775263 0.0000000000000000 0.0000000000000000 -0.0000000000000000 -0.0000000000000000 
203 2 0.1745070304741456 -0.2778368798881236 0.0753781042873303 3.3108907854747200 13.8561297639593306 11.4828132648157730 0.0000328475359010 2.1204404739151448 0.8069474766142863 0.0000000000000000 0.0000000000000000 -0.0000000000000000 0.0000000000000000 
10 1 -0.2100199451824070 -0.2232566470976914 -0.1502576702967598 10.2959837060607651 13.0412788501466999 13.2911089434170044 0.0000251426623847 2.2177829658574395 0.9240552229245794 0.0000000000000000 0.0000000000000000 -0.0000000000000000 -0.0000000000000000 
50 1 0.1332891901102959 0.0236199666907892 0.0558594016720152 8.3202871701140761 11.0137755920901093 14.5076487469510358 0.0000247370871429 2.2749087627725730 0.8644351469118555 0.0000000000000000 -0.0000000000000000 0.0000000000000000 0.0000000000000000 
58 1 0.0608261131033774 -0.1044763710290847 -0.0496296710310232 7.4530958737726296 14.7177095159926417 12.4770190664549361 0.0000230688210316 2.5107841959338009 1.0427359429403289 0.0000000000000000 0.0000000000000000 -0.0000000000000000 0.0000000000000000 
113 2 0.1683427996542103 0.1528331552342239 -0.0166681171975251 5.9311663238128309 12.3714805384755255 13.2483281827851052 0.0000277414422096 2.1995402457927460 0.8233771592759074 0.0000000000000000 -0.0000000000000000 0.0000000000000000 0.0000000000000000 
133 2 -0.0210456032807410 -0.2068652058468163 -0.1023224804091782 6.5717732783998155 14.6468661348028402 15.8873917248147922 0.0000242798457329 2.4465050001089348 1.0296205486264143 0.0000000000000000 -0.0000000000000000 0.0000000000000000 0.0000000000000000 
9 1 -0.0062579405661917 -0.1381095101893723 -0.1428838494695088 16.1091756208086601 11.5954214550132875 15.5760195667735299 0.0000357768886171 2.0809077283669826 0.7446498691896163 0.0000000000000000 0.0000000000000000 0.0000000000000000 0.0000000000000000 
24 1 -0.2414559328683103 -0.2585058941637354 -0.1480776336013830 10.9460815992625324 14.0434843212088509 13.2536893401500890 0.0000275853009174 2.2163873008844739 0.9584130553663153 0.0000000000000000 0.0000000000000000 -0.0000000000000000 -0.0000000000000000 
78 1 -0.1390576969316020 -0.3921534915532056 -0.1620737208708443 14.4266558454972103 13.6654334435395981 12.7734259913860804 0.0000310877878369 2.1826746816739853 0.9078789493514806 0.0000000000000000 -0.0000000000000000 -0.0000000000000000 -0.0000000000000000 
92 1 -0.0327007416207793 -0.2697048853581668 -0.0240795762253810 13.4949438411764362 14.6512159623032296 15.1022018020569444 0.0000343143585697 2.1687809232856221 0.9050127214358380 0.0000000000000000 -0.0000000000000000 -0.0000000000000000 -0.0000000000000000 
99 1 0.0924624456944286 0.0491024896094601 -0.0245131465348603 10.9109237538775687 11.0168728786124781 11.1517594811316965 0.0000217118058713 2.4600074246102310 0.9808584670525615 0.0000000000000000 -0.0000000000000000 0.0000000000000000 0.0000000000000000 
106 1 -0.0067318438310241 -0.4255446646651488 -0.1767312424455018 15.1582763894842785 11.5046333681241286 11.1246227090804428 0.0000225257201870 2.3140274691395044 0.9329809587775671 0.0000000000000000 0.0000000000000000 0.0000000000000000 -0.0000000000000000 
160 2 -0.1880789899434204 -0.3114842705000175 -0.1981309178339313 10.7797377970708066 13.2748180887520491 12.7838189319838182 0.0000256006717358 2.2040865581558742 0.9326828416456030 0.0000000000000000 0.0000000000000000 -0.0000000000000000 -0.0000000000000000 
163 2 -0.2368303756714176 -0.2587201410775534 -0.1549484637951571 13.4763312343149533 12.3401760923608581 15.3315320112612277 0.0000304660761084 2.2483352826631933 0.8829462693490150 0.0000000000000000 0.0000000000000000 -0.0000000000000000 -0.0000000000000000 
170 2 -0.1244148597127981 -0.3571677820016417 -0.2119939411267808 14.8940484226862413 12.9829365637774430 13.1562814237873553 0.0000307922605750 2.1601989411865747 0.8713647643312024 0.0000000000000000 0.0000000000000000 -0.0000000000000000 0.0000000000000000 
