ITEM: TIMESTEP
0
ITEM: NUMBER OF ATOMS
6
ITEM: BOX BOUNDS pp pp pp
0.0000000000000000e+00 4.8819591223992003e+00
0.0000000000000000e+00 4.8819591223992003e+00
0.0000000000000000e+00 4.8819591223992003e+00
ITEM: ATOMS id type fx fy fz x y z rho_SPH width_SPH omega_SPH 
1 1 0.0000001849499293 -0.0000000067918047 0.0000000137420197 2.7270022481356526 1.9337257802056282 0.3127937079036167 0.0000249078751850 1.7044425160561478 0.7548066458803159 
4 2 -0.0000010038848183 0.0000003045137360 -0.0000011088818312 1.6803260007827143 0.0926757709304676 1.4016820283688107 0.0000245691321849 1.6997383738020770 0.6146414180227352 
2 1 0.0000004119623149 -0.0000001075789427 0.0000000445312275 2.8485877161109334 4.3637470124772992 2.7984897841120846 0.0000287992198777 1.6829867796196183 0.6203867774425066 
3 1 -0.0000002905884638 -0.0000001075766527 0.0000008139840311 1.3575415502453905 3.8120573883794564 3.2139034336416543 0.0000271241307954 1.6894170189609401 0.6274060653335048 
5 2 -0.0000000766730613 0.0000000072781066 -0.0000003537132997 4.8246916802983826 2.2215343300295416 2.3036231637675928 0.0000262936832281 1.6949024017355767 0.6848217771644776 
6 2 0.0000007742340992 -0.0000000898444426 0.0000005903378526 3.3769858722209922 2.1199918628495138 2.9399105237482557 0.0000282597564970 1.6837113419761853 0.5776738824873400 
