ITEM: TIMESTEP
0
ITEM: NUMBER OF ATOMS
210
ITEM: BOX BOUNDS pp pp pp
0.0000000000000000e+00 1.5969212012997900e+01
0.0000000000000000e+00 1.5969212012997900e+01
0.0000000000000000e+00 1.5969212012997900e+01
ITEM: ATOMS id type fx fy fz x y z rho_SPH width_SPH omega_SPH u_SPH vx vy vz 
13 1 -0.0126662104136892 0.1872698158215002 -0.0940141273976644 2.6361213437688091 2.4354808611614263 1.1889211753213957 0.0000297261735046 2.8298957081574230 0.7020349169945710 0.0000000000000000 -0.0000000000000000 -0.0000000000000000 0.0000000000000000 
31 1 0.1105858926497165 -0.0735251760013298 -0.1248249611954601 5.2029980897876653 2.2314349359550083 1.9691513635513795 0.0000290902855393 2.8551358549232386 0.7852635748786085 0.0000000000000000 -0.0000000000000000 -0.0000000000000000 0.0000000000000000 
36 1 -0.0842872890008221 0.3110723783389106 0.0651077664399705 1.8784096760113662 5.0544341163284887 4.8510119060967218 0.0000255854721833 2.8875248964797660 0.6906783412985448 0.0000000000000000 -0.0000000000000000 0.0000000000000000 0.0000000000000000 
39 1 0.0759981443040109 -0.2533613382439160 -0.0113934616950984 3.1046737749230968 0.0372201614295236 4.3432495749246121 0.0000304508496765 2.8184765680909880 0.6890751496319648 0.0000000000000000 0.0000000000000000 0.0000000000000000 0.0000000000000000 
67 1 -0.0652364466059759 0.0282247401163565 0.0025913873421929 1.2888110541140345 0.9357838815836910 2.8463526362173872 0.0000316720880999 2.7973501466932982 0.6585623573119500 0.0000000000000000 -0.0000000000000000 0.0000000000000000 -0.0000000000000000 
79 1 -0.0396521524007644 0.0979481139066071 0.0154937577436003 2.3752104248063439 1.7170366405657966 3.1455585541284452 0.0000314101969055 2.8016345307848600 0.6608046551965850 0.0000000000000000 -0.0000000000000000 0.0000000000000000 0.0000000000000000 
96 1 -0.2292515031765454 0.0860886135245780 -0.0133146877875049 0.3033308348367855 2.0702141513291785 5.1003923391945616 0.0000289017851264 2.8472779884068515 0.7356568647302445 0.0000000000000000 0.0000000000000000 0.0000000000000000 -0.0000000000000000 
156 2 -0.0628801808995284 0.2195998510529816 -0.0710595349092856 4.2229015164229260 4.5271130953891596 1.5701811674610244 0.0000269735668525 2.8884278965502257 0.7875871981871583 0.0000000000000000 0.0000000000000000 -0.0000000000000000 -0.0000000000000000 
165 2 -0.0424218308339828 -0.0019420391798414 -0.0410474955928343 1.9536597076398867 1.1060868000160622 4.6991530523529468 0.0000308633267310 2.8138630568241383 0.6904110406338118 0.0000000000000000 0.0000000000000000 0.0000000000000000 -0.0000000000000000 
171 2 -0.0264292432522520 0.0260516864831206 0.0243879623464316 2.1891396860517900 1.2525294212906883 3.1176423843848582 0.0000318703717196 2.7957369596235235 0.6618959412738162 0.0000000000000000 0.0000000000000000 0.0000000000000000 -0.0000000000000000 
179 2 0.0238888903442172 0.0940189524824221 0.0388323664675878 1.1696872460208181 0.7111354165445287 1.0675757255308793 0.0000317404076414 2.8035474153361486 0.7042821904550932 0.0000000000000000 -0.0000000000000000 0.0000000000000000 0.0000000000000000 
182 2 -0.1724343227966835 0.2865478344845137 -0.0561441229739309 0.1084589493272304 3.8574590681280578 4.6827534387619840 0.0000266269466738 2.8846806306313075 0.7596651679705744 0.0000000000000000 -0.0000000000000000 -0.0000000000000000 0.0000000000000000 
193 2 0.1402247149840802 -0.1582821409161580 -0.1489010400440738 4.8123200184050772 0.8657671358197940 0.9207228163636827 0.0000277186732876 2.8736149998505853 0.7722346143109056 0.0000000000000000 0.0000000000000000 0.0000000000000000 -0.0000000000000000 
30 1 -0.0177815274088791 0.1947240222550252 -0.1822223494080825 6.6586208258604165 4.7403695106737409 3.3926083711503572 0.0000284908701498 2.8614005884065548 0.7730919652822829 0.0000000000000000 -0.0000000000000000 0.0000000000000000 0.0000000000000000 
34 1 -0.1319723421659150 -0.1271497760258690 0.0349984716149592 7.9160441021429051 1.7109833904724101 0.0839693004117784 0.0000290375410757 2.8407983675684760 0.7171185758192361 0.0000000000000000 -0.0000000000000000 0.0000000000000000 0.0000000000000000 
57 1 -0.0565045800874960 -0.1394236448664865 0.1797047894277796 9.6462616477765977 0.9722536806888668 1.6560860019384505 0.0000283087156025 2.8531451604075704 0.7173829953972047 0.0000000000000000 -0.0000000000000000 0.0000000000000000 -0.0000000000000000 
120 2 0.1287137465292320 -0.0017190372856778 -0.2444123612497884 9.8400127097555288 4.3635750867789449 5.1248068195321110 0.0000298563231455 2.8346929425104284 0.7438298580899354 0.0000000000000000 0.0000000000000000 0.0000000000000000 -0.0000000000000000 
151 2 -0.0405998501696750 0.2541305579514093 -0.1161145109436466 5.3358651614453931 4.3130362093824077 1.2529048075334386 0.0000270061709367 2.8852257566733592 0.7731522745644834 0.0000000000000000 -0.0000000000000000 -0.0000000000000000 -0.0000000000000000 
181 2 0.1070052688921291 0.1911437238053616 0.0867740997469527 9.3941946961059255 3.8138622158425504 1.3485064280227250 0.0000281232700904 2.8500944843151905 0.6914218501113357 0.0000000000000000 0.0000000000000000 -0.0000000000000000 -0.0000000000000000 
185 2 0.1886652159767145 0.1318401277013994 -0.2750725215845201 10.4806834107629747 5.2223092484897879 5.1455808672588805 0.0000285480218804 2.8526871092034014 0.7406947023262270 0.0000000000000000 0.0000000000000000 0.0000000000000000 0.0000000000000000 
204 2 0.0845270805067946 0.0774491497608016 -0.0967830881952107 8.7888734296514759 3.6478947129879340 3.6994596532051305 0.0000287166233267 2.8491201303885667 0.7254956844188047 0.0000000000000000 -0.0000000000000000 0.0000000000000000 0.0000000000000000 
66 1 0.0660130455259060 -0.1626991755795504 0.1575603794885851 10.9931534268240796 0.8525834684028681 3.3704427237371757 0.0000267908367577 2.8911423633176114 0.7899906418669561 0.0000000000000000 0.0000000000000000 -0.0000000000000000 0.0000000000000000 
111 2 0.1462450628136731 0.3613297195022278 0.2216230289801895 10.6621289753141841 4.2281178530907173 0.1995464571261551 0.0000270253177330 2.8735863073085404 0.7276272038079459 0.0000000000000000 -0.0000000000000000 -0.0000000000000000 0.0000000000000000 
140 2 0.0480414102779111 0.1827872132012081 0.1569504344429615 11.5846102649845140 2.2813169683743180 1.5246117912735593 0.0000279389154045 2.8632168030979477 0.7373209094248880 0.0000000000000000 -0.0000000000000000 0.0000000000000000 -0.0000000000000000 
152 2 -0.1030985382928142 -0.0653150776980099 0.1356736367685802 14.3818450127962656 0.0310165897362293 3.7741347349607790 0.0000271170512789 2.8819104189264078 0.7798784936278059 0.0000000000000000 -0.0000000000000000 0.0000000000000000 -0.0000000000000000 
207 2 -0.0646304608810951 0.0498523439911705 0.0963250930821003 13.6169654385163135 1.8385902468521633 4.0240726535412739 0.0000267942696304 2.8915606070762649 0.7924339184998945 0.0000000000000000 0.0000000000000000 -0.0000000000000000 -0.0000000000000000 
41 1 -0.0862962158946951 -0.0529809158723486 -0.0732567213988352 1.0479823628532303 7.8307292796942871 1.6228118483354246 0.0000225865010119 2.9520763870661191 0.7220932943428091 0.0000000000000000 0.0000000000000000 -0.0000000000000000 -0.0000000000000000 
76 1 0.0157610467146070 0.1316112197634510 0.0286236870521297 5.2670174663807234 8.4514012314872691 2.5424192640078478 0.0000221109285528 2.9969482025397003 0.8365624514874526 0.0000000000000000 0.0000000000000000 -0.0000000000000000 0.0000000000000000 
77 1 -0.0703758770576550 0.1860214553175942 0.0080424074007696 1.8873348212906433 5.5972871890823601 3.3157547005407313 0.0000248909137118 2.9070925155333383 0.7188468473978936 0.0000000000000000 0.0000000000000000 -0.0000000000000000 0.0000000000000000 
128 2 0.1283821122852805 -0.1876158905299684 0.0216807633544805 2.2808236366898487 10.2169387683069868 0.1370995980355691 0.0000246060717167 2.8969938027447353 0.6503265534139343 0.0000000000000000 0.0000000000000000 0.0000000000000000 0.0000000000000000 
136 2 -0.1280588852793610 0.1314861000326804 0.0729619650010652 1.5079583806025718 6.7640735488577040 3.8081683671778412 0.0000231898352724 2.9360546381498320 0.7127699087777482 0.0000000000000000 0.0000000000000000 0.0000000000000000 0.0000000000000000 
199 2 -0.0237706009869836 -0.0492566951058525 -0.1174768250860142 2.5168297745906680 7.5777065810084601 0.5582900381492495 0.0000223449827188 2.9733848771241407 0.7800661215229804 0.0000000000000000 -0.0000000000000000 0.0000000000000000 0.0000000000000000 
2 1 0.0754535663481440 0.2602873349851867 -0.0072502552488812 8.8955131783415684 6.5118506223968442 0.9718530812322836 0.0000237965567675 2.9459154840719317 0.7913216061403181 0.0000000000000000 -0.0000000000000000 0.0000000000000000 0.0000000000000000 
12 1 -0.0198728157857200 0.2967945788830975 -0.0644139921826302 8.9202222289108306 8.8118917869554956 3.9482139086175807 0.0000217706640039 2.9744398288821774 0.7330232782930501 0.0000000000000000 -0.0000000000000000 -0.0000000000000000 0.0000000000000000 
17 1 -0.0748541130062073 0.2443618987306294 -0.0639593725748471 6.1599567082886084 8.4847428884159299 4.3037888204183012 0.0000223507366448 2.9662833025840856 0.7605097817842751 0.0000000000000000 0.0000000000000000 0.0000000000000000 0.0000000000000000 
64 1 -0.0063708939691185 0.2345503326409335 -0.1437095902421982 8.0166583706572592 6.8266267791423569 2.7114724225449054 0.0000245195419654 2.9214336582230072 0.7527775419754419 0.0000000000000000 0.0000000000000000 0.0000000000000000 0.0000000000000000 
116 2 0.0594172719506970 0.1321188664240758 -0.2569156634753549 9.0507396377378626 5.6662364871297255 4.3786141247462238 0.0000282941609213 2.8468280992939015 0.6890429622121962 0.0000000000000000 -0.0000000000000000 0.0000000000000000 -0.0000000000000000 
149 2 0.1924274041486283 0.1641167402700213 -0.1027816494367372 10.2558206748221163 5.3797299948548964 2.5342630759497951 0.0000254006689124 2.9078132336585214 0.7708015111371441 0.0000000000000000 -0.0000000000000000 0.0000000000000000 -0.0000000000000000 
20 1 -0.0458561350419880 0.0050989095779041 0.1829907753229319 13.8334013116745904 9.8181480783910615 3.5322387953535577 0.0000216998200133 2.9735708088774455 0.7491375153215734 0.0000000000000000 -0.0000000000000000 0.0000000000000000 -0.0000000000000000 
21 1 -0.0703574429771096 -0.1163779508006364 0.1464304695586197 13.8752571485026674 9.1822931020226761 2.7027772792241258 0.0000218501012446 2.9548698864988667 0.6832123034309542 0.0000000000000000 0.0000000000000000 -0.0000000000000000 0.0000000000000000 
102 1 -0.0655427489007836 0.0065195270226081 0.0220753987295797 14.8935880810876284 7.3370627597235476 3.1276064858534944 0.0000214280892061 2.9865619882314283 0.7629061191641406 0.0000000000000000 -0.0000000000000000 -0.0000000000000000 0.0000000000000000 
166 2 -0.0298443546816183 0.2742627875089425 0.0593198333634675 15.6881866710235851 5.8635329601031936 5.1465311655147996 0.0000231391204233 2.9438949126835201 0.7523712520540961 0.0000000000000000 -0.0000000000000000 0.0000000000000000 -0.0000000000000000 
175 2 -0.1740649707979113 -0.1099738517599025 0.1359189513816982 12.6533547433074993 10.0129102350153545 2.2877029052055771 0.0000224298808256 2.9439531894759727 0.6938035277744609 0.0000000000000000 -0.0000000000000000 0.0000000000000000 -0.0000000000000000 
191 2 -0.0630470750505096 -0.2627376552352260 0.0797663929944575 15.0661940002525210 10.2030572022459491 0.9544775753706874 0.0000251708593330 2.8801954063163890 0.6091356409570358 0.0000000000000000 -0.0000000000000000 0.0000000000000000 -0.0000000000000000 
37 1 0.1354259126747843 -0.2517517779458870 0.1942340505353993 2.3399531441569121 13.0984470661995385 3.3358820496504484 0.0000260186423587 2.8892664712811742 0.7273330077742333 0.0000000000000000 0.0000000000000000 0.0000000000000000 -0.0000000000000000 
45 1 0.2254710114382862 -0.1032068515179307 0.0585321079362649 3.8143764359531422 11.2404775261117376 0.8796568816213481 0.0000244222865894 2.9190050371468477 0.7432382150019943 0.0000000000000000 -0.0000000000000000 -0.0000000000000000 0.0000000000000000 
89 1 0.2058532886511722 -0.1430861405723160 0.1186526500815942 2.5051147371778919 13.6505779802884231 2.0421593557663500 0.0000278522137707 2.8569037668112842 0.7032797092747607 0.0000000000000000 -0.0000000000000000 0.0000000000000000 0.0000000000000000 
138 2 0.1999045143701116 -0.2340400439928700 0.1505004092173273 2.5575871080487405 11.4618389076841876 1.6897576812830561 0.0000254675319713 2.8912403386739651 0.6968800269125313 0.0000000000000000 0.0000000000000000 -0.0000000000000000 -0.0000000000000000 
145 2 0.0378631622834630 -0.1812082333076165 0.1173618407537056 1.0077469276524043 10.7144834971497396 1.6724991361834929 0.0000258561817418 2.8798775680847633 0.6649985511194348 0.0000000000000000 -0.0000000000000000 -0.0000000000000000 0.0000000000000000 
187 2 -0.1621240857733765 -0.0360989106563942 0.1101790417016532 0.0454527159036751 15.8464604790093571 2.5115546202012164 0.0000303359288434 2.8220973707850758 0.7094737169301294 0.0000000000000000 -0.0000000000000000 -0.0000000000000000 0.0000000000000000 
194 2 0.2239468825359895 -0.2124839972256549 0.0455964525978989 3.4935909632265636 14.7759627396488966 1.8520586157164081 0.0000283375867558 2.8556682113820866 0.7337985336023050 0.0000000000000000 0.0000000000000000 -0.0000000000000000 -0.0000000000000000 
196 2 0.1915944731188176 -0.1942281810075435 0.1386682766897643 4.8899049341152363 11.6366646316002420 3.6216079770011946 0.0000204422861050 3.0129392986563612 0.7628079378491889 0.0000000000000000 -0.0000000000000000 0.0000000000000000 0.0000000000000000 
210 2 -0.0367119026943647 -0.2354055796149439 0.2723528659732058 1.3803908297089655 13.2407119156552149 3.4764967845400818 0.0000262708340358 2.8934838401300245 0.7635184269520306 0.0000000000000000 0.0000000000000000 -0.0000000000000000 -0.0000000000000000 
11 1 -0.1331312534344271 -0.1035379971462704 0.0807308063513521 9.3253860261421728 11.1026805493046599 0.3719277500135310 0.0000213466374749 2.9805066160799578 0.7379093117707600 0.0000000000000000 0.0000000000000000 0.0000000000000000 -0.0000000000000000 
95 1 -0.1582514901061886 -0.0825356759595665 0.1757561796907501 9.8836467394396852 11.2293233515197457 1.2761902913473027 0.0000212193746439 2.9727107841166398 0.7087502651360443 0.0000000000000000 0.0000000000000000 -0.0000000000000000 -0.0000000000000000 
104 1 -0.0638339952048374 -0.2326073997882190 0.0562741403388322 8.2810742589182809 15.2414753880166192 1.5767585588810509 0.0000250617743327 2.9188089432504016 0.7843798096581948 0.0000000000000000 -0.0000000000000000 -0.0000000000000000 0.0000000000000000 
108 2 0.2269207476156492 -0.3008502340421993 -0.0388682159501898 5.4540856428077742 15.9263911394626003 4.7095784922096406 0.0000271577944755 2.8750528791185079 0.7370267927828953 0.0000000000000000 -0.0000000000000000 -0.0000000000000000 0.0000000000000000 
125 2 0.0277929186651214 -0.3681793389678277 0.0687570792602631 9.2640109140036628 15.2303085011066361 4.9584168850284183 0.0000226354209935 2.9749897599901045 0.8074778970155969 0.0000000000000000 -0.0000000000000000 0.0000000000000000 0.0000000000000000 
135 2 -0.1290493557976046 -0.0583717355713886 0.1289099124908369 9.5689793423487171 11.9001609668728747 2.7332749658015043 0.0000201281909757 3.0106240867544196 0.7621758606327161 0.0000000000000000 -0.0000000000000000 -0.0000000000000000 0.0000000000000000 
147 2 -0.1279174565724880 -0.2426987683555026 0.1083615009219157 9.2209816665065230 14.4835620506394793 1.2961761665410674 0.0000235450475638 2.9297369105038928 0.7024529689580723 0.0000000000000000 -0.0000000000000000 0.0000000000000000 -0.0000000000000000 
150 2 0.1681448727675239 -0.1949665817987693 0.0539971251276012 5.8220224739969941 13.5549324134110840 3.4027457451982333 0.0000219149573214 2.9805686021220383 0.7662174139546559 0.0000000000000000 0.0000000000000000 0.0000000000000000 0.0000000000000000 
22 1 -0.1374005023950610 -0.0818385580351910 0.2600107091832622 14.1414523710621669 14.6534272280662687 1.8098177211459494 0.0000286117342648 2.8624567000925536 0.7880499178965109 0.0000000000000000 -0.0000000000000000 -0.0000000000000000 0.0000000000000000 
52 1 -0.0686126826093101 0.0150061096880145 0.1321639288947623 10.9816819782723485 11.3169372678468445 2.8973527791211500 0.0000207303635064 2.9862085364656412 0.7244560405618099 0.0000000000000000 0.0000000000000000 0.0000000000000000 0.0000000000000000 
61 1 -0.2367204684367860 -0.1342281021254981 0.2129972206257925 11.6964613209835910 11.6274924152720054 1.6188395764013168 0.0000232930626217 2.9271480501383271 0.6870516520745686 0.0000000000000000 0.0000000000000000 0.0000000000000000 -0.0000000000000000 
142 2 -0.1094237609712297 -0.1353200434313431 0.1494128551452420 12.7722267172933837 15.2360146761612238 0.4150656383812812 0.0000305138095511 2.8294472010008969 0.7633624487830261 0.0000000000000000 -0.0000000000000000 -0.0000000000000000 -0.0000000000000000 
144 2 -0.2120216292518673 -0.1974566181112257 0.2055528145661756 11.1218360463273793 14.1491541978832736 0.9593627533379835 0.0000266425426446 2.8821608023517973 0.7365839225646182 0.0000000000000000 -0.0000000000000000 -0.0000000000000000 -0.0000000000000000 
178 2 -0.1466615970212441 -0.0500919076762194 0.2003488692688367 14.7955427392976411 15.6572399843092693 2.9263219504936591 0.0000281042287184 2.8626847518117167 0.7589794041764863 0.0000000000000000 0.0000000000000000 0.0000000000000000 -0.0000000000000000 
190 2 -0.0364570293952058 -0.1922774807426476 0.0321161867288441 15.4592060462148773 10.9793445314293105 0.5233444758326222 0.0000268737888024 2.8579736582784303 0.6294509127434252 0.0000000000000000 -0.0000000000000000 -0.0000000000000000 0.0000000000000000 
26 1 -0.1424936428486846 0.3335345491061463 0.1188690747891571 2.4917493202046721 4.7889337415685622 5.8734568254391517 0.0000257754643563 2.8938350127533461 0.7300343793037964 0.0000000000000000 0.0000000000000000 -0.0000000000000000 -0.0000000000000000 
72 1 -0.0395193431570765 0.0759491156194896 0.0921955945238781 4.8307181201875249 2.6821761313516519 8.6021792071011625 0.0000290415160109 2.8497196936022400 0.7605791797844018 0.0000000000000000 0.0000000000000000 -0.0000000000000000 -0.0000000000000000 
137 2 0.0464559431615130 -0.0041913833314620 0.0308601682549920 5.0670367283164994 1.6163200305081564 5.9365037069862741 0.0000298798301118 2.8377535291438036 0.7556056732709557 0.0000000000000000 -0.0000000000000000 -0.0000000000000000 0.0000000000000000 
153 2 0.0657644957522905 0.4036334533759050 0.0188266695090912 1.3652973821955643 3.0400369616887217 10.3609537040346158 0.0000269425111563 2.8832930724561958 0.7692940270047816 0.0000000000000000 0.0000000000000000 -0.0000000000000000 0.0000000000000000 
161 2 -0.1650844454521343 0.3207221042850091 0.0710070416921978 0.9684708211808554 3.3987675505809620 5.6129014725290425 0.0000279539191552 2.8655677456161546 0.7631232092453083 0.0000000000000000 -0.0000000000000000 0.0000000000000000 -0.0000000000000000 
170 2 0.0757003034958933 0.1108546853333902 -0.0249984672894777 2.1328426651614585 1.2997749665430209 10.3446841015586148 0.0000307945712926 2.8148883026666098 0.7042509147257308 0.0000000000000000 0.0000000000000000 -0.0000000000000000 0.0000000000000000 
16 1 -0.1510114750142831 0.0876693229651683 0.0093126135814356 5.7970708277526901 4.2992747002808738 6.4728080252631237 0.0000298509347463 2.8384778609417189 0.7647235124891916 0.0000000000000000 -0.0000000000000000 -0.0000000000000000 -0.0000000000000000 
40 1 -0.0617555221080601 0.0761424812972993 0.0367154816988169 6.0815750436211102 3.9987583945216385 6.0275853801133117 0.0000303001460558 2.8332559330357245 0.7691176488219702 0.0000000000000000 0.0000000000000000 -0.0000000000000000 -0.0000000000000000 
55 1 0.1176416365069324 -0.3588593565301337 0.0107392193687562 7.7165502870387748 0.1960897575709414 6.1317360113756534 0.0000252698459993 2.9095893582966830 0.7615051385598921 0.0000000000000000 -0.0000000000000000 -0.0000000000000000 0.0000000000000000 
65 1 -0.0012781822767818 -0.3182420187169167 -0.0751307380486652 9.0945828774775102 1.3723054265718087 6.1663202846348151 0.0000276072061507 2.8726981919149006 0.7625246703406806 0.0000000000000000 -0.0000000000000000 0.0000000000000000 -0.0000000000000000 
85 1 -0.0240759448995954 -0.2802760510107863 -0.0921692644635087 9.9049134616847905 2.4142832151613298 8.6737809556840553 0.0000312034401233 2.8179501720363795 0.7364901827752278 0.0000000000000000 0.0000000000000000 -0.0000000000000000 -0.0000000000000000 
103 1 -0.1195317220510018 0.1226779384310612 -0.1000712484847812 7.3389878046234429 5.2823237804432628 6.4435333686446876 0.0000305210634671 2.8179916416886304 0.6884435857700765 0.0000000000000000 0.0000000000000000 0.0000000000000000 0.0000000000000000 
105 1 0.0057416628397442 -0.0174185719279043 0.0657320231552017 5.6799509175057867 2.0001974032104801 9.3575002159855991 0.0000285592346955 2.8521571468440179 0.7298813341392814 0.0000000000000000 0.0000000000000000 0.0000000000000000 -0.0000000000000000 
109 2 -0.1717394163017359 0.0182752751972286 0.0703741174306037 7.9657330287040935 4.3391889882189432 10.1418142322747205 0.0000313612612204 2.8211567092415972 0.7758442279315787 0.0000000000000000 0.0000000000000000 -0.0000000000000000 -0.0000000000000000 
122 2 0.0521175091238980 -0.1784051771111892 0.0787360823875218 6.4350225909778711 1.2271075961338156 9.0828396357164127 0.0000279850732474 2.8628636059995713 0.7424000633097737 0.0000000000000000 0.0000000000000000 0.0000000000000000 -0.0000000000000000 
133 2 -0.1428589042022782 0.0439573345466117 0.0811373162728609 5.8086203406788774 4.0900056578390922 7.5754990467228884 0.0000297316630833 2.8426907566813164 0.7804618322222427 0.0000000000000000 0.0000000000000000 0.0000000000000000 0.0000000000000000 
155 2 -0.0402442265154685 -0.3380511190119370 -0.0894457758371638 8.5751208704116735 1.3185393649840202 8.1489605174619211 0.0000284311201672 2.8607008360783994 0.7676588240081477 0.0000000000000000 0.0000000000000000 -0.0000000000000000 0.0000000000000000 
8 1 0.0997690848359030 -0.1663013492150734 -0.1920280584403090 12.0411920715036000 1.6920365316773553 5.7684846350679413 0.0000274871207990 2.8695486169914153 0.7475294366968245 0.0000000000000000 -0.0000000000000000 0.0000000000000000 0.0000000000000000 
15 1 0.0252173024459261 -0.1193599131649212 -0.1795687021469020 14.3884500134284146 1.1467037740481651 8.5028193759392945 0.0000304203486993 2.8273179140443299 0.7476820528779664 0.0000000000000000 0.0000000000000000 0.0000000000000000 -0.0000000000000000 
19 1 0.0180267922218766 -0.1098442654083202 -0.1838708072660029 13.6616554374267203 1.4495749869192347 8.1112061096516843 0.0000303593695970 2.8252850173714661 0.7325463735902514 0.0000000000000000 -0.0000000000000000 0.0000000000000000 0.0000000000000000 
75 1 0.1029754369163069 0.1932492023433858 0.0181403611386164 12.1767120064756238 3.5920748396352362 10.4422404223805838 0.0000326940754970 2.7894172125327676 0.6849874091699467 0.0000000000000000 -0.0000000000000000 -0.0000000000000000 -0.0000000000000000 
87 1 0.0723425488102548 -0.0852177724063616 -0.1575708574290001 14.6620073845474916 0.7847443899219810 10.3391815386533583 0.0000320329786448 2.8034710545990054 0.7181373660004220 0.0000000000000000 -0.0000000000000000 -0.0000000000000000 -0.0000000000000000 
100 1 0.2374718306387418 0.2860665284681481 -0.0191444023945010 12.7913008369886008 4.4608044586358631 9.6457820200032831 0.0000300862962863 2.8257525778985113 0.7064809211873525 0.0000000000000000 0.0000000000000000 0.0000000000000000 0.0000000000000000 
124 2 0.0614967805188292 -0.2356888061420661 -0.1569156998103338 11.5509355588051079 1.6327068349592904 6.7059043624755281 0.0000287336640565 2.8483536176109920 0.7308019827380658 0.0000000000000000 -0.0000000000000000 -0.0000000000000000 0.0000000000000000 
163 2 -0.0523347845008707 -0.3082272333665954 -0.1504158237905796 12.4254130137174617 0.0522288756557039 7.0252537303384219 0.0000258784088228 2.8876258917558486 0.7108637167727874 0.0000000000000000 0.0000000000000000 -0.0000000000000000 -0.0000000000000000 
176 2 0.2501532224756493 0.1518846627994017 -0.1169825184224996 12.0003051542232626 4.7982255930943012 7.4716619124648513 0.0000299742558587 2.8354258306592333 0.7471606766441401 0.0000000000000000 -0.0000000000000000 -0.0000000000000000 0.0000000000000000 
201 2 0.0835891514642571 0.1281622631239524 -0.1305495110285796 13.3323494005362839 2.5205568037411261 9.6940020716598898 0.0000320985002299 2.7990528597547017 0.6971583740320479 0.0000000000000000 0.0000000000000000 0.0000000000000000 0.0000000000000000 
202 2 -0.0034450755128039 -0.0897289529149872 -0.1791334696119841 13.6876993476561335 1.5710371988422978 6.9144996259433924 0.0000286179267168 2.8503610244767783 0.7364958790943009 0.0000000000000000 -0.0000000000000000 0.0000000000000000 0.0000000000000000 
4 1 -0.1761052048575064 -0.1287277191917572 -0.1473522770504296 4.6558786365175502 10.4912036368558255 10.5433852300193394 0.0000211349474215 2.9836618855241870 0.7310498478843300 0.0000000000000000 -0.0000000000000000 -0.0000000000000000 0.0000000000000000 
63 1 -0.0611155322466371 0.0883189288355097 0.2282462988113104 1.7831388627023663 8.3416095745264940 6.1962173481623770 0.0000191071299704 3.0382032449492362 0.7510136192636041 0.0000000000000000 0.0000000000000000 0.0000000000000000 -0.0000000000000000 
68 1 -0.1026017692677562 0.0899297144756326 0.1265236109171181 3.8821011304289819 9.1042019974808976 6.6107988296006557 0.0000199732963850 3.0239431441848748 0.7820102567424538 0.0000000000000000 0.0000000000000000 0.0000000000000000 0.0000000000000000 
91 1 -0.2228944105015472 0.2716732970783519 0.0401739860699170 3.9579265194058153 5.3478184271335216 5.5495089936986854 0.0000263214495097 2.8860330940248988 0.7288447074110195 0.0000000000000000 -0.0000000000000000 -0.0000000000000000 0.0000000000000000 
106 2 0.0813963143032230 0.3012585024690528 0.1934408966948628 0.0665226233290164 7.2319211989557957 7.4880482349728359 0.0000183572260185 3.0491933793073800 0.7309768080399660 0.0000000000000000 -0.0000000000000000 -0.0000000000000000 0.0000000000000000 
113 2 -0.1693728224800782 0.1357656546866407 0.1183775213758281 4.1932581730421754 8.8038048561308742 7.0743016318896617 0.0000204766236645 3.0117265633953281 0.7853130132532110 0.0000000000000000 -0.0000000000000000 0.0000000000000000 0.0000000000000000 
6 1 -0.1743233689984637 0.2307733122446069 -0.0619011959584850 6.2723777790024924 9.0836147406155021 7.8451259407451506 0.0000225376781978 2.9518455784004889 0.7233246406128812 0.0000000000000000 0.0000000000000000 -0.0000000000000000 0.0000000000000000 
43 1 0.0711497073146260 0.3625189790915315 -0.0450573498349631 9.2579678137012174 7.0188369770349190 7.9921696992927105 0.0000297087602100 2.8220347942691992 0.6506992535965616 0.0000000000000000 0.0000000000000000 0.0000000000000000 -0.0000000000000000 
46 1 -0.1065671830525161 0.2946168680778598 -0.0910757358776733 7.8133274338256573 8.5926347648547949 6.5499483363276036 0.0000244087941068 2.9065102746018927 0.6788382782847421 0.0000000000000000 -0.0000000000000000 -0.0000000000000000 0.0000000000000000 
69 1 -0.1533008495153277 0.3365492934587567 -0.0620312891115131 6.2299189255910594 7.5567079858937234 5.9883542177346962 0.0000251480723193 2.8942472967413959 0.6765489452270317 0.0000000000000000 0.0000000000000000 -0.0000000000000000 -0.0000000000000000 
86 1 -0.0289775209426005 0.3965030557524860 -0.0529199132626603 8.7750731961741177 7.5505047516956152 7.8057382849227119 0.0000285729357093 2.8370032774413705 0.6536202029944191 0.0000000000000000 0.0000000000000000 -0.0000000000000000 -0.0000000000000000 
131 2 0.0726504719002374 0.3999338744782289 -0.0155624046167822 9.3253734537292150 9.3527081476907536 9.2279978712487178 0.0000235281400552 2.9332649827562127 0.7232683354040266 0.0000000000000000 0.0000000000000000 -0.0000000000000000 -0.0000000000000000 
143 2 -0.1288796841317167 0.1685524065451967 0.1073969393486310 8.3228310731246449 6.0632800013301287 8.8511874808708519 0.0000309716965979 2.8134787567855222 0.6917028228485901 0.0000000000000000 0.0000000000000000 0.0000000000000000 -0.0000000000000000 
172 2 0.0609590330011887 0.3710130082775095 -0.0049633967574689 8.9886916258141909 8.0260315790673538 8.7003207225862305 0.0000273836081525 2.8578861077195645 0.6781321113924464 0.0000000000000000 0.0000000000000000 -0.0000000000000000 -0.0000000000000000 
183 2 0.1883413013900118 0.2567546770398608 -0.2561144892233278 10.2221204973065483 5.9345425946927222 5.9909191268182358 0.0000297538016407 2.8314339605766494 0.7172717458414201 0.0000000000000000 0.0000000000000000 -0.0000000000000000 -0.0000000000000000 
197 2 -0.3114834420042494 0.1886299614712451 0.1297717283712909 6.5184840951142800 6.4291095630965032 10.6327950711300243 0.0000268142415714 2.8823095205845579 0.7463944624343314 0.0000000000000000 0.0000000000000000 0.0000000000000000 0.0000000000000000 
203 2 0.0041372604825501 0.1145231441462086 -0.0496346750943681 6.8466928015482793 10.3024609972103605 10.3104199321664485 0.0000222868088278 2.9551142114192119 0.7044599654809692 0.0000000000000000 0.0000000000000000 -0.0000000000000000 0.0000000000000000 
5 1 0.1340159532586588 -0.1386322614195449 -0.0932101346283122 14.6907633645737103 9.9655432218541975 10.0196377064754483 0.0000168816204825 3.1369194771259972 0.8222744115837802 0.0000000000000000 -0.0000000000000000 0.0000000000000000 -0.0000000000000000 
27 1 0.2509633647498904 0.2514278245435456 -0.0257742863472622 13.7401410523506797 6.6974358571032857 6.9385573999497270 0.0000228057375318 2.9480240734060805 0.7208026013732357 0.0000000000000000 -0.0000000000000000 -0.0000000000000000 0.0000000000000000 
56 1 0.0794433247431031 0.1745677096076901 0.1092155858620091 12.8479304433342669 9.8367927895001888 5.5246863934538357 0.0000197709338659 3.0369880156175992 0.7944299507632784 0.0000000000000000 0.0000000000000000 -0.0000000000000000 -0.0000000000000000 
74 1 0.3231584611330080 0.4112531255679728 0.1299864646533185 12.1209271426069378 6.7235038376359118 10.0000672516108207 0.0000250113483005 2.8998034393307575 0.6908858962542349 0.0000000000000000 -0.0000000000000000 -0.0000000000000000 0.0000000000000000 
98 1 0.2109110463197977 0.3267159705945288 -0.1545598946524852 10.8077774410380147 7.4691783490092343 6.5827009978040358 0.0000266342117444 2.8762686688614076 0.7084525941476039 0.0000000000000000 0.0000000000000000 0.0000000000000000 -0.0000000000000000 
107 2 0.2590896371214638 0.3816114409333910 0.1155996259427142 11.1763896419677220 6.5405351502858284 9.5818123365445160 0.0000279134648170 2.8530991536012618 0.6825981794567259 0.0000000000000000 0.0000000000000000 -0.0000000000000000 -0.0000000000000000 
177 2 0.2487513523031972 0.2962706972627329 0.2105201742616538 14.6124772939853447 7.6723993240916677 7.9828626476839348 0.0000185726944417 3.0333186491960644 0.6972791086154346 0.0000000000000000 -0.0000000000000000 0.0000000000000000 0.0000000000000000 
205 2 0.3523328497375909 0.4374886441647719 0.1099234702688706 14.0320039433092845 6.5655604289697322 9.5804520217668809 0.0000218712060207 2.9747859267106458 0.7700683861065981 0.0000000000000000 0.0000000000000000 -0.0000000000000000 -0.0000000000000000 
3 1 0.0105394614962688 -0.2069054103908310 -0.0480681852472581 4.4624324222652350 12.4193128445265835 10.5298550879103647 0.0000234984350802 2.9295035454763250 0.7148605547566171 0.0000000000000000 -0.0000000000000000 0.0000000000000000 -0.0000000000000000 
14 1 -0.0288104974335303 -0.1273935045652292 -0.0399340597811828 2.1595778835566022 15.9467142347761843 9.4182654536122712 0.0000303626520628 2.8193359408927541 0.6896545607712028 0.0000000000000000 -0.0000000000000000 -0.0000000000000000 -0.0000000000000000 
71 1 0.1114369100769801 -0.3244189210282475 -0.0167763728561760 3.6030850723898427 14.2289148619688390 8.6052115715306829 0.0000269687443285 2.8651064428319781 0.6856957746611083 0.0000000000000000 -0.0000000000000000 0.0000000000000000 0.0000000000000000 
81 1 0.0691879866597059 -0.2601936046548371 -0.0440343724533180 2.8946259017315916 14.6794277730957159 10.0615786809549750 0.0000288258332196 2.8373911089505954 0.6789221565861635 0.0000000000000000 0.0000000000000000 -0.0000000000000000 -0.0000000000000000 
126 2 0.0106878071622173 -0.4677161784163291 -0.0236755549279974 3.0468825133209165 14.2294120643206643 6.0562499389093052 0.0000264088267722 2.8835960816201669 0.7297398681453194 0.0000000000000000 0.0000000000000000 0.0000000000000000 -0.0000000000000000 
141 2 0.0830817314581151 -0.2207319087826715 0.0252737210412359 3.8162998565884374 15.6435247024245410 8.1054556128369146 0.0000295115014190 2.8313705351794116 0.6954121215176978 0.0000000000000000 -0.0000000000000000 -0.0000000000000000 0.0000000000000000 
158 2 -0.1757043399596284 -0.4072659992876276 -0.0807064347761818 0.1449180526095895 14.2556644286586920 8.1267727572179478 0.0000246859867687 2.9258362761162591 0.7762013598519120 0.0000000000000000 0.0000000000000000 0.0000000000000000 -0.0000000000000000 
159 2 -0.1231801826317896 -0.3650452731477523 0.0178653282974820 2.2943403529625042 12.0554281229998370 7.4349335739996736 0.0000200540611381 3.0279889053759570 0.7849122219307076 0.0000000000000000 0.0000000000000000 0.0000000000000000 -0.0000000000000000 
186 2 0.1954450794828244 -0.3410216189050060 -0.0249792826651953 4.1943602075238884 14.4966172204628663 6.5473978544670492 0.0000264927348929 2.8761955650283832 0.7042169391481343 0.0000000000000000 -0.0000000000000000 0.0000000000000000 0.0000000000000000 
206 2 0.0529954918283577 -0.2847505304472127 -0.0407031977209264 3.0451313559038513 14.0748012387220616 10.5072274826744856 0.0000272202288912 2.8601980159535820 0.6736783966393407 0.0000000000000000 0.0000000000000000 0.0000000000000000 0.0000000000000000 
1 1 0.0169177257001075 -0.2656421538039793 -0.1371637643492346 9.4614748272825384 14.0109317686786152 8.7749772553259326 0.0000211646394889 3.0114483723923060 0.8259596153004436 0.0000000000000000 -0.0000000000000000 0.0000000000000000 -0.0000000000000000 
23 1 0.1992142354586976 -0.3331957502438053 -0.0386212696527047 5.5258662489020578 15.1107867929307798 6.5386256920526975 0.0000263163352874 2.8830480601400472 0.7283810468792224 0.0000000000000000 -0.0000000000000000 -0.0000000000000000 0.0000000000000000 
129 2 0.1800740701410806 -0.2742599960727085 -0.0719806893786853 6.3112162871090858 14.5692299015547988 7.9644887065894494 0.0000239718597373 2.9315507653658202 0.7524506845494071 0.0000000000000000 0.0000000000000000 0.0000000000000000 -0.0000000000000000 
117 2 -0.0466688455166828 -0.3773894761906050 -0.2313680246667009 14.1809478927201891 15.2854477214436635 8.4680210114642200 0.0000272656532650 2.8743391178091411 0.7534025575300483 0.0000000000000000 0.0000000000000000 0.0000000000000000 0.0000000000000000 
132 2 -0.1119278023215275 -0.3502498136447357 -0.1301676457479360 11.0576596286031617 13.9942638465912434 8.2857091081220222 0.0000206073192208 2.9955560697393087 0.7296126258545383 0.0000000000000000 -0.0000000000000000 -0.0000000000000000 -0.0000000000000000 
134 2 0.0732953456548081 0.1628742635074361 -0.0451184304193785 11.8395741658138700 10.9095595687413169 7.3509674902768323 0.0000183705746102 3.0710750479782218 0.7778566763142495 0.0000000000000000 -0.0000000000000000 0.0000000000000000 0.0000000000000000 
148 2 -0.0905296527423988 -0.3113398086532245 -0.0554184587773320 14.1538673930054468 12.8200932367163905 7.7123592165139341 0.0000196653697686 3.0421183254993363 0.8107170243917782 0.0000000000000000 -0.0000000000000000 -0.0000000000000000 0.0000000000000000 
192 2 -0.0846733949215230 -0.2792157867981896 -0.1922927135100468 13.9443204115800619 12.7009374600912945 9.6762497255006465 0.0000206652905809 3.0028935264816026 0.7619434041017094 0.0000000000000000 0.0000000000000000 0.0000000000000000 0.0000000000000000 
198 2 -0.0524612094100397 -0.3825659669036596 -0.1498048462499928 11.2423236507685331 13.7409441166795983 9.4587961485133167 0.0000218368256543 2.9768382809358886 0.7639202243661333 0.0000000000000000 -0.0000000000000000 -0.0000000000000000 -0.0000000000000000 
25 1 0.0782198282027576 0.1142414724598322 -0.0276521792201247 0.9849398196155945 1.2868073593855585 10.9496122308235435 0.0000312009057857 2.8082857226061781 0.6906582791711114 0.0000000000000000 -0.0000000000000000 0.0000000000000000 -0.0000000000000000 
28 1 0.1952623862254608 0.1661006756217454 -0.0667102843194863 0.7647876915670052 1.3848707951684969 12.0751345751305674 0.0000312112376591 2.8069211695919769 0.6766360546744929 0.0000000000000000 -0.0000000000000000 0.0000000000000000 -0.0000000000000000 
48 1 0.0597278601629935 0.3725215154825294 0.0330292454747733 2.3572057777441171 2.7289370367833428 10.7127167975223294 0.0000276971889611 2.8622748738294739 0.7300705373614537 0.0000000000000000 -0.0000000000000000 -0.0000000000000000 0.0000000000000000 
49 1 -0.1772973627297771 0.2325044011130286 -0.0667336616599202 3.8218739392277796 4.6192517518308991 14.6263046563246171 0.0000242546680275 2.9191117782152785 0.7151539577853621 0.0000000000000000 -0.0000000000000000 -0.0000000000000000 0.0000000000000000 
83 1 -0.0911047492450664 0.3236210520772347 0.0074773464710883 3.9026151097453772 3.1752601601730488 10.8890139412291642 0.0000270630316924 2.8764569182038526 0.7492526510980425 0.0000000000000000 0.0000000000000000 -0.0000000000000000 0.0000000000000000 
94 1 0.0251289700739721 0.3271970589676456 0.0219794540365507 0.5296939064883858 2.2050522542836588 15.4334877202967498 0.0000298773737023 2.8346768708118741 0.7458119082859820 0.0000000000000000 -0.0000000000000000 -0.0000000000000000 0.0000000000000000 
97 1 0.0426552918445973 0.3332097414492536 -0.1132692601971773 1.9621220286769343 2.8089206906427595 15.6174044181918443 0.0000284559300185 2.8531539461206918 0.7360794069043587 0.0000000000000000 -0.0000000000000000 -0.0000000000000000 -0.0000000000000000 
112 2 0.2032506385876144 -0.1497965031590795 0.0234664052029770 4.2912913122785881 0.5570941828004472 12.6022455795309938 0.0000278207557801 2.8750332280429745 0.7828727366790200 0.0000000000000000 0.0000000000000000 -0.0000000000000000 -0.0000000000000000 
127 2 0.0347696029816949 0.1820539601351381 0.0433894553514078 0.6127880314447277 1.6165087707856580 15.7273472633220930 0.0000308099845552 2.8199863198057020 0.7321580972665734 0.0000000000000000 0.0000000000000000 0.0000000000000000 0.0000000000000000 
162 2 -0.3175260703587090 0.2594261846430332 -0.0359063136236863 4.2077917474052988 5.3018401503001531 11.8995148011834040 0.0000231171234074 2.9547343294191122 0.7827245624187859 0.0000000000000000 -0.0000000000000000 -0.0000000000000000 0.0000000000000000 
174 2 0.0748993577503917 0.3564534895605242 -0.0381183889294763 2.0849862686030760 2.7273566483820231 12.9676201696694910 0.0000284034818508 2.8517586913013817 0.7266247421794518 0.0000000000000000 0.0000000000000000 -0.0000000000000000 -0.0000000000000000 
189 2 0.1265643357016626 0.2877961499711272 0.0225732253297827 0.1503308421852370 2.0284188265664334 13.9990898316118741 0.0000307227050547 2.8201513971310552 0.7236700382379466 0.0000000000000000 -0.0000000000000000 0.0000000000000000 0.0000000000000000 
18 1 -0.0777186052699171 0.1439706081877966 0.1377049403965544 10.1532740472814407 3.5842463095339192 11.8504246212869813 0.0000328023332828 2.7944546529148448 0.7272433959117601 0.0000000000000000 0.0000000000000000 0.0000000000000000 -0.0000000000000000 
38 1 -0.1492423032992424 -0.0399236710631285 0.0325077432465898 7.5564541115519308 3.2121452990341979 11.7722142086462362 0.0000299621450647 2.8418159271198258 0.7887288144084555 0.0000000000000000 0.0000000000000000 -0.0000000000000000 0.0000000000000000 
54 1 -0.1443355221393528 -0.0736665709565359 0.0562327605383966 10.0582571644691594 2.8337900663500721 11.3056132941000556 0.0000330408584462 2.7926561825052287 0.7360678936418341 0.0000000000000000 -0.0000000000000000 0.0000000000000000 0.0000000000000000 
70 1 -0.0764567487222061 0.1271408970997225 -0.0197052953448274 5.3510734992823092 3.4759484797145217 13.7363218978270094 0.0000275658311816 2.8706653185034794 0.7481448214250144 0.0000000000000000 0.0000000000000000 0.0000000000000000 -0.0000000000000000 
84 1 -0.1154659634051301 -0.0902835653910523 0.0414190464405417 7.8192848849626841 2.0736997909128356 15.8995403927878272 0.0000291311842680 2.8379493001030247 0.7061775230046395 0.0000000000000000 0.0000000000000000 0.0000000000000000 -0.0000000000000000 
168 2 -0.1360597903921912 -0.1831787676941610 0.0248868219634338 7.3152908032441575 1.7440264696697612 13.6259237715487931 0.0000282837560553 2.8674113787587161 0.7920600493631123 0.0000000000000000 0.0000000000000000 0.0000000000000000 -0.0000000000000000 
169 2 -0.2014883915945904 -0.1906656359486965 0.0192415178034323 7.8445877190719191 1.7246235730094817 15.0601074592529383 0.0000287373486357 2.8459000503540821 0.7172822832547894 0.0000000000000000 -0.0000000000000000 -0.0000000000000000 0.0000000000000000 
184 2 -0.2153790565431906 -0.3456739291984092 -0.0109913019726067 9.5067968844063575 1.6604348105366897 10.8691454109033891 0.0000306075604110 2.8322336204402676 0.7853061794853364 0.0000000000000000 -0.0000000000000000 -0.0000000000000000 -0.0000000000000000 
188 2 -0.1028545671436987 -0.0613914460050417 0.1264184121021135 9.4409226175683649 2.3433953755293029 15.2291216249837973 0.0000306560901351 2.8107046411816081 0.6525385264985384 0.0000000000000000 -0.0000000000000000 -0.0000000000000000 -0.0000000000000000 
195 2 -0.0460355502666000 0.1978538018014297 0.1149103353255141 8.1329397087581832 4.5547301356932799 15.8403395701234295 0.0000274797736160 2.8643474441673673 0.7062756488691126 0.0000000000000000 -0.0000000000000000 0.0000000000000000 0.0000000000000000 
29 1 0.1769283807423815 0.3527193754434569 0.1121108569553738 12.1899856223187175 5.1152064427869126 15.2684815879977140 0.0000236931440777 2.9516681970296941 0.8050400309710709 0.0000000000000000 -0.0000000000000000 -0.0000000000000000 0.0000000000000000 
32 1 0.0110926907905900 -0.1237438355315597 0.0280202722619998 14.4761472012204138 0.0760211354610528 13.4569233689669758 0.0000329219540250 2.7941050279005335 0.7287803089551955 0.0000000000000000 0.0000000000000000 -0.0000000000000000 -0.0000000000000000 
44 1 0.1255325177238731 0.4286464947439280 0.1740991977781988 12.3369644837384111 3.5440894137322996 13.4583356486696193 0.0000304949213912 2.8157934210860067 0.6771199563780351 0.0000000000000000 0.0000000000000000 0.0000000000000000 -0.0000000000000000 
47 1 0.0919503908397816 0.0742665776660459 0.0029882787536087 13.8549788138908081 1.4426343186404638 11.9837654514942269 0.0000335277991507 2.7817760601140331 0.6878235911808364 0.0000000000000000 0.0000000000000000 -0.0000000000000000 -0.0000000000000000 
60 1 -0.1626253183993675 -0.0890727609121524 -0.0664834374402047 11.2895856735642806 2.0272135177541202 11.4794009870084359 0.0000335616967553 2.7819112845733884 0.7015499815387026 0.0000000000000000 -0.0000000000000000 0.0000000000000000 -0.0000000000000000 
80 1 0.0533067233441966 0.4332005346364611 -0.0462414242142930 15.5134296468542168 4.8587011233388306 14.3644042496698621 0.0000226025765982 2.9926829162634210 0.8529036831142105 0.0000000000000000 0.0000000000000000 0.0000000000000000 0.0000000000000000 
90 1 -0.0663307022365082 0.0130962370328499 0.1298555571529040 11.9575446940521495 1.2732101357821446 14.3439832452256599 0.0000333223968623 2.7820131918412212 0.6814047160539586 0.0000000000000000 0.0000000000000000 0.0000000000000000 0.0000000000000000 
118 2 -0.0196532461612431 0.0428256882225694 0.1784259404490664 12.0902250082558016 1.2972158890276533 14.8086780424878484 0.0000325657227545 2.7894967606029129 0.6691055261314343 0.0000000000000000 -0.0000000000000000 0.0000000000000000 0.0000000000000000 
119 2 -0.0328045194935518 0.0247157820424971 0.1842674698609861 12.0808930363974127 0.9141463598734527 15.3675463570622046 0.0000319432711446 2.7990416022419939 0.6827369801270303 0.0000000000000000 -0.0000000000000000 0.0000000000000000 0.0000000000000000 
123 2 0.2082944824821636 0.3170932468767584 -0.0035984206591992 12.3815874862990238 3.7709041631353148 11.1534899016212190 0.0000323101414732 2.7948535225280988 0.6938821277337204 0.0000000000000000 0.0000000000000000 0.0000000000000000 0.0000000000000000 
139 2 0.0835278845771557 0.3531944518942363 0.1257095066751545 12.2426183496162615 2.9287262106117646 13.7444252894646368 0.0000324607011745 2.7924545776267151 0.6887940220854381 0.0000000000000000 -0.0000000000000000 -0.0000000000000000 -0.0000000000000000 
208 2 0.0073593116039384 0.0556688063041895 0.1135439257909191 12.6022425376393379 1.6146666490556543 13.3660758540691873 0.0000341826593102 2.7727287778076697 0.6857388243766165 0.0000000000000000 -0.0000000000000000 0.0000000000000000 0.0000000000000000 
33 1 -0.0442766087567479 -0.3008268656700371 -0.3141944726411534 1.4113764055694127 9.9096000114096725 14.2572410001341279 0.0000221327940736 2.9546444298072352 0.6984637403931157 0.0000000000000000 -0.0000000000000000 0.0000000000000000 -0.0000000000000000 
121 2 -0.2032466288442553 0.1542574811899433 -0.1311149319465473 3.5325478582330279 6.2648717875044380 14.4097019950602458 0.0000221998620186 2.9814507747497534 0.8065933869394915 0.0000000000000000 -0.0000000000000000 -0.0000000000000000 -0.0000000000000000 
53 1 0.0565413008821057 0.0916151660916287 0.0636901253983248 7.6030019908752777 9.7724095804328517 13.3563175743963960 0.0000228539443268 2.9411645860316589 0.7123909958736714 0.0000000000000000 -0.0000000000000000 -0.0000000000000000 -0.0000000000000000 
73 1 -0.1156203245984548 -0.0099976263389825 -0.0434596266770290 5.8981440761873865 9.5796864646484767 11.9944086400612555 0.0000228348983536 2.9327386223541456 0.6674896311063097 0.0000000000000000 -0.0000000000000000 -0.0000000000000000 0.0000000000000000 
82 1 -0.1662809645398626 0.1748593873082905 0.0008220277445852 5.4150450181514120 5.7056229315779250 13.0576356389947623 0.0000250237724644 2.9086511286070080 0.7441258700510140 0.0000000000000000 -0.0000000000000000 0.0000000000000000 -0.0000000000000000 
88 1 0.0455716249943722 0.2718583715594123 0.1814784381137432 8.2756986586679524 7.4299915274903698 13.0008235482952816 0.0000246387985304 2.9166669298913832 0.7419179428570866 0.0000000000000000 0.0000000000000000 -0.0000000000000000 -0.0000000000000000 
93 1 -0.1210517581625087 0.2257144025166164 0.1833845306968168 7.8477308573714923 6.0606918301292971 12.5660908623568286 0.0000277053090188 2.8685478982855255 0.7556125466971514 0.0000000000000000 -0.0000000000000000 0.0000000000000000 -0.0000000000000000 
154 2 0.0512969380160863 0.2305712780115083 0.1661588783348939 8.6267280516297369 7.9587451351543574 11.6936620977941050 0.0000252677563741 2.9025775027774801 0.7276605114900213 0.0000000000000000 0.0000000000000000 0.0000000000000000 -0.0000000000000000 
164 2 -0.0139874755036442 -0.0362665363360608 0.0970371140593236 6.2935060439276258 9.0203211276813953 14.7311931621969165 0.0000221502113575 2.9632560440374336 0.7290279592741765 0.0000000000000000 -0.0000000000000000 -0.0000000000000000 0.0000000000000000 
173 2 -0.1236477689780947 0.2073909186313318 0.0940045534185430 6.7581527940682289 6.7453218405947979 13.6513773958777413 0.0000251586907478 2.9068005043620433 0.7462592585006266 0.0000000000000000 0.0000000000000000 -0.0000000000000000 0.0000000000000000 
7 1 0.0752784348566111 -0.1756933934814464 -0.1208838572802949 12.8660022017444557 8.7222886625119500 14.5843562584852844 0.0000200591838912 3.0259827356204800 0.7786751479212899 0.0000000000000000 -0.0000000000000000 0.0000000000000000 0.0000000000000000 
59 1 -0.0107105287349801 -0.2785201283902184 -0.1191458480907897 13.4431536145008810 8.6884617482271747 15.3642630684144752 0.0000207695816316 2.9919153362145403 0.7361697037137911 0.0000000000000000 -0.0000000000000000 0.0000000000000000 0.0000000000000000 
62 1 0.0038903156190315 -0.3724052930651778 -0.1952515662233488 14.8570411583436872 9.1382607742091917 15.3898677439696971 0.0000220050383284 2.9461589515868032 0.6651801136246461 0.0000000000000000 0.0000000000000000 -0.0000000000000000 -0.0000000000000000 
209 2 0.3085749831356931 0.4052791797584800 0.1473165068108339 12.9058741311153007 6.4498055983094167 12.0085075964534589 0.0000222427609279 2.9753578706455777 0.7844081733135223 0.0000000000000000 0.0000000000000000 0.0000000000000000 0.0000000000000000 
35 1 -0.0019450570485997 -0.1076488114500734 -0.0561420608444193 4.5430448213601329 11.3831979368669209 12.2936254414448864 0.0000232724518897 2.9277354445533241 0.6923719843665259 0.0000000000000000 -0.0000000000000000 -0.0000000000000000 -0.0000000000000000 
42 1 0.0840980861345508 -0.0897789426793471 -0.0607528193979969 3.5888673999874583 11.4278977162656332 14.1928742895477900 0.0000242029065368 2.9118593534687287 0.6837150790396612 0.0000000000000000 -0.0000000000000000 0.0000000000000000 0.0000000000000000 
51 1 0.0923181380271947 -0.2188774056399198 -0.1286327421586084 1.8656104302646153 12.4579806573930831 14.7101992479672070 0.0000276222451711 2.8673488005943026 0.7381111041671408 0.0000000000000000 0.0000000000000000 0.0000000000000000 0.0000000000000000 
114 2 0.0533938409718881 -0.0300711958355041 0.0383072976986358 0.2712683881323142 15.7072344006027542 15.0767912043335084 0.0000320094712873 2.8118524698575422 0.7676236866417308 0.0000000000000000 -0.0000000000000000 -0.0000000000000000 0.0000000000000000 
115 2 0.0502637624684013 -0.3241952801064249 -0.1262630473808932 0.2046075561260870 14.7061360677486004 11.5491060671358365 0.0000293557678786 2.8416882724739283 0.7314982244583559 0.0000000000000000 -0.0000000000000000 0.0000000000000000 0.0000000000000000 
146 2 0.2376635432544984 -0.1079835866701741 -0.0214376978793005 3.1681278214421758 15.4778605275050900 13.3369748871099532 0.0000288206080293 2.8642033579785156 0.8074967373356797 0.0000000000000000 -0.0000000000000000 0.0000000000000000 -0.0000000000000000 
180 2 0.1180134059610922 -0.0055131553346923 -0.0384346135096421 5.2102500552731854 11.7893847617806653 14.4050833214716043 0.0000234822329451 2.9310076119507675 0.7130813987989584 0.0000000000000000 0.0000000000000000 0.0000000000000000 0.0000000000000000 
200 2 0.1301340685543145 -0.2521488195121701 -0.0733545338711726 3.1882636255408894 13.8421576749626620 11.3545825499235704 0.0000270838661204 2.8690033011788945 0.7096307459773269 0.0000000000000000 0.0000000000000000 0.0000000000000000 0.0000000000000000 
10 1 -0.1423447992072155 -0.2197340239578071 -0.1696286517061625 10.2935423904408694 12.8619436843609876 13.0659460887132699 0.0000230616503508 2.9596271864873822 0.7939317567964802 0.0000000000000000 0.0000000000000000 -0.0000000000000000 -0.0000000000000000 
50 1 0.0598742454553222 -0.0434308278742896 -0.0248244365403164 8.3350172417180097 11.0917314590289173 14.3786733313144541 0.0000215535266122 2.9762870293514307 0.7363871421017865 0.0000000000000000 -0.0000000000000000 0.0000000000000000 0.0000000000000000 
58 1 0.0317078722784320 -0.1470801413494363 -0.0191912497372127 7.3685863256001429 14.4830898618328732 12.3172086322656256 0.0000228481606948 2.9835418757376733 0.8341286838466773 0.0000000000000000 0.0000000000000000 -0.0000000000000000 0.0000000000000000 
110 2 0.0895820536388497 -0.0152545181893518 -0.0537130373522186 5.8777038495668341 12.1152073947491559 13.0384931499443173 0.0000233371752572 2.9325937639945372 0.7169822101654074 0.0000000000000000 0.0000000000000000 0.0000000000000000 0.0000000000000000 
130 2 0.1004668463923297 -0.1622645597642654 -0.0606328609942771 6.3588132053766255 14.4542748341431491 15.8223067579874783 0.0000240196169561 2.9570327870180053 0.8431769356876693 0.0000000000000000 -0.0000000000000000 0.0000000000000000 -0.0000000000000000 
9 1 -0.0037587955849966 -0.2388534099912354 -0.1042667049387546 15.8777738059205333 11.5519935857186322 15.3987177685172227 0.0000275077365699 2.8552029003664781 0.6711015394914398 0.0000000000000000 0.0000000000000000 0.0000000000000000 0.0000000000000000 
24 1 -0.1904759930290602 -0.2925411143599655 -0.1409736807578599 10.8792958699831228 14.0335973954850797 13.0545910176049613 0.0000261092857138 2.9064945264043840 0.8088287278258389 0.0000000000000000 0.0000000000000000 -0.0000000000000000 -0.0000000000000000 
78 1 -0.1116322416601866 -0.4403218594031837 -0.1583872909283160 14.3628276669608468 13.5271987715916016 12.5733533359039917 0.0000273304051488 2.8803360619238472 0.7821575670589644 0.0000000000000000 -0.0000000000000000 -0.0000000000000000 -0.0000000000000000 
92 1 -0.1163246977440158 -0.2407397246323742 -0.0381260115616302 13.3730228893872649 14.4127355452331187 14.9618913599177255 0.0000307856268414 2.8264139263946273 0.7673802725684604 0.0000000000000000 -0.0000000000000000 -0.0000000000000000 -0.0000000000000000 
99 1 0.1056672159142075 0.0677544661203626 -0.0503087464429358 10.8481373917769073 10.8286830804734517 10.9997161844119304 0.0000199298301894 3.0293453720997947 0.7711923472695796 0.0000000000000000 -0.0000000000000000 0.0000000000000000 0.0000000000000000 
101 1 -0.0355456891082877 -0.3992978575758784 -0.2296273506052494 15.9257537413092471 11.9204673388597282 13.7463523898838851 0.0000257054276288 2.8978502021155479 0.7439822282290490 0.0000000000000000 -0.0000000000000000 0.0000000000000000 -0.0000000000000000 
157 2 -0.1093936225643468 -0.3205439152606830 -0.1938657924763540 10.7094889737362902 13.1617950994887938 12.5205921513885023 0.0000239043791614 2.9496703823088160 0.8264047795626516 0.0000000000000000 -0.0000000000000000 -0.0000000000000000 0.0000000000000000 
160 2 -0.1998524644725127 -0.2705424555263683 -0.1429011801453442 13.1725263549203113 12.2815336819713821 15.2407807391989856 0.0000264782500150 2.8797582957095362 0.7030816947641202 0.0000000000000000 0.0000000000000000 -0.0000000000000000 -0.0000000000000000 
167 2 -0.1078145114544194 -0.3802045212929944 -0.2028921271869271 14.7884971963523597 12.8701740555670199 13.0837205992346295 0.0000264645448003 2.8923777669127375 0.7754974629264275 0.0000000000000000 -0.0000000000000000 -0.0000000000000000 0.0000000000000000 
