ITEM: TIMESTEP
0
ITEM: NUMBER OF ATOMS
222
ITEM: BOX BOUNDS pp pp pp
0.0000000000000000e+00 1.6267770866500900e+01
0.0000000000000000e+00 1.6267770866500900e+01
0.0000000000000000e+00 1.6267770866500900e+01
ITEM: ATOMS id type fx fy fz x y z rho_SPH width_SPH omega_SPH u_SPH vx vy vz 
13 1 0.0581795358614363 0.2381005118044325 -0.1755489513386978 2.6549674351075323 2.4578611763102263 1.1233326587258619 0.0000344014827903 2.1299217126705381 0.8123938236149393 0.0000000000000000 -0.0000000000000000 -0.0000000000000000 0.0000000000000000 
31 1 0.0889723589665615 -0.0491829846323815 -0.0858586726901714 5.2941225491421537 2.2571452186923415 2.0230118016636438 0.0000308522438515 2.2388923184354779 0.9653023069097830 0.0000000000000000 -0.0000000000000000 -0.0000000000000000 0.0000000000000000 
36 1 -0.0880269586679644 0.3229598626175122 0.0846562947928472 2.0119867400615323 5.1341764868270232 4.9565791179873573 0.0000317346775818 2.0978411255870419 0.7238915040310799 0.0000000000000000 -0.0000000000000000 0.0000000000000000 0.0000000000000000 
39 1 0.2131421364408377 -0.1696248920460830 0.0233343281706117 3.2909085847006843 0.0500984124309305 4.2404563212251452 0.0000375865958554 2.0973257867717128 0.7992170774892315 0.0000000000000000 0.0000000000000000 0.0000000000000000 0.0000000000000000 
67 1 -0.1086364526015701 0.1520471759945418 -0.0478512104804490 1.3104015070213020 1.0702476777298273 2.9363735727976250 0.0000420963145039 2.0142480573931119 0.7006405241495469 0.0000000000000000 -0.0000000000000000 0.0000000000000000 -0.0000000000000000 
79 1 0.0613173120470175 0.1842853513823508 0.0160670972029666 2.4636536926652104 1.7507573794008999 3.1884032898025176 0.0000401199715978 2.0365987239544472 0.7382588165056491 0.0000000000000000 -0.0000000000000000 0.0000000000000000 0.0000000000000000 
96 1 -0.2818908808425496 0.1928986311512011 0.0727319618328935 0.1268550882266478 2.0694811295659692 5.1014579857292830 0.0000333190750517 2.1479450105078990 0.8613191481728939 0.0000000000000000 0.0000000000000000 0.0000000000000000 -0.0000000000000000 
157 2 -0.0743627723648027 0.2346890649254415 -0.0590303168109191 5.3185572662853655 4.3248110456335986 1.2146785738474735 0.0000289667312089 2.2379197271475935 0.9611772394990268 0.0000000000000000 -0.0000000000000000 -0.0000000000000000 0.0000000000000000 
162 2 -0.1099956207539110 0.2828901847580571 -0.0445221782040975 4.3028270488996538 4.6025226554959096 1.5462818315299793 0.0000283281083241 2.2504460816687031 0.9706888698424491 0.0000000000000000 -0.0000000000000000 -0.0000000000000000 0.0000000000000000 
171 2 -0.0313316349142744 0.1132407426035521 0.0997874803576765 1.9843609137080560 1.1507231753951230 4.7456210548095639 0.0000381405739930 2.0762344247362616 0.8029122296240482 0.0000000000000000 0.0000000000000000 0.0000000000000000 -0.0000000000000000 
177 2 0.0574565946401339 0.1499446771917378 -0.0037628999923220 2.2884977000759674 1.2946018267044994 3.2409615758253287 0.0000417076719451 2.0127934675430588 0.7085921452509363 0.0000000000000000 -0.0000000000000000 0.0000000000000000 0.0000000000000000 
185 2 0.0570375591414583 0.0836122009030446 -0.1268269363197640 1.1774688644843427 0.7212883982070072 1.0328327944684004 0.0000377911596463 2.0809520084410305 0.7905796090291540 0.0000000000000000 0.0000000000000000 0.0000000000000000 0.0000000000000000 
188 2 -0.2728668545184548 0.3306132709425795 -0.0588108308815230 0.1141562298679981 3.9638537537861955 4.8891140219479112 0.0000297153623300 2.1667784655943700 0.8455735534811812 0.0000000000000000 -0.0000000000000000 -0.0000000000000000 -0.0000000000000000 
199 2 0.1825650049128081 -0.1929284648109348 -0.2088511851677123 5.0233164528010859 0.9225991387559358 1.0272546356199987 0.0000292261072605 2.2731881942453867 0.9553632806531462 0.0000000000000000 0.0000000000000000 0.0000000000000000 0.0000000000000000 
30 1 -0.2169106487904197 0.2205256034638357 -0.2393837208166621 6.7471889133281797 4.9634181304437268 3.5355803366832488 0.0000317399098245 2.2457741622204832 0.9380731591643608 0.0000000000000000 -0.0000000000000000 0.0000000000000000 0.0000000000000000 
57 1 -0.0377940828520677 -0.2086840746295848 0.1189930919084167 9.8761315783207664 1.0872237269519958 1.8362698522719931 0.0000357958912255 2.1177486960543410 0.8309644261740842 0.0000000000000000 -0.0000000000000000 0.0000000000000000 -0.0000000000000000 
108 1 -0.0953009790655739 -0.1692677585674191 0.0290422739557617 9.4662120767640214 1.4935517841416279 3.1459701353924232 0.0000345953422728 2.1526562947788914 0.8797130788829094 0.0000000000000000 0.0000000000000000 -0.0000000000000000 0.0000000000000000 
114 2 0.2373371727009428 -0.3068056110092739 -0.0903411928723772 5.5584999096988694 0.0237062056761944 4.8301987997996081 0.0000305370386596 2.2210726482271408 0.9249469565802041 0.0000000000000000 0.0000000000000000 -0.0000000000000000 0.0000000000000000 
126 2 0.1273733198940895 0.0070972182565289 -0.1822423977538735 9.8812959677184757 4.4435714171443061 5.1504031181496153 0.0000402412877752 2.0422033804277326 0.7707024471817219 0.0000000000000000 0.0000000000000000 0.0000000000000000 -0.0000000000000000 
155 2 0.4024169425746850 0.2805929250145077 -0.3157788138398407 10.4743851901832645 5.3873056589591028 2.6914002496360334 0.0000314329310688 2.1472493637550749 0.8147872118463942 0.0000000000000000 0.0000000000000000 -0.0000000000000000 0.0000000000000000 
187 2 0.1206159346854623 0.2527306505284793 -0.0325372630429932 9.4379270336746384 3.8306427923123327 1.4606546468282264 0.0000360608238994 2.1188938849329184 0.8037949944258723 0.0000000000000000 -0.0000000000000000 -0.0000000000000000 0.0000000000000000 
210 2 -0.0444810076139544 -0.0187097141764688 -0.1516072551362498 9.0319621357805548 3.6044103458899404 3.8499111372964796 0.0000375134948475 2.1115555279880698 0.8353146822313852 0.0000000000000000 0.0000000000000000 -0.0000000000000000 -0.0000000000000000 
66 1 0.1014510728181459 -0.2379621286869461 0.1048944493625750 11.1486010259965109 0.7989799590230039 3.3452064363850997 0.0000329368786937 2.1852577500535597 0.8955814925724963 0.0000000000000000 0.0000000000000000 -0.0000000000000000 0.0000000000000000 
117 2 0.2178846774990903 0.4912045590338515 0.1632783353564137 10.8666524139030667 4.2693306007267333 0.1415906261572867 0.0000313954853758 2.1990530425673720 0.8861952947606264 0.0000000000000000 0.0000000000000000 0.0000000000000000 0.0000000000000000 
146 2 0.2414921338403155 0.2429259459173831 0.1439981845797469 11.8768890879179985 2.3992458608259848 1.5675812396368141 0.0000318040277457 2.2400174687511774 0.9285632260186540 0.0000000000000000 -0.0000000000000000 0.0000000000000000 -0.0000000000000000 
158 2 -0.1261991279319610 -0.0546541099052228 0.0699482702130989 14.7084782377135230 0.1509665030034457 3.8789718578449128 0.0000316356792057 2.1733138328589003 0.9051502645788178 0.0000000000000000 0.0000000000000000 0.0000000000000000 -0.0000000000000000 
213 2 0.0297559771558311 0.1920778400285159 -0.0709496597315256 13.9757162714870145 1.9860854658014939 4.1801277263972132 0.0000297596855944 2.2581842684871813 0.9615845995317709 0.0000000000000000 -0.0000000000000000 0.0000000000000000 0.0000000000000000 
41 1 -0.0289010833324519 -0.2279757403725708 -0.0819169607287114 1.2131877556821178 8.0224668098000684 1.6270842867588864 0.0000251348440843 2.2929504603738700 0.8899989473093801 0.0000000000000000 0.0000000000000000 -0.0000000000000000 -0.0000000000000000 
76 1 0.0017793079201736 0.1534313127048178 -0.0058524122265696 5.3730542983554592 8.5208873147171591 2.5727858428599979 0.0000224281551132 2.4523551636499770 1.0371313073370498 0.0000000000000000 0.0000000000000000 -0.0000000000000000 0.0000000000000000 
77 1 -0.0838262829579727 0.2184232988103010 -0.1326109210376877 2.0329285369086172 5.6005403578081054 3.3412033860553003 0.0000283265944694 2.1974961588341841 0.8370708843776683 0.0000000000000000 0.0000000000000000 -0.0000000000000000 0.0000000000000000 
134 2 0.1814226127329842 -0.2685739483436420 0.0241952234036497 2.3609380617744073 10.4458624388102166 0.1063201936869145 0.0000324081954297 2.1289129864317262 0.7510142085208611 0.0000000000000000 -0.0000000000000000 0.0000000000000000 0.0000000000000000 
142 2 -0.1354238860780752 0.1512998239648852 -0.0007482907892484 1.5025746915644707 6.8352452615885984 3.8123160837499528 0.0000267811212498 2.2015707417056358 0.8210999279126528 0.0000000000000000 -0.0000000000000000 -0.0000000000000000 -0.0000000000000000 
151 2 0.1072240634380974 -0.2315005816612162 0.2400557936538293 0.9992076713441143 10.7983185200911169 1.7156001598353039 0.0000325550233340 2.1448587512661677 0.7856656080726055 0.0000000000000000 -0.0000000000000000 -0.0000000000000000 -0.0000000000000000 
205 2 -0.0190836533236976 -0.1580904125386356 -0.0669245674429386 2.6885211008199321 7.8705105931771335 0.5540216668090575 0.0000242955002574 2.3341877612016591 0.9459908551513531 0.0000000000000000 0.0000000000000000 -0.0000000000000000 -0.0000000000000000 
2 1 0.0733629472518924 0.4119778587228287 -0.0826302599277820 9.1090576716865037 6.6548106546319383 0.9291730742846018 0.0000254525542621 2.3209770565491561 0.9767750470774640 0.0000000000000000 -0.0000000000000000 0.0000000000000000 0.0000000000000000 
12 1 -0.0352304957337837 0.4048187097432328 -0.1068950089325341 8.9947231782645520 9.1226261753912894 3.9271532169739576 0.0000235795083064 2.3907249953340917 0.9238250912485931 0.0000000000000000 -0.0000000000000000 -0.0000000000000000 0.0000000000000000 
17 1 -0.1361684162711430 0.3598545618262062 -0.1434294234626684 6.3946961833738678 8.6107862526812760 4.3633133036204281 0.0000248299620891 2.2898139265569624 0.9194896173432987 0.0000000000000000 0.0000000000000000 0.0000000000000000 0.0000000000000000 
64 1 -0.0805096417422129 0.4111711218134250 -0.2528326366226185 8.1367305852248411 6.8499389288677648 2.7883827951054894 0.0000292686620946 2.2011979082138082 0.8662425707035253 0.0000000000000000 0.0000000000000000 0.0000000000000000 0.0000000000000000 
122 2 0.0122512191261380 0.2623757813474369 -0.3141534309983855 9.1475768506148007 5.7439603179376935 4.3275960949811596 0.0000397135275702 2.0271087843869990 0.7031734292375833 0.0000000000000000 0.0000000000000000 0.0000000000000000 -0.0000000000000000 
219 2 0.1448047132496411 0.3126733654387387 -0.3736655572496601 9.5681685045288489 5.6716457815204819 3.9193755035625593 0.0000385110119573 2.0279518190654677 0.6925444728206009 0.0000000000000000 0.0000000000000000 0.0000000000000000 -0.0000000000000000 
20 1 -0.0833954517676074 -0.0626185067404656 0.3307583715935402 14.0128574715542324 10.0194790253804467 3.5389482873407765 0.0000265635294840 2.1799690297670531 0.8000272057714838 0.0000000000000000 -0.0000000000000000 0.0000000000000000 -0.0000000000000000 
21 1 -0.0994843144291611 -0.2540167593165367 0.1845759955996502 14.0464865071166667 9.1763033301793993 2.8273361785436397 0.0000267590693391 2.1804505168609190 0.7913786337208356 0.0000000000000000 0.0000000000000000 -0.0000000000000000 0.0000000000000000 
102 1 -0.1004096535932356 -0.1217474744355169 -0.0055422938894411 15.2739304277838741 7.4783248329458107 3.2276283313014837 0.0000230318846596 2.3395655878599579 0.9270043245071160 0.0000000000000000 -0.0000000000000000 -0.0000000000000000 0.0000000000000000 
172 2 -0.0736095066883767 0.1855301911114480 0.0346227910734157 16.0765018856269855 6.1081432738550729 5.3250045855743942 0.0000255411465933 2.2389211673461120 0.8126151444953285 0.0000000000000000 0.0000000000000000 -0.0000000000000000 -0.0000000000000000 
181 2 -0.2140331223512542 -0.2476024748370223 0.1257122691078757 12.8072891349166547 10.1180086112641607 2.2657965972491994 0.0000279499516774 2.1739786226301883 0.7718362338421899 0.0000000000000000 0.0000000000000000 -0.0000000000000000 -0.0000000000000000 
197 2 -0.1623082397925272 -0.3275156349122504 0.0641158747862731 15.2465460698687139 10.4143772317796532 0.8962133134099880 0.0000341569561186 2.0973163317611876 0.7214119439207247 0.0000000000000000 0.0000000000000000 0.0000000000000000 0.0000000000000000 
37 1 0.1503146501270876 -0.3073494689212578 0.2241723387114951 2.2030609359449556 13.3637385527389743 3.2993351740111967 0.0000323758627230 2.1251595154691874 0.8125827928477614 0.0000000000000000 0.0000000000000000 0.0000000000000000 -0.0000000000000000 
45 1 0.3279266626703964 -0.0578885525896355 0.1223001415191256 3.9653900400218101 11.3622035293585686 0.9346830074244709 0.0000278424257358 2.2307781726976375 0.8634997495076789 0.0000000000000000 -0.0000000000000000 0.0000000000000000 0.0000000000000000 
89 1 0.2539520869888311 -0.1524581459032390 -0.0253741340534353 2.4325673586295635 13.8908853177381424 2.0602654809744312 0.0000333433424817 2.1395792471753703 0.8402976595556382 0.0000000000000000 -0.0000000000000000 0.0000000000000000 0.0000000000000000 
144 2 0.2990652032703811 -0.2371230338365896 0.2246055059604839 2.5024157872687876 11.6746955276581375 1.8416692035195150 0.0000313210345500 2.1408523533665798 0.7900676111175690 0.0000000000000000 -0.0000000000000000 -0.0000000000000000 -0.0000000000000000 
193 2 -0.2435730459516459 -0.0631664298991434 0.0190763454926160 0.0031936212197579 16.1661509035138096 2.6075797791376827 0.0000374396331006 2.0818687573142354 0.7939019272277629 0.0000000000000000 0.0000000000000000 0.0000000000000000 -0.0000000000000000 
200 2 0.3262763261293733 -0.2109920388437719 -0.1630470333557832 3.6461880527121635 15.1204580814988692 1.8556252694665631 0.0000310969790109 2.2237179725908254 0.8966820914900234 0.0000000000000000 0.0000000000000000 0.0000000000000000 0.0000000000000000 
202 2 0.3116487252889351 -0.2183665464830417 0.1802202653121658 5.0650992582503980 11.9611040027893960 3.5396933133507447 0.0000216223768820 2.4105281060916184 0.9820424580352503 0.0000000000000000 -0.0000000000000000 0.0000000000000000 0.0000000000000000 
216 2 -0.0254935384690339 -0.3345856991167313 0.2818145351625815 1.4812268961123836 13.4994361365163780 3.5930579471817832 0.0000318239686516 2.1503425191880372 0.8518750897490541 0.0000000000000000 0.0000000000000000 0.0000000000000000 -0.0000000000000000 
218 2 -0.1932930131460667 -0.3570835156604596 0.1290388689802823 1.2375585046237538 14.8641583721962061 5.4170229143116595 0.0000313446809520 2.2255908363807140 0.9061999448040781 0.0000000000000000 -0.0000000000000000 -0.0000000000000000 -0.0000000000000000 
11 1 -0.1912701884362360 -0.1232206125796598 0.0108533883885142 9.5606644926560342 11.4110701795583278 0.3753272472623675 0.0000243122470502 2.2443888090167468 0.8753972274680391 0.0000000000000000 0.0000000000000000 0.0000000000000000 -0.0000000000000000 
95 1 -0.2459948159376990 -0.1632118906309638 0.0934539257258646 10.0318585898107226 11.4287884630227694 1.2388449299708408 0.0000258299544018 2.1722640764600638 0.7896930904252616 0.0000000000000000 0.0000000000000000 -0.0000000000000000 -0.0000000000000000 
104 1 -0.2047793710756912 -0.3852260559545334 0.0444686634817054 8.5659643907446590 15.4575987026000643 1.6052392498723367 0.0000283249495258 2.2282315482962494 0.9068281261092498 0.0000000000000000 -0.0000000000000000 -0.0000000000000000 0.0000000000000000 
131 2 -0.0713692336622345 -0.5635943443382418 0.0798125969236109 9.4990313679916074 15.6178148566182529 4.9744279844764545 0.0000272442373993 2.2670646277842308 0.9319476229999252 0.0000000000000000 0.0000000000000000 -0.0000000000000000 -0.0000000000000000 
141 2 -0.2447974724986160 -0.0632875436467370 0.2073667643027752 9.6303405378091309 12.0991500145742616 2.7444408318281499 0.0000231915802146 2.2470155304642230 0.8383375960915216 0.0000000000000000 0.0000000000000000 -0.0000000000000000 0.0000000000000000 
153 2 -0.2291662808513588 -0.3101589973622766 0.0675475473252845 9.4724610364088129 14.6701275416228594 1.4371937002807784 0.0000281009392282 2.2204198551227927 0.8694003904871556 0.0000000000000000 0.0000000000000000 -0.0000000000000000 0.0000000000000000 
156 2 0.2017203817390885 -0.2634327702142891 0.0239025566605569 5.9219484498559947 13.7868299506574790 3.4779007448288537 0.0000230460151464 2.3989376943847933 0.9804487463287086 0.0000000000000000 0.0000000000000000 -0.0000000000000000 -0.0000000000000000 
22 1 -0.1429272751385241 -0.1243233057247572 0.2036557761920171 14.3947554860405624 14.8415233478492645 1.8594584582310847 0.0000311010504431 2.2276700442208006 0.9778840870100686 0.0000000000000000 -0.0000000000000000 -0.0000000000000000 0.0000000000000000 
52 1 -0.1092374120292917 -0.0216309519766760 0.2716399488903012 11.3442589086494259 11.5511742704198799 3.0066484021595197 0.0000255929875944 2.1962650354078450 0.7967947238291123 0.0000000000000000 0.0000000000000000 0.0000000000000000 0.0000000000000000 
61 1 -0.1932500367924562 -0.1382130901006295 0.1882827781161301 11.9271413400627448 11.9569656923950927 1.8051923902422009 0.0000289676249285 2.1678082273381314 0.7876432006955877 0.0000000000000000 0.0000000000000000 0.0000000000000000 -0.0000000000000000 
148 2 -0.0527532695451467 -0.1504004737139676 0.1820497921052801 12.9842967379884566 15.4860374688757645 0.3771029220342564 0.0000338128361723 2.1625028308893652 0.9041702155451026 0.0000000000000000 0.0000000000000000 -0.0000000000000000 0.0000000000000000 
150 2 -0.1886442515692302 -0.2189844305209792 0.1268002866802743 11.3611168427611346 14.3418248303570817 0.9814728070947165 0.0000304809122266 2.2225514532919441 0.8903254692556525 0.0000000000000000 0.0000000000000000 0.0000000000000000 0.0000000000000000 
184 2 -0.1800577519901731 -0.0375652521787019 0.1209296881516305 15.0991950123654330 15.8920538197536203 2.8069599992565895 0.0000329992860807 2.1299466576208381 0.8734788159347571 0.0000000000000000 -0.0000000000000000 0.0000000000000000 -0.0000000000000000 
196 2 -0.1102801452081165 -0.1210891682162254 0.0578115250932563 15.5613585861337960 11.3633040981496389 0.6024041299843321 0.0000352234041941 2.0976359775441140 0.7666491556210155 0.0000000000000000 -0.0000000000000000 0.0000000000000000 0.0000000000000000 
217 2 -0.0825485917107949 -0.4622950703501522 0.0550542016901492 11.2528460468677771 15.2992913642952786 5.3162721806221880 0.0000268065361781 2.2928857678680576 0.9231556739846299 0.0000000000000000 -0.0000000000000000 -0.0000000000000000 -0.0000000000000000 
220 2 -0.0965067292840900 -0.1300839496185422 0.4063503932276505 15.4677255820150119 11.8194330984591147 4.3180743047766246 0.0000236218771766 2.4185119014599019 0.9980043993743331 0.0000000000000000 0.0000000000000000 0.0000000000000000 0.0000000000000000 
14 1 -0.0541206682638149 -0.0339852451442537 -0.1292845699060167 2.2221082503078367 0.0308053821881735 9.4816001696116015 0.0000402187704184 2.0447310585105183 0.7514143091777965 0.0000000000000000 -0.0000000000000000 -0.0000000000000000 -0.0000000000000000 
26 1 -0.1351813232657814 0.3362169583494879 0.2066714656408470 2.6058391368209612 4.9702833954721397 5.9035266717085557 0.0000296483221691 2.1571235739322621 0.8235406022592806 0.0000000000000000 0.0000000000000000 -0.0000000000000000 -0.0000000000000000 
72 1 -0.0850937937967859 0.1657039213760969 0.0420617322305985 4.8686316456133056 2.6970872627673068 8.8516573946060078 0.0000321741463644 2.1793025536221773 0.9081458150087219 0.0000000000000000 0.0000000000000000 -0.0000000000000000 -0.0000000000000000 
91 1 -0.2268133602171571 0.2370138263632548 0.0260786044754763 3.9429248459785091 5.4161880396233268 5.7028027987861600 0.0000296095237271 2.1999083536445894 0.8721487358436472 0.0000000000000000 -0.0000000000000000 -0.0000000000000000 0.0000000000000000 
143 2 0.0318419732092704 0.0273826991999065 0.0096408493695049 5.1967086197587422 1.6383467624274461 5.9730032531319344 0.0000323506265594 2.2329849376001958 0.9413322586247375 0.0000000000000000 0.0000000000000000 0.0000000000000000 -0.0000000000000000 
159 2 -0.0125745485345712 0.6046397688090049 -0.0765289799642421 1.3442588021679085 2.9959347938171548 10.6258698795534272 0.0000313695299305 2.1452947876023840 0.8651709975485000 0.0000000000000000 0.0000000000000000 0.0000000000000000 -0.0000000000000000 
167 2 -0.1692876684805328 0.3626922188398357 0.1844046817098563 0.9175060326420704 3.3680682354442952 5.7546137546520759 0.0000308990350299 2.1599378855958378 0.8819419410905786 0.0000000000000000 -0.0000000000000000 -0.0000000000000000 0.0000000000000000 
176 2 0.1464398430552630 0.2619707573146158 -0.0410072981790010 2.3498944198777374 1.3594581395252390 10.5006119044072719 0.0000401611021100 2.0327941910185281 0.7263236597594940 0.0000000000000000 -0.0000000000000000 -0.0000000000000000 0.0000000000000000 
16 1 -0.2739988457662625 0.0700773123464821 0.0182239551240861 5.8422328953777400 4.5349034921886950 6.5935703087576183 0.0000336566973792 2.1111973699866557 0.8756249917535828 0.0000000000000000 -0.0000000000000000 -0.0000000000000000 -0.0000000000000000 
40 1 -0.2191818507990337 -0.0178111672823529 -0.0017780647701169 6.1465307344626510 4.0943612484722953 6.1611535130283341 0.0000339305736859 2.1260191527521783 0.8978643533402926 0.0000000000000000 0.0000000000000000 -0.0000000000000000 -0.0000000000000000 
55 1 0.0127832872790684 -0.4552762685765500 0.0060296178705426 7.7832205741578839 0.3104232043169668 6.1202027330197959 0.0000296257367296 2.2278545574967321 0.9104582293633947 0.0000000000000000 -0.0000000000000000 -0.0000000000000000 0.0000000000000000 
65 1 -0.1636929627551813 -0.3580339483715546 -0.0031183179874917 9.1813653038109564 1.5105522031293086 6.4093475174001071 0.0000342596724173 2.1657447908718952 0.8881256902328717 0.0000000000000000 -0.0000000000000000 0.0000000000000000 -0.0000000000000000 
85 1 -0.1866480711052452 -0.2606513604921735 -0.0162336378356064 9.9882264609363602 2.3596378165394727 8.8254919236843392 0.0000358460812174 2.1785133654621607 0.9320672073381682 0.0000000000000000 0.0000000000000000 -0.0000000000000000 -0.0000000000000000 
103 1 -0.2347669657182065 0.0537341050398548 -0.0309945525371887 7.5269396732573037 5.3352069175396375 6.5934571471709074 0.0000375217753293 2.1247851537918745 0.8535410365066287 0.0000000000000000 0.0000000000000000 0.0000000000000000 0.0000000000000000 
105 1 0.0902956943466681 -0.0625973003503257 0.1081606160005844 5.8280157943977562 1.9769054932360584 9.4441587030236818 0.0000324882121346 2.1637034842947633 0.8913276143739940 0.0000000000000000 0.0000000000000000 0.0000000000000000 -0.0000000000000000 
115 2 -0.1959357741655391 -0.0486641545012520 0.0266179156266186 8.0141294894636719 4.4619901988986932 10.4771854397689452 0.0000355329035958 2.1718736178006397 0.9248985197840925 0.0000000000000000 -0.0000000000000000 0.0000000000000000 -0.0000000000000000 
128 2 0.1308028854601525 -0.2224357122364975 0.1693886024763051 6.5301401668589971 1.2109166416571471 9.2003706765197411 0.0000312152431435 2.1990214170688285 0.9113763750100096 0.0000000000000000 0.0000000000000000 0.0000000000000000 0.0000000000000000 
139 2 -0.2331333285395165 0.0573092330788316 0.1336267727689543 6.0139046802309908 4.2885686642089560 7.8612291440320057 0.0000330489493430 2.1513324199441461 0.9166867735481071 0.0000000000000000 -0.0000000000000000 -0.0000000000000000 -0.0000000000000000 
161 2 -0.1224766982498946 -0.4321351653511651 0.0227891045892125 8.8518185627924098 1.3204721523716316 8.3143336827129435 0.0000322889840000 2.2015759039293630 0.9343855142243488 0.0000000000000000 -0.0000000000000000 0.0000000000000000 -0.0000000000000000 
191 2 0.3629151967403088 0.1979154224729860 -0.2489709070570772 10.7005635109887631 5.2516464842261250 5.4332804875993457 0.0000374936801911 2.0635542126887660 0.7875889388394335 0.0000000000000000 -0.0000000000000000 0.0000000000000000 -0.0000000000000000 
8 1 0.1821045958080948 -0.1274498792834590 -0.2770742918622019 12.2358038150377144 1.6514643794318142 5.8519740738936079 0.0000363866823716 2.0863930373220967 0.7914114998076628 0.0000000000000000 -0.0000000000000000 0.0000000000000000 0.0000000000000000 
15 1 0.1315441873197866 -0.0510456425075821 -0.1971435161809700 14.6760690998612073 1.1830905992537182 8.7250382491989331 0.0000367871500215 2.0891052192886548 0.8463134521184542 0.0000000000000000 0.0000000000000000 0.0000000000000000 -0.0000000000000000 
19 1 0.1245898084272408 -0.1025400205488179 -0.2123974538736389 13.7396242835864406 1.4774850074452510 8.4062007085145289 0.0000385405103935 2.0566168290523232 0.7932242974150985 0.0000000000000000 -0.0000000000000000 0.0000000000000000 0.0000000000000000 
75 1 0.1321777337394864 0.2505619994672548 -0.1282527818225505 12.3469676713523633 3.5839163361986031 10.6914241190054700 0.0000440597009257 2.0081185344596433 0.7355830162257954 0.0000000000000000 -0.0000000000000000 -0.0000000000000000 -0.0000000000000000 
87 1 0.0211163860031924 -0.1428741974856378 -0.1042764191696070 14.7865545396457403 0.7905549061005243 10.5137348496873937 0.0000385788537336 2.1120831573505372 0.8731492493646164 0.0000000000000000 -0.0000000000000000 -0.0000000000000000 -0.0000000000000000 
100 1 0.4030059370396693 0.4187327059022818 -0.1464176076472721 13.0314658413271669 4.5960116150906796 9.8769934232503083 0.0000371677520742 2.0934384343308512 0.8146274437246716 0.0000000000000000 0.0000000000000000 0.0000000000000000 0.0000000000000000 
130 2 0.0958942861720917 -0.1761195762732637 -0.1290142903556331 11.8054509684893851 1.7917742161328800 6.8791507027331189 0.0000387330365478 2.0618492099904047 0.7891874669613836 0.0000000000000000 -0.0000000000000000 0.0000000000000000 -0.0000000000000000 
182 2 0.3981534860417469 0.2198088510556481 -0.1579550985918474 12.3028348759540815 4.7581713367595695 7.5114488165719004 0.0000338821957737 2.2259071641851458 0.9404870211416153 0.0000000000000000 -0.0000000000000000 -0.0000000000000000 0.0000000000000000 
207 2 0.1722708903363654 0.1133331996114785 -0.2164023246401395 13.4841841780745391 2.4880372866681721 9.8531934040857365 0.0000405451086849 2.0683698796679395 0.8134623465301263 0.0000000000000000 0.0000000000000000 -0.0000000000000000 -0.0000000000000000 
208 2 0.1769282944605996 -0.0450728610725313 -0.2195249749382937 13.8966512589804267 1.5437328670986468 6.9740762654832240 0.0000355449449414 2.0990268616226668 0.8213631147171057 0.0000000000000000 -0.0000000000000000 0.0000000000000000 0.0000000000000000 
222 2 0.1654331448774548 -0.0755380752645358 -0.1798824274333876 11.1674163861725440 2.7362604981186092 6.3139326089468453 0.0000378806102842 2.0972102334537239 0.8445353470108765 0.0000000000000000 -0.0000000000000000 0.0000000000000000 -0.0000000000000000 
4 1 -0.2305988844785872 -0.1069702579022599 -0.2576182316772206 4.7059648258879019 10.6205812515252731 10.7931242808265857 0.0000259581333102 2.2400734002224354 0.8654205209321417 0.0000000000000000 -0.0000000000000000 0.0000000000000000 0.0000000000000000 
63 1 -0.0569144972705561 0.1286518736476233 0.2679557588750817 1.8697475788280100 8.4202464667123174 6.3550550175412566 0.0000212394875947 2.3618922343554014 0.9175199772309279 0.0000000000000000 0.0000000000000000 0.0000000000000000 -0.0000000000000000 
68 1 -0.1527207124676078 0.1401320259494301 0.0991385582536591 3.8701162332453727 9.2640007658020984 6.5894689612162267 0.0000220534087093 2.2779256210074248 0.9162776023560742 0.0000000000000000 0.0000000000000000 0.0000000000000000 0.0000000000000000 
112 2 0.1503039536116789 0.2574525105364993 0.2108774021505294 0.1452167300147174 7.3648285712801664 7.6962333634267086 0.0000204410303610 2.3308485572478364 0.8869701039302265 0.0000000000000000 0.0000000000000000 -0.0000000000000000 -0.0000000000000000 
119 2 -0.2410813921205885 0.1747063423114644 0.1083194208793870 4.3186006442474953 8.9060270671812560 7.2570510376029347 0.0000232745260139 2.2449867314876455 0.8720960362352971 0.0000000000000000 -0.0000000000000000 0.0000000000000000 0.0000000000000000 
6 1 -0.2206874957565589 0.4333662767860631 -0.1106866280136368 6.3445204988554833 9.2056408142388975 7.8397662226256806 0.0000272044216453 2.2169305616233244 0.8296758992543426 0.0000000000000000 0.0000000000000000 -0.0000000000000000 0.0000000000000000 
43 1 0.1585703134025817 0.4206801229311952 -0.0265214517976823 9.4929646626777213 7.1917592556418617 8.0662746551767963 0.0000387098563608 2.0443601604673161 0.7512912622642661 0.0000000000000000 0.0000000000000000 0.0000000000000000 -0.0000000000000000 
46 1 -0.1239811540166328 0.5530336653458678 -0.1716113416328313 7.9541983900416220 8.7129054422200163 6.5648657452316721 0.0000304183985910 2.1629556091289110 0.7880123888177886 0.0000000000000000 -0.0000000000000000 -0.0000000000000000 0.0000000000000000 
69 1 -0.2823891492534475 0.4099320965352901 -0.1152494907585192 6.3612168081827027 7.7624037622089412 6.2257017809167667 0.0000310625929762 2.1764583445628274 0.8054453486249297 0.0000000000000000 0.0000000000000000 -0.0000000000000000 -0.0000000000000000 
86 1 -0.0061370043872458 0.5569443186122792 -0.0931282137042062 8.8331320561861961 7.7783721101534269 7.8439580014806589 0.0000378225489651 2.0417451016736488 0.7162564061440339 0.0000000000000000 0.0000000000000000 -0.0000000000000000 -0.0000000000000000 
107 1 -0.4123838896158679 0.1175489823414063 -0.1218091038943077 5.5144944692374569 8.4772699627520680 10.0974702420445013 0.0000269866258749 2.2835797931382853 0.8953898669994637 0.0000000000000000 0.0000000000000000 0.0000000000000000 -0.0000000000000000 
137 2 0.1613505077033499 0.5621720325293735 -0.0281533097731960 9.5044374585089848 9.5487868015684985 9.3546963988455776 0.0000266083551856 2.2519366207761360 0.8875884712075276 0.0000000000000000 -0.0000000000000000 -0.0000000000000000 0.0000000000000000 
149 2 -0.1561103763785494 0.1244546113098905 0.1346579925689842 8.4286820583886986 6.2410852594851427 9.0129113570510402 0.0000372106453922 2.1287842010390721 0.8801908803187185 0.0000000000000000 -0.0000000000000000 0.0000000000000000 -0.0000000000000000 
178 2 0.1488708797264774 0.5247375064824376 0.0169582733635367 9.1607640694851167 8.1384840777999923 8.7374516369387827 0.0000354292098698 2.0671694239250344 0.7419306408435584 0.0000000000000000 0.0000000000000000 0.0000000000000000 -0.0000000000000000 
189 2 0.3068235008132703 0.3396242106065348 -0.1662435333811194 10.3991786922115530 6.1338611804260861 6.1161713320554014 0.0000378371271069 2.0732708783336369 0.7862757530173553 0.0000000000000000 -0.0000000000000000 0.0000000000000000 0.0000000000000000 
203 2 -0.3628780021380213 0.1257758918607359 0.0044904856722333 6.6818048776653187 6.5319142563543195 10.8163072679621290 0.0000335479390779 2.1740727868277352 0.8669438093921978 0.0000000000000000 0.0000000000000000 -0.0000000000000000 0.0000000000000000 
209 2 0.0955884727743124 0.2957672173045199 -0.1588573290738671 7.1334235587533756 10.4778438414368669 10.6126478172199636 0.0000265989853533 2.2840184545934124 0.8779742638837372 0.0000000000000000 0.0000000000000000 0.0000000000000000 0.0000000000000000 
5 1 0.1527986323213622 -0.1614031387254069 -0.0580851600248790 14.9917041285386379 10.0815875144449798 10.1547790778542097 0.0000183855205691 2.4542143012862181 0.9922989621953492 0.0000000000000000 -0.0000000000000000 0.0000000000000000 -0.0000000000000000 
27 1 0.2927617783776956 0.2332723249627935 -0.0392123016275664 13.9660487191910043 6.9613670947635837 7.1350662101215683 0.0000254394150368 2.2795228619476520 0.9056742347541156 0.0000000000000000 -0.0000000000000000 -0.0000000000000000 0.0000000000000000 
56 1 0.0581296455599577 0.1176945594053827 0.1249033376054391 13.0768866233941434 10.0539044341726669 5.6590229916867862 0.0000215296425736 2.3855051330156960 0.9666393453256985 0.0000000000000000 0.0000000000000000 -0.0000000000000000 -0.0000000000000000 
74 1 0.3677670700215339 0.5492093386571898 0.1723447356777365 12.3304355481768937 6.9318347255656727 10.2062064208912329 0.0000299690865501 2.1743175585792116 0.8474655881634855 0.0000000000000000 -0.0000000000000000 -0.0000000000000000 0.0000000000000000 
98 1 0.3354458517996249 0.4764961778743365 -0.1300129453436490 11.1999535548860969 7.6131621398061746 6.8163005667638616 0.0000309335571615 2.1977412698731063 0.8585894129780774 0.0000000000000000 0.0000000000000000 0.0000000000000000 -0.0000000000000000 
113 2 0.2928713778707773 0.4717535203992190 0.1641854216440190 11.4148484551684390 6.7262195723340241 9.8160379056741984 0.0000329160311496 2.1706669256887761 0.8673178217330627 0.0000000000000000 -0.0000000000000000 0.0000000000000000 0.0000000000000000 
183 2 0.2917814826640173 0.3047624960396734 0.1698252539398220 14.8642512747489697 7.8889959320328291 8.2039858194712760 0.0000219439401571 2.2694434660839073 0.8343222659874455 0.0000000000000000 0.0000000000000000 -0.0000000000000000 -0.0000000000000000 
211 2 0.5244777429024887 0.4900973897055212 0.1020590836807165 14.2380589654651182 6.5840249385303267 9.9559338894823632 0.0000252665932124 2.2439748346649360 0.8638066813907664 0.0000000000000000 -0.0000000000000000 0.0000000000000000 -0.0000000000000000 
71 1 0.2099153290656819 -0.4282940765092385 -0.0981279451057232 3.6078159178877112 14.3502990943840505 8.7686771143515010 0.0000349809451455 2.0845985267298737 0.7350784327718447 0.0000000000000000 -0.0000000000000000 0.0000000000000000 0.0000000000000000 
81 1 0.1165496146729517 -0.3424064238387853 0.0434617789819737 2.9337949590140253 14.8768609080519347 10.1663761095322620 0.0000390604267152 2.0296099847630362 0.7002155202462502 0.0000000000000000 0.0000000000000000 -0.0000000000000000 -0.0000000000000000 
110 1 -0.0777260593666856 -0.1479501684084285 -0.1542505358846893 1.2591598853954127 16.1682539940099410 10.0897634805993235 0.0000405216282005 2.0431828683260642 0.7512669397111255 0.0000000000000000 0.0000000000000000 -0.0000000000000000 -0.0000000000000000 
132 2 0.0695652004095051 -0.5284215693927273 -0.0144788022751807 2.9800776882160465 14.5221212407270244 6.2509867205756580 0.0000324090156437 2.1512786444697647 0.8256692506523483 0.0000000000000000 -0.0000000000000000 -0.0000000000000000 -0.0000000000000000 
147 2 0.1964121940715751 -0.1758574185910575 -0.0204958926170957 3.9492552242027315 15.8985013176437455 8.3287869681170346 0.0000370520303905 2.0947117577711865 0.7843459643329423 0.0000000000000000 -0.0000000000000000 0.0000000000000000 -0.0000000000000000 
164 2 -0.2443696022907436 -0.4872578278174524 -0.1313206935531316 0.1897372503260386 14.6293575191078116 8.3858867409368543 0.0000295948035408 2.2700300716438253 0.9284597180549335 0.0000000000000000 -0.0000000000000000 -0.0000000000000000 0.0000000000000000 
165 2 -0.0885087106316040 -0.4824284154622334 -0.0037493950188068 2.3724764808398122 12.3504023510063785 7.5370780772162327 0.0000226316749076 2.4227875889435406 0.9735623902215238 0.0000000000000000 0.0000000000000000 0.0000000000000000 -0.0000000000000000 
192 2 0.2887555373797244 -0.4229524940098143 -0.0804420550969187 4.2677026505466387 14.7640689518078734 6.7135124326839408 0.0000329148211209 2.1128097562644950 0.7771742311864765 0.0000000000000000 0.0000000000000000 0.0000000000000000 0.0000000000000000 
212 2 0.1191122631762134 -0.3496047513103285 0.0962591879326542 3.1425010444812638 14.3615321917262619 10.6512654549936538 0.0000361484693064 2.0599736461781237 0.7369592438713751 0.0000000000000000 -0.0000000000000000 -0.0000000000000000 -0.0000000000000000 
1 1 -0.0946457083136470 -0.3338658259855802 -0.0295336923366563 9.6647356896075838 14.2709442306101213 9.0734258325752624 0.0000219801274391 2.3575218710165666 1.0048344402824529 0.0000000000000000 -0.0000000000000000 0.0000000000000000 -0.0000000000000000 
23 1 0.2887678379810014 -0.3911171292905032 -0.0407634827961661 5.4651214462596238 15.4335405023541838 6.7220071079230408 0.0000317177237716 2.1325343309753961 0.8023867372390768 0.0000000000000000 -0.0000000000000000 -0.0000000000000000 0.0000000000000000 
135 2 0.3065811998952545 -0.3549214489423461 -0.0327179692454976 6.5784661678555798 14.8440972651637804 8.1939576753969625 0.0000256586793469 2.3038653290589099 0.9337419904252180 0.0000000000000000 -0.0000000000000000 -0.0000000000000000 0.0000000000000000 
123 2 -0.0464621180268596 -0.4809537049388379 -0.2146759687696220 14.3180368785721210 15.5641167592594751 8.6638804765043762 0.0000326545954375 2.1646875963863899 0.8786743309463565 0.0000000000000000 0.0000000000000000 0.0000000000000000 0.0000000000000000 
138 2 -0.2496322756928699 -0.4846377593318760 -0.0641031294815622 11.2439670008844903 14.4031883797356688 8.4294818730651055 0.0000249800400263 2.2445740177029716 0.8811576859296422 0.0000000000000000 0.0000000000000000 -0.0000000000000000 -0.0000000000000000 
140 2 0.0001754035392925 0.1336895812074867 -0.0382039583277386 12.0725037447077650 11.1372966267511782 7.4755064322751954 0.0000198805194653 2.4768333399815603 0.9882447345746066 0.0000000000000000 -0.0000000000000000 0.0000000000000000 -0.0000000000000000 
154 2 -0.0900902379245387 -0.3763011062243196 -0.1158948840946437 14.3975492915967216 12.8813471942281925 7.9305153491452502 0.0000219655761686 2.3732150296924317 0.9632667655733889 0.0000000000000000 0.0000000000000000 0.0000000000000000 0.0000000000000000 
169 2 -0.0919888388712615 -0.4205860988394099 -0.1259895699302916 12.6546345730450351 16.2485054522485726 7.2558716536832959 0.0000339481858464 2.1286597850171241 0.8066259900539000 0.0000000000000000 -0.0000000000000000 -0.0000000000000000 0.0000000000000000 
198 2 -0.1261674942699640 -0.3895486317962430 -0.1676653701042214 14.2290198341083514 13.0284245072395191 9.9465615940478198 0.0000248953246751 2.2909447737398088 0.8917957543662814 0.0000000000000000 -0.0000000000000000 -0.0000000000000000 -0.0000000000000000 
204 2 -0.2326867403185229 -0.4958691160884406 -0.1054220648051676 11.5520846243785371 14.1072422318837507 9.5739592791492463 0.0000248214069078 2.2635497895644567 0.8999095532744230 0.0000000000000000 -0.0000000000000000 0.0000000000000000 0.0000000000000000 
25 1 0.0804793670968193 0.1942058510794637 -0.0132086665319544 0.9737757479570662 1.2847546125179328 11.0297918052243134 0.0000410115765917 2.0289446325823679 0.7381389283281607 0.0000000000000000 -0.0000000000000000 0.0000000000000000 -0.0000000000000000 
28 1 0.1588969192955256 0.2045046259848407 0.0579513366475117 0.6005839302745357 1.5513213769732139 12.3078113749342926 0.0000390097931584 2.0803124601858478 0.8011376080878275 0.0000000000000000 -0.0000000000000000 0.0000000000000000 -0.0000000000000000 
48 1 0.0933379551776873 0.5322132761472669 -0.0194291277636813 2.5344869523320335 2.8089140051704895 10.9237169648906605 0.0000337337118440 2.0902044046147958 0.7764197604443708 0.0000000000000000 -0.0000000000000000 -0.0000000000000000 0.0000000000000000 
49 1 -0.2269012295342889 0.1999556679095381 0.0214879056364314 4.0195956012668894 4.7869272999495323 14.8857993393348416 0.0000279706404391 2.2292952356905666 0.8883680497827328 0.0000000000000000 -0.0000000000000000 -0.0000000000000000 0.0000000000000000 
83 1 -0.0901497171081098 0.3350229526172097 -0.0538622167770963 4.0523168462137820 3.2253690618420285 11.1357566490573792 0.0000313192881149 2.1816161672002576 0.8658965572956976 0.0000000000000000 0.0000000000000000 -0.0000000000000000 0.0000000000000000 
94 1 -0.0082079705812252 0.3784431853783443 0.0790660124160329 0.3623952353609116 2.1921843219187491 15.6911968713383345 0.0000343339079289 2.0917670215235686 0.8200160727670380 0.0000000000000000 -0.0000000000000000 -0.0000000000000000 0.0000000000000000 
97 1 0.0766867960592787 0.4116053202352474 -0.1297587867171785 2.0059003481119890 2.9161019328065585 15.8604804466092997 0.0000316825191603 2.1590262886569489 0.8536186809072857 0.0000000000000000 -0.0000000000000000 -0.0000000000000000 -0.0000000000000000 
118 2 0.2637598642726240 -0.1911605465600345 0.1903492517638543 4.4625594777685329 0.7342207451219878 12.8382701101428953 0.0000287887540305 2.3336179801202404 0.9878316540967150 0.0000000000000000 -0.0000000000000000 0.0000000000000000 0.0000000000000000 
133 2 -0.0086394026845783 0.2528883208720125 0.0231725938044411 0.5046805665636797 1.7103875342292878 16.0345824225236377 0.0000355857387653 2.0765401489001105 0.8045157906725720 0.0000000000000000 0.0000000000000000 0.0000000000000000 0.0000000000000000 
168 2 -0.4597798262970069 0.2421288780657251 -0.0544127730005300 4.4192427813567710 5.2445270092051253 12.0422409530964263 0.0000277154002662 2.2423647976679213 0.8992982515444966 0.0000000000000000 0.0000000000000000 0.0000000000000000 -0.0000000000000000 
180 2 0.1099403108876631 0.4880060257394508 0.0840601318436640 1.9882658872051240 2.8261954105975962 13.1738168547263026 0.0000325814831821 2.1743643542497595 0.8496800935546494 0.0000000000000000 0.0000000000000000 0.0000000000000000 0.0000000000000000 
195 2 0.1433130335102127 0.3043607381886358 0.1463866707954801 0.0794128510694014 2.0071792128067325 14.2593950032896153 0.0000362395987308 2.1077679162801646 0.8340214055155061 0.0000000000000000 -0.0000000000000000 0.0000000000000000 0.0000000000000000 
18 1 -0.2780296381109749 0.1415799751296858 0.1584275205483869 10.2502818273645318 3.5335694801040587 11.9154011841152645 0.0000400974906298 2.0674322410000014 0.8289605378815466 0.0000000000000000 0.0000000000000000 0.0000000000000000 -0.0000000000000000 
34 1 -0.2248581751068451 -0.2715510737876376 -0.0414068930683615 8.1194852179987649 1.5673007661917466 16.2580870031389146 0.0000356335050817 2.0691509993882775 0.7736167787466308 0.0000000000000000 -0.0000000000000000 0.0000000000000000 0.0000000000000000 
38 1 -0.2096603873030355 -0.1920097601746286 0.0245632780592897 7.7404821215275943 3.1525231016191833 12.0317850576604020 0.0000337707334528 2.1778121007002489 0.9071446070885505 0.0000000000000000 0.0000000000000000 -0.0000000000000000 0.0000000000000000 
54 1 -0.2814490276410246 -0.1303297514012331 0.0419952299142843 10.2659696999005128 2.9667920439053810 11.4884052259773988 0.0000404574477113 2.0444301854834253 0.8114370792391342 0.0000000000000000 -0.0000000000000000 0.0000000000000000 0.0000000000000000 
70 1 -0.0636232274409098 -0.0005334658410882 0.0516790366854772 5.4659287403655092 3.6481089329783676 14.0327123880470079 0.0000309956605759 2.2331086574565688 0.8999161962856722 0.0000000000000000 0.0000000000000000 0.0000000000000000 -0.0000000000000000 
84 1 -0.2564113845859322 -0.1669984335655790 -0.0411625604889165 7.9492983598938256 2.1382231511992940 16.2121769824903765 0.0000362164901054 2.0619108554113348 0.7660032967924809 0.0000000000000000 0.0000000000000000 0.0000000000000000 -0.0000000000000000 
109 1 -0.1338722987395933 0.0630341966562813 0.0834151185279879 7.3958829394548360 5.2499126250105039 12.3863054665594010 0.0000361753201697 2.0927045109302664 0.8109367121898542 0.0000000000000000 0.0000000000000000 -0.0000000000000000 -0.0000000000000000 
174 2 -0.2098243849510947 -0.3518330285254029 -0.0564513412618749 7.3736473603699091 1.6919522746583255 13.8724023548172628 0.0000299239530417 2.2203396889546685 0.9432487177374365 0.0000000000000000 0.0000000000000000 -0.0000000000000000 -0.0000000000000000 
175 2 -0.3027221809969802 -0.2827565500507525 -0.0794986645930084 7.8660482409931554 1.8607220015708157 15.4397230415329734 0.0000346858017070 2.0753822531940207 0.7913025716380102 0.0000000000000000 -0.0000000000000000 0.0000000000000000 -0.0000000000000000 
190 2 -0.3269234001994587 -0.5380888314139891 0.0449936371745964 9.7240140543391540 1.7774643952182732 11.0664685304065120 0.0000341629562467 2.1484750882212857 0.9223253352775468 0.0000000000000000 -0.0000000000000000 -0.0000000000000000 0.0000000000000000 
194 2 -0.1581619692807729 -0.1047495146633309 0.0290215637141224 9.5977177167129515 2.3230619870671063 15.4114669642145312 0.0000379656986786 2.0970943622388862 0.8102544661628791 0.0000000000000000 0.0000000000000000 -0.0000000000000000 -0.0000000000000000 
201 2 -0.0887624846626526 0.2861635062114757 0.0752821645885927 8.2762654831148730 4.6340873934811633 16.0858905750505947 0.0000317920678797 2.2245958987486798 0.9101282269746409 0.0000000000000000 0.0000000000000000 0.0000000000000000 0.0000000000000000 
29 1 0.2714350953726209 0.5524722859172462 0.2517389591176485 12.5726167025750772 5.3081793202078345 15.4616760966956885 0.0000246943692860 2.3527925362554942 0.9796644515315698 0.0000000000000000 -0.0000000000000000 -0.0000000000000000 0.0000000000000000 
32 1 0.0783385640906109 -0.2667717193824983 0.0919664812325579 14.7543907023175827 0.0430291739509585 13.6970549312366252 0.0000371044825161 2.1582077283338092 0.9023260301912860 0.0000000000000000 0.0000000000000000 -0.0000000000000000 -0.0000000000000000 
44 1 0.1606629874640335 0.5452785579093283 0.3075774026634731 12.5616496017335422 3.6401548214565942 13.6570009785904922 0.0000410821934250 2.0288663528849136 0.7271285474705429 0.0000000000000000 0.0000000000000000 0.0000000000000000 -0.0000000000000000 
47 1 0.1236141820579240 -0.0376121792907931 0.0202359012955189 14.2008807062555800 1.4645641368117512 12.1689381827245775 0.0000409027967384 2.0970817843675742 0.8524826872964770 0.0000000000000000 0.0000000000000000 -0.0000000000000000 -0.0000000000000000 
60 1 -0.2662420395743331 -0.2822332212606611 -0.1223598526158306 11.4970829034761746 2.1165072223941683 11.6328364013541155 0.0000423307477551 2.0384741081533480 0.7853328386721485 0.0000000000000000 -0.0000000000000000 0.0000000000000000 -0.0000000000000000 
80 1 0.0825183229856275 0.5151160414785221 0.0596225730654072 15.9561631083349358 4.9580251754836331 14.5106807502348829 0.0000227946930371 2.4810318294651266 1.0309690360474606 0.0000000000000000 0.0000000000000000 0.0000000000000000 0.0000000000000000 
90 1 -0.0830708964960699 -0.1558932450560906 0.1726625681771275 12.1967064942504138 1.2159459429372490 14.7724199611755509 0.0000415908271294 2.0186211408439036 0.7592525871502462 0.0000000000000000 0.0000000000000000 0.0000000000000000 0.0000000000000000 
124 2 -0.0004759397599001 -0.0790636793879908 0.2505211019243391 12.3767988972661538 1.2350389342555042 15.0683250470877539 0.0000411519378442 2.0217416577107432 0.7615954905126303 0.0000000000000000 -0.0000000000000000 -0.0000000000000000 0.0000000000000000 
125 2 -0.0465695985005998 -0.0688423817271318 0.2222398379455203 12.1910507921847646 0.9602864789799783 15.5790298366617996 0.0000392613826951 2.0521927129087061 0.7973500844902103 0.0000000000000000 -0.0000000000000000 0.0000000000000000 0.0000000000000000 
129 2 0.2451548537825200 0.4283770642135762 0.0401349919530591 12.7513912300370169 3.9183859343493137 11.4355578043185240 0.0000436225436214 2.0025991583546983 0.7066130397207928 0.0000000000000000 0.0000000000000000 0.0000000000000000 -0.0000000000000000 
145 2 0.1266823816265580 0.4141594936909310 0.3166267417815241 12.5728612944193987 3.0256596467089394 14.0909748198478475 0.0000425896937321 2.0126135234682092 0.7202820702459262 0.0000000000000000 -0.0000000000000000 -0.0000000000000000 0.0000000000000000 
214 2 0.0274855429972982 -0.0972453627360756 0.1294761380641618 12.7755742476854586 1.7108808361342462 13.5685713326984967 0.0000443847657522 2.0050725815636561 0.7417202774378232 0.0000000000000000 0.0000000000000000 0.0000000000000000 -0.0000000000000000 
221 2 0.4291436869213294 0.6137176026031118 0.2305015680127633 13.3737768648912780 4.0249790393532558 12.6543648493388705 0.0000393270519021 2.0539900156564235 0.7491650628860486 0.0000000000000000 -0.0000000000000000 -0.0000000000000000 0.0000000000000000 
33 1 -0.0710933072543070 -0.3843873772889477 -0.3819880590142281 1.5568254753220607 10.0332741979615605 14.5911012585963782 0.0000271480319718 2.2492082552306867 0.8463162630023638 0.0000000000000000 -0.0000000000000000 0.0000000000000000 -0.0000000000000000 
111 1 -0.1834007503338688 -0.1678510556757102 -0.0126662788383480 4.5202495527856899 9.3246863594789051 14.1587426833214742 0.0000288591392790 2.2169617376733646 0.8123578931488413 0.0000000000000000 -0.0000000000000000 -0.0000000000000000 0.0000000000000000 
127 2 -0.3107257861353430 0.0849147235429101 -0.0545952477825483 3.7788251129881187 6.4389017563840749 14.7323069181457775 0.0000250359215883 2.2935264085733911 0.9424466551747805 0.0000000000000000 0.0000000000000000 0.0000000000000000 0.0000000000000000 
53 1 0.2576569486752774 0.1254487182706896 0.1152192523754674 7.6291378900969349 9.9653183735446742 13.6942737251509215 0.0000293255250967 2.1697759408028867 0.7870942114104575 0.0000000000000000 -0.0000000000000000 -0.0000000000000000 -0.0000000000000000 
73 1 -0.0815909862414438 0.0583596489965544 -0.0699110567757763 6.1427220128195783 9.6947018379688448 12.3499572093554715 0.0000325424299071 2.1356168947754131 0.7489838583447577 0.0000000000000000 -0.0000000000000000 -0.0000000000000000 0.0000000000000000 
82 1 -0.3482471566768409 0.1143909991482424 0.0352681437778587 5.4529737539642698 5.9832170769106270 13.1849590494029449 0.0000319990214184 2.1387982417863594 0.8038020832848708 0.0000000000000000 -0.0000000000000000 0.0000000000000000 -0.0000000000000000 
88 1 0.2630648816689541 0.3052955790587019 0.2397451959714799 8.3319195849020069 7.7312800187279231 13.2746994735758097 0.0000306382673454 2.1441091882141414 0.8272369256126039 0.0000000000000000 0.0000000000000000 -0.0000000000000000 -0.0000000000000000 
93 1 0.0347937915189027 0.1963905852766751 0.2440507649841111 8.1280706267663945 6.1071234403379044 12.6473272064649152 0.0000349607490917 2.1022042107906267 0.8295265430507440 0.0000000000000000 -0.0000000000000000 0.0000000000000000 -0.0000000000000000 
160 2 0.2798321919492304 0.3128348646868163 0.2039237377051773 8.8734479628394531 8.0307546219912176 12.0805925893771882 0.0000302302716940 2.2007610482451678 0.8748045949080905 0.0000000000000000 0.0000000000000000 -0.0000000000000000 -0.0000000000000000 
170 2 0.0456009987694666 0.0117430714083309 0.2784453335773242 6.4088359933482195 9.2351094484897001 14.9025390783426932 0.0000281602357354 2.2192137037030393 0.8415610578729004 0.0000000000000000 0.0000000000000000 -0.0000000000000000 0.0000000000000000 
179 2 -0.0430072112596128 0.1628163743034323 0.2759792879231796 6.9254152963956077 7.0338390950964547 13.9255994116468198 0.0000322753409285 2.1389202765795341 0.8034249474529022 0.0000000000000000 -0.0000000000000000 -0.0000000000000000 0.0000000000000000 
7 1 -0.0154600040761652 -0.2387794881664101 -0.1396457448601449 13.1695577475191925 8.8006758003800378 14.8845618995824989 0.0000214661157363 2.3177237015637138 0.9751584794235049 0.0000000000000000 -0.0000000000000000 0.0000000000000000 0.0000000000000000 
59 1 -0.0727140280632960 -0.3674263838178364 -0.1980649233228403 13.7808958283253222 8.8524224918881735 15.5894123538056935 0.0000239002147136 2.2240311693608423 0.8564606568670265 0.0000000000000000 -0.0000000000000000 0.0000000000000000 0.0000000000000000 
62 1 -0.0457787224426033 -0.4925605614473574 -0.2770511933482350 15.0846867263179263 9.2413524207915305 15.6429438296399557 0.0000273188904844 2.1831508954534851 0.7762476088567695 0.0000000000000000 0.0000000000000000 -0.0000000000000000 -0.0000000000000000 
215 2 0.3555963533532601 0.5900924434203378 0.2534481262260666 13.1831202196245361 6.5451444748988035 12.2362171361470864 0.0000252895118657 2.2978317794264207 0.9124387977711754 0.0000000000000000 -0.0000000000000000 -0.0000000000000000 -0.0000000000000000 
3 1 0.1487886427687124 -0.1642469121551725 -0.1265182886428345 4.5682108222516478 12.8079485507746575 10.8754818488594367 0.0000286718734485 2.1894496227122930 0.8241978173321841 0.0000000000000000 -0.0000000000000000 0.0000000000000000 -0.0000000000000000 
35 1 -0.0362438861118760 -0.0087057187466107 -0.1202750122104099 4.6296436905786544 11.4981601545927159 12.5026131560014804 0.0000309588788280 2.1284513998385068 0.7439921492380396 0.0000000000000000 -0.0000000000000000 -0.0000000000000000 -0.0000000000000000 
42 1 0.0530069962104133 0.0535078978825276 -0.0329434891954385 3.7367404968424429 11.5607156669783091 14.4484027477119223 0.0000309540139865 2.1521728025510365 0.7855223367557946 0.0000000000000000 -0.0000000000000000 0.0000000000000000 0.0000000000000000 
51 1 0.1003540929600701 -0.0549302379897096 -0.1569034885016537 1.7829880725003067 12.5737212289369555 15.0617412391794012 0.0000313596015224 2.2013262075722348 0.8904597048987799 0.0000000000000000 0.0000000000000000 0.0000000000000000 0.0000000000000000 
101 1 0.0024879167428101 -0.3414842687171998 -0.2634785364367080 0.0252171816074561 12.1920452814872906 14.1210445795391912 0.0000309149416730 2.1630460063147288 0.8487419335610986 0.0000000000000000 -0.0000000000000000 0.0000000000000000 -0.0000000000000000 
120 2 0.1178385048315533 -0.1069211140547118 0.0167550264717991 0.3302779980927200 16.0293846740032286 15.4751446568443711 0.0000337288250564 2.2109979856178645 0.9564821953663949 0.0000000000000000 0.0000000000000000 0.0000000000000000 -0.0000000000000000 
121 2 0.0134695395016791 -0.4347302333319047 0.0039116085713977 0.2500750080320428 14.8926504422835642 11.7359716179635001 0.0000339365097564 2.2092447077811079 0.9031544893898203 0.0000000000000000 -0.0000000000000000 -0.0000000000000000 -0.0000000000000000 
152 2 0.3209069720872876 -0.0903361564890776 0.1048722085357850 3.0641647009549522 15.6764789579390964 13.5995371053047922 0.0000292532172813 2.3333204743216687 1.0146038937098028 0.0000000000000000 -0.0000000000000000 0.0000000000000000 -0.0000000000000000 
186 2 0.1748239762855913 0.1473036585638133 0.1039495593894011 5.2043688921146058 11.9297489323245536 14.6375641516726969 0.0000291264485892 2.1754536190388976 0.8098538385160461 0.0000000000000000 -0.0000000000000000 0.0000000000000000 0.0000000000000000 
206 2 0.2132081171409365 -0.2477436057293863 0.1022754076831340 3.3964931734810326 14.1223607336163592 11.6326604280946349 0.0000326985409312 2.1286317136864814 0.8210707684664481 0.0000000000000000 0.0000000000000000 0.0000000000000000 0.0000000000000000 
10 1 -0.1978447059307679 -0.1960520978566546 -0.1737510988134510 10.5503917153358788 13.1015762413737367 13.2915413586120454 0.0000244755458452 2.2217119394831353 0.9175912146510864 0.0000000000000000 0.0000000000000000 -0.0000000000000000 -0.0000000000000000 
50 1 0.1555412805565670 0.0494575119270923 0.0641783526641346 8.5104360673548403 11.2063178879074865 14.7270245146997159 0.0000242225890783 2.3029510544741005 0.8938134048727466 0.0000000000000000 -0.0000000000000000 0.0000000000000000 0.0000000000000000 
58 1 0.1033784633767600 -0.0887672957253536 -0.0252186193020468 7.4274975498183720 14.7469800124224335 12.5045396575520975 0.0000224452887256 2.5325750241555047 1.0502780945745664 0.0000000000000000 0.0000000000000000 -0.0000000000000000 0.0000000000000000 
116 2 0.1837877569744175 0.2333732278902040 -0.0083212340034019 5.9817521272340626 12.3551309133253806 13.2826273151342562 0.0000284324707590 2.1873759457839252 0.8024888527672382 0.0000000000000000 -0.0000000000000000 0.0000000000000000 -0.0000000000000000 
136 2 -0.0089054147874077 -0.2060581340159528 -0.1052110350161497 6.4998916387425156 14.8088604668764550 16.1724014598301089 0.0000236105422965 2.4544240042245900 1.0306756787938176 0.0000000000000000 0.0000000000000000 0.0000000000000000 0.0000000000000000 
9 1 -0.0042490544503017 -0.1484984654558770 -0.1539247759262719 16.2415030591175089 11.7781069748153087 15.7387323950244067 0.0000350947038797 2.0946676449924566 0.7670637378756323 0.0000000000000000 0.0000000000000000 0.0000000000000000 0.0000000000000000 
24 1 -0.3043936224426736 -0.3060977192743433 -0.1469757702802772 11.1745809706804593 14.1562637986380953 13.3749474117635820 0.0000271227253073 2.2218760462822953 0.9515135316822043 0.0000000000000000 0.0000000000000000 -0.0000000000000000 -0.0000000000000000 
78 1 -0.1374332719231232 -0.4246628495200969 -0.1812608668330218 14.6195621697817728 13.6777419531927098 12.8428274000588072 0.0000306756467003 2.1849098481736045 0.9073990896561126 0.0000000000000000 -0.0000000000000000 0.0000000000000000 -0.0000000000000000 
92 1 -0.0614122996184071 -0.2747302866187067 -0.0349646005436796 13.4965790359742215 14.6430588781081568 15.1899565476412750 0.0000336607843544 2.1747377567149098 0.9031444313944836 0.0000000000000000 -0.0000000000000000 -0.0000000000000000 -0.0000000000000000 
99 1 0.1052155607403507 0.0637209996621400 -0.0530255560135775 11.1066835013200418 11.0796860466519309 11.2639008501684668 0.0000209666554211 2.4732208168342766 0.9772891496643845 0.0000000000000000 -0.0000000000000000 0.0000000000000000 0.0000000000000000 
106 1 -0.0064353522718889 -0.4309113971760831 -0.2014366476916882 15.3652232525882422 11.5919738033725093 11.4054200014800173 0.0000222651315805 2.3263727460221082 0.9422322259107585 0.0000000000000000 0.0000000000000000 0.0000000000000000 -0.0000000000000000 
163 2 -0.2061003133132023 -0.2967800085938787 -0.2188332063947279 10.8702308522514226 13.3922683245032506 12.7477265006164568 0.0000248583387901 2.2100924911735769 0.9271826521178548 0.0000000000000000 0.0000000000000000 -0.0000000000000000 -0.0000000000000000 
166 2 -0.2676800777049685 -0.2256782005052250 -0.1607231365854540 13.5340753013001187 12.4545217320181187 15.5950501063682498 0.0000305822735350 2.2424100840866421 0.8821670245742140 0.0000000000000000 -0.0000000000000000 0.0000000000000000 -0.0000000000000000 
173 2 -0.1269823767624204 -0.3631415033087330 -0.1782371235168574 14.9316862674840536 13.0391054350610087 13.3515997062474305 0.0000304229817516 2.1621284127164389 0.8681618443395757 0.0000000000000000 0.0000000000000000 -0.0000000000000000 0.0000000000000000 
