ITEM: TIMESTEP
0
ITEM: NUMBER OF ATOMS
60
ITEM: BOX BOUNDS pp pp pp
0.0000000000000000e+00 1.5969212012997900e+01
0.0000000000000000e+00 1.5969212012997900e+01
0.0000000000000000e+00 1.5969212012997900e+01
ITEM: ATOMS id type fx fy fz x y z rho_SPH width_SPH omega_SPH u_SPH vx vy vz 
13 1 0.0647603061692186 0.0188253621576617 0.0774091824448627 2.6361213437688091 2.4354808611614263 1.1889211753213957 0.0000037411036867 2.7160049740750920 0.3042513742855205 0.0000000000000000 -0.0000000000000000 0.0000000000000000 -0.0000000000000000 
30 1 -0.0829611418836758 -0.1063952669401796 -0.1499889951194114 6.6586208258604165 4.7403695106737409 3.3926083711503572 0.0000072397686727 2.6289954644654836 0.4867372044537507 0.0000000000000000 0.0000000000000000 0.0000000000000000 0.0000000000000000 
2 1 -0.0354876961076421 0.0292263925720047 -0.1462681135562189 8.8955131783415684 6.5118506223968442 0.9718530812322836 0.0000066953539849 2.6726046562023194 0.5058183032851884 0.0000000000000000 -0.0000000000000000 0.0000000000000000 0.0000000000000000 
36 2 -0.0268732669085849 0.0236733116053161 0.0136874035019046 10.6621289753141841 4.2281178530907173 0.1995464571261551 0.0000074619189380 2.5413020545673213 0.4227796035282430 0.0000000000000000 -0.0000000000000000 -0.0000000000000000 0.0000000000000000 
53 2 0.0322061999808263 0.0115444823807051 0.0285170877015975 2.2808236366898487 10.2169387683069868 0.1370995980355691 0.0000031168411760 2.7481472358533736 0.2376688963787428 0.0000000000000000 0.0000000000000000 -0.0000000000000000 0.0000000000000000 
11 1 -0.0011434435941495 -0.0208216158606656 0.0263719820529400 9.3253860261421728 11.1026805493046599 0.3719277500135310 0.0000061580283351 2.6715893064684009 0.5269991991100473 0.0000000000000000 0.0000000000000000 0.0000000000000000 -0.0000000000000000 
12 1 0.0489187485462787 0.0761993875051531 0.0162629298310737 8.9202222289108306 8.8118917869554956 3.9482139086175807 0.0000074564742206 2.6287907949549734 0.5188756887232427 0.0000000000000000 -0.0000000000000000 -0.0000000000000000 0.0000000000000000 
60 2 -0.0186583992737552 0.0439704835377355 -0.0036084270345898 9.5689793423487171 11.9001609668728747 2.7332749658015043 0.0000047997194019 2.6644807617651027 0.3396202921162876 0.0000000000000000 0.0000000000000000 -0.0000000000000000 0.0000000000000000 
20 1 0.0407404251175428 0.0111311844981852 0.0023221922658132 13.8334013116745904 9.8181480783910615 3.5322387953535577 0.0000057986418284 2.5025780750477038 0.3292679994049960 0.0000000000000000 0.0000000000000000 0.0000000000000000 -0.0000000000000000 
21 1 -0.0058323491568688 -0.0232882500313754 0.0120342727848830 13.8752571485026674 9.1822931020226761 2.7027772792241258 0.0000055545677128 2.5018738655147699 0.2729369016702755 0.0000000000000000 0.0000000000000000 -0.0000000000000000 0.0000000000000000 
22 1 -0.0253941022156777 -0.0684899431528576 0.1431974606361044 14.1414523710621669 14.6534272280662687 1.8098177211459494 0.0000043870036282 2.7726844090966964 0.4487425932729171 0.0000000000000000 0.0000000000000000 -0.0000000000000000 0.0000000000000000 
49 2 -0.0897611173622328 0.1188660084516790 -0.0529258551492497 11.5509355588051079 1.6327068349592904 6.7059043624755281 0.0000105333327188 2.3880829979272100 0.4025170436958549 0.0000000000000000 -0.0000000000000000 -0.0000000000000000 -0.0000000000000000 
8 1 -0.0025191317049079 0.0748529471512233 -0.1853225683148329 12.0411920715036000 1.6920365316773553 5.7684846350679413 0.0000092555970279 2.4195959445023711 0.3831171982518734 0.0000000000000000 -0.0000000000000000 0.0000000000000000 0.0000000000000000 
26 1 -0.1156051974023371 -0.0518511064522643 -0.0453402575950006 2.4917493202046721 4.7889337415685622 5.8734568254391517 0.0000045254182931 2.7531864087168660 0.4349888088477206 0.0000000000000000 0.0000000000000000 -0.0000000000000000 -0.0000000000000000 
31 2 -0.0082962487010251 -0.0043554837344567 0.0075277733753060 0.0665226233290164 7.2319211989557957 7.4880482349728359 0.0000047884508919 2.6666241705800253 0.3461614677079013 0.0000000000000000 -0.0000000000000000 0.0000000000000000 0.0000000000000000 
16 1 -0.0696672899313697 -0.0591401083142190 0.0120559617525949 5.7970708277526901 4.2992747002808738 6.4728080252631237 0.0000100487494373 2.4417874113674944 0.5229563167854311 0.0000000000000000 -0.0000000000000000 -0.0000000000000000 -0.0000000000000000 
58 2 -0.0755312545947716 0.0058287484027065 0.0882491789796695 5.8086203406788774 4.0900056578390922 7.5754990467228884 0.0000082926879321 2.4528638083465060 0.3962879538834913 0.0000000000000000 -0.0000000000000000 0.0000000000000000 0.0000000000000000 
41 2 0.1211123661030628 -0.0010222283616693 0.0446040371212322 9.0507396377378626 5.6662364871297255 4.3786141247462238 0.0000091726083420 2.4654399578173170 0.4266254118814822 0.0000000000000000 0.0000000000000000 -0.0000000000000000 -0.0000000000000000 
45 2 0.0648497802741822 -0.0257016729345118 0.0429794993228515 9.8400127097555288 4.3635750867789449 5.1248068195321110 0.0000085511519694 2.5230220421085185 0.5238648752678191 0.0000000000000000 0.0000000000000000 0.0000000000000000 0.0000000000000000 
27 1 0.0208058724874522 -0.1047475620685648 0.0051473807463362 13.7401410523506797 6.6974358571032857 6.9385573999497270 0.0000056708420818 2.6660751860612373 0.4900664092959505 0.0000000000000000 -0.0000000000000000 -0.0000000000000000 0.0000000000000000 
6 1 0.0278895621910388 -0.0041872106930763 0.0229218831392704 6.2723777790024924 9.0836147406155021 7.8451259407451506 0.0000069508319500 2.5865485196891651 0.4397219064515807 0.0000000000000000 0.0000000000000000 -0.0000000000000000 0.0000000000000000 
17 1 -0.0855112193753225 0.1149245036461305 -0.0681877288247848 6.1599567082886084 8.4847428884159299 4.3037888204183012 0.0000064678087321 2.6553438907578855 0.4653244817508613 0.0000000000000000 0.0000000000000000 0.0000000000000000 0.0000000000000000 
38 2 -0.0429401568809065 0.0660924245030726 -0.0104485382032067 4.1932581730421754 8.8038048561308742 7.0743016318896617 0.0000060119721884 2.6200760907560228 0.4233870922944416 0.0000000000000000 -0.0000000000000000 -0.0000000000000000 0.0000000000000000 
59 2 0.0325585894716698 0.0439943523181689 -0.0341359966221355 11.8395741658138700 10.9095595687413169 7.3509674902768323 0.0000059353613654 2.7244506560011765 0.5359360753029023 0.0000000000000000 0.0000000000000000 -0.0000000000000000 0.0000000000000000 
51 2 -0.1407352813518196 -0.0813385590850965 -0.0604167375347507 3.0468825133209165 14.2294120643206643 6.0562499389093052 0.0000051669171153 2.6573367045734333 0.3337637192230888 0.0000000000000000 -0.0000000000000000 0.0000000000000000 -0.0000000000000000 
23 1 -0.0196933934818503 0.0010357681211091 -0.0866077649430130 5.5258662489020578 15.1107867929307798 6.5386256920526975 0.0000103191003476 2.3903522352540740 0.3835757917039312 0.0000000000000000 -0.0000000000000000 0.0000000000000000 0.0000000000000000 
33 2 -0.0328908354558554 0.0358331353486361 -0.1908637526681976 5.4540856428077742 15.9263911394626003 4.7095784922096406 0.0000066998521657 2.5677986830985446 0.3986122980051058 0.0000000000000000 0.0000000000000000 0.0000000000000000 0.0000000000000000 
54 2 0.0220728445755726 -0.0636923709740789 0.0703464001266838 6.3112162871090858 14.5692299015547988 7.9644887065894494 0.0000097375036393 2.4684123358420083 0.4622775286245808 0.0000000000000000 -0.0000000000000000 0.0000000000000000 -0.0000000000000000 
50 2 0.0268665472668331 -0.0005805311937970 -0.1452900329604239 9.2640109140036628 15.2303085011066361 4.9584168850284183 0.0000065449883485 2.7144380719493069 0.5192471903794519 0.0000000000000000 0.0000000000000000 0.0000000000000000 -0.0000000000000000 
25 1 0.0809470884438097 0.1400322593007814 -0.0169482595324319 0.9849398196155945 1.2868073593855585 10.9496122308235435 0.0000113603005687 2.3624579592120192 0.4132279751817332 0.0000000000000000 -0.0000000000000000 0.0000000000000000 -0.0000000000000000 
47 2 0.0582706627090691 0.0209407924048818 0.1114717368436139 6.4350225909778711 1.2271075961338156 9.0828396357164127 0.0000078826298369 2.6234272417936233 0.5131038576213484 0.0000000000000000 -0.0000000000000000 -0.0000000000000000 -0.0000000000000000 
18 1 -0.0885301927739255 -0.0312156923612855 -0.0683539689722362 10.1532740472814407 3.5842463095339192 11.8504246212869813 0.0000069573851509 2.5904630533994446 0.4454728482861098 0.0000000000000000 0.0000000000000000 -0.0000000000000000 -0.0000000000000000 
15 1 0.0504553189859530 0.0676594676141709 -0.0611528627610383 14.3884500134284146 1.1467037740481651 8.5028193759392945 0.0000125927265429 2.3231856898520995 0.4320927214831391 0.0000000000000000 0.0000000000000000 0.0000000000000000 -0.0000000000000000 
19 1 0.0242669930240095 0.0956067874319452 -0.0154765655999758 13.6616554374267203 1.4495749869192347 8.1112061096516843 0.0000119323767142 2.3149109141701256 0.3491590346148428 0.0000000000000000 -0.0000000000000000 0.0000000000000000 0.0000000000000000 
48 2 0.0757744949685454 0.0304033875050251 0.0084897032025987 12.3815874862990238 3.7709041631353148 11.1534899016212190 0.0000065451983374 2.6254220427874650 0.4650659404330350 0.0000000000000000 0.0000000000000000 0.0000000000000000 -0.0000000000000000 
34 2 -0.0403349284044410 0.0424243183614721 0.0634643404785746 7.9657330287040935 4.3391889882189432 10.1418142322747205 0.0000059738438806 2.6675162069100904 0.4325198561858155 0.0000000000000000 0.0000000000000000 -0.0000000000000000 -0.0000000000000000 
32 2 -0.0028874591266994 0.0054970295753192 -0.0063700631750600 11.1763896419677220 6.5405351502858284 9.5818123365445160 0.0000059826616010 2.7005011603387219 0.4823230544460328 0.0000000000000000 0.0000000000000000 -0.0000000000000000 0.0000000000000000 
4 1 -0.0732240695676983 -0.0282346918088623 0.0585566786953308 4.6558786365175502 10.4912036368558255 10.5433852300193394 0.0000064024312891 2.5563963411656228 0.3448911305105051 0.0000000000000000 -0.0000000000000000 0.0000000000000000 0.0000000000000000 
56 2 0.0208544309026970 -0.0248954066314158 0.0364605617042690 9.3253734537292150 9.3527081476907536 9.2279978712487178 0.0000048020150897 2.7215702366953538 0.4137885090808278 0.0000000000000000 -0.0000000000000000 0.0000000000000000 0.0000000000000000 
5 1 0.0487465884684603 0.0743728962347173 0.0875122674850772 14.6907633645737103 9.9655432218541975 10.0196377064754483 0.0000034659713514 2.8103422240547307 0.4278790198251738 0.0000000000000000 -0.0000000000000000 0.0000000000000000 -0.0000000000000000 
14 1 0.0509501228682526 0.0039244818470947 -0.0525335174895682 2.1595778835566022 15.9467142347761843 9.4182654536122712 0.0000100028565393 2.5481672099887622 0.5671554820704486 0.0000000000000000 -0.0000000000000000 -0.0000000000000000 -0.0000000000000000 
40 2 -0.0851484999348232 -0.1706063493491118 0.0412686465307928 0.2046075561260870 14.7061360677486004 11.5491060671358365 0.0000083915463438 2.5656883077951838 0.4883801142577960 0.0000000000000000 0.0000000000000000 0.0000000000000000 0.0000000000000000 
3 1 -0.0243567218238978 -0.0521255930185592 0.0290636595830627 4.4624324222652350 12.4193128445265835 10.5298550879103647 0.0000074111500216 2.5483485220658806 0.4673856063970062 0.0000000000000000 -0.0000000000000000 0.0000000000000000 -0.0000000000000000 
1 1 -0.0268107533445504 -0.0249510676449146 0.0397746018025511 9.4614748272825384 14.0109317686786152 8.7749772553259326 0.0000088502737485 2.5254297581794645 0.5607288305479049 0.0000000000000000 -0.0000000000000000 0.0000000000000000 -0.0000000000000000 
57 2 -0.0309904083136598 -0.1427301133195980 0.0082525881191433 11.0576596286031617 13.9942638465912434 8.2857091081220222 0.0000094495702418 2.5026327746704995 0.5415819612105088 0.0000000000000000 -0.0000000000000000 0.0000000000000000 0.0000000000000000 
42 2 0.0332053838211991 -0.2047351494596073 -0.0484241025704253 14.1809478927201891 15.2854477214436635 8.4680210114642200 0.0000104042804773 2.4431224893959627 0.4795495279162164 0.0000000000000000 -0.0000000000000000 -0.0000000000000000 -0.0000000000000000 
28 1 -0.0117828560041065 0.1476715496156340 0.0643584411578961 0.7647876915670052 1.3848707951684969 12.0751345751305674 0.0000103298843607 2.4009263376440169 0.4047169838746845 0.0000000000000000 0.0000000000000000 0.0000000000000000 -0.0000000000000000 
52 2 0.0426251768065787 0.0865780130376440 0.0997421797117167 0.6127880314447277 1.6165087707856580 15.7273472633220930 0.0000077296339860 2.5317340350625006 0.4567579771348931 0.0000000000000000 0.0000000000000000 -0.0000000000000000 0.0000000000000000 
37 2 0.1630791934140398 0.0852887672885968 0.0579440301766331 4.2912913122785881 0.5570941828004472 12.6022455795309938 0.0000065935336933 2.7395429706005556 0.5992747384006750 0.0000000000000000 -0.0000000000000000 0.0000000000000000 0.0000000000000000 
43 2 -0.0459941755667089 -0.0530513521580894 0.0055234030308265 12.0902250082558016 1.2972158890276533 14.8086780424878484 0.0000093261181141 2.4256719270023259 0.4696026537676612 0.0000000000000000 -0.0000000000000000 -0.0000000000000000 -0.0000000000000000 
44 2 -0.0471951288029806 -0.0290619590950708 0.0601952451368021 12.0808930363974127 0.9141463598734527 15.3675463570622046 0.0000089744346700 2.4322141022310380 0.4698176703738263 0.0000000000000000 0.0000000000000000 -0.0000000000000000 -0.0000000000000000 
46 2 0.0185584440536187 -0.0056764862394677 -0.0373388963628135 3.5325478582330279 6.2648717875044380 14.4097019950602458 0.0000023173541354 2.8438466019723179 0.3057186393534806 0.0000000000000000 -0.0000000000000000 -0.0000000000000000 -0.0000000000000000 
29 1 0.0964697836233218 0.0918443603637102 0.0498606980183234 12.1899856223187175 5.1152064427869126 15.2684815879977140 0.0000071082057240 2.5773152376466033 0.4503472488959633 0.0000000000000000 -0.0000000000000000 -0.0000000000000000 -0.0000000000000000 
7 1 -0.0030824732622144 -0.0069170952557022 -0.0791779181351870 12.8660022017444557 8.7222886625119500 14.5843562584852844 0.0000036675616594 2.7986594307165822 0.4170497093833184 0.0000000000000000 -0.0000000000000000 0.0000000000000000 0.0000000000000000 
9 1 0.0347203414579827 -0.0079226170506758 -0.0625769378964484 15.8777738059205333 11.5519935857186322 15.3987177685172227 0.0000054149569385 2.7154599859530957 0.5086826740246591 0.0000000000000000 0.0000000000000000 0.0000000000000000 0.0000000000000000 
39 2 0.0366952346730836 -0.0861157823176018 0.0810571873804862 0.2712683881323142 15.7072344006027542 15.0767912043335084 0.0000088934633179 2.5474942163268590 0.5273046728397139 0.0000000000000000 0.0000000000000000 0.0000000000000000 0.0000000000000000 
35 2 -0.0149595770399844 -0.0438109013615279 0.0340955161002846 5.8777038495668341 12.1152073947491559 13.0384931499443173 0.0000055937705860 2.6781620625435711 0.4396105160447057 0.0000000000000000 0.0000000000000000 0.0000000000000000 -0.0000000000000000 
55 2 -0.0006226374851626 0.0406702473669821 0.0619194240189150 6.3588132053766255 14.4542748341431491 15.8223067579874783 0.0000031513254118 2.8079085973169060 0.3595254712078075 0.0000000000000000 -0.0000000000000000 -0.0000000000000000 -0.0000000000000000 
10 1 0.0247769077096272 -0.0617198807278428 0.0185903287283709 10.2935423904408694 12.8619436843609876 13.0659460887132699 0.0000062569755612 2.5220981985369937 0.3902687544380513 0.0000000000000000 0.0000000000000000 -0.0000000000000000 -0.0000000000000000 
24 1 0.0122439987196792 -0.0195308025513171 -0.0034780026673922 10.8792958699831228 14.0335973954850797 13.0545910176049613 0.0000066441166091 2.5132412912101953 0.3896027831921850 0.0000000000000000 0.0000000000000000 -0.0000000000000000 -0.0000000000000000 
