ITEM: TIMESTEP
0
ITEM: NUMBER OF ATOMS
6
ITEM: BOX BOUNDS pp pp pp
0.0000000000000000e+00 4.8819591223992003e+00
0.0000000000000000e+00 4.8819591223992003e+00
0.0000000000000000e+00 4.8819591223992003e+00
ITEM: ATOMS id type fx fy fz x y z rho_SPH width_SPH omega_SPH u_SPH vx vy vz 
5 2 -0.0000004184949843 -0.0000022161988315 0.0000000607487572 1.6803260007827143 0.0926757709304676 1.4016820283688107 0.0000073050525843 2.4334076523829138 0.1749345890651927 0.0000000000000261 4.2176772357732011 -24.5969142181029277 -12.3931973598129392 
1 1 0.0000007011306495 0.0000026772082678 0.0000006228355684 2.7270022481356526 1.9337257802056282 0.3127937079036167 0.0000046892824161 2.5802734325657219 0.1593086493101226 0.0000000000004002 -3.1820096435216181 -16.0669176721405904 -15.8575669915482163 
4 2 -0.0000003470485081 -0.0000020763061825 -0.0000029074169469 4.8246916802983826 2.2215343300295416 2.3036231637675928 0.0000055913850840 2.4852189523659689 0.1209544906438746 0.0000000000006236 -10.2390957426030447 15.6252840675957447 6.2356987838954243 
6 2 -0.0000014021017666 0.0000019164860496 0.0000003831847582 3.3769858722209922 2.1199918628495138 2.9399105237482557 0.0000076078884260 2.4102145732405100 0.1657263164348528 -0.0000000000001487 6.0214185068298445 8.9716301505071829 6.1574985759175194 
3 1 0.0000005625149266 0.0000011245249567 0.0000012609172814 1.3575415502453905 3.8120573883794564 3.2139034336416543 0.0000077406976408 2.4029623962590216 0.1619613582291494 -0.0000000000001099 6.2965294774816654 -0.8262456804144124 -5.0721862552633015 
2 1 0.0000009039996830 -0.0000014257142601 0.0000005797305817 2.8485877161109334 4.3637470124772992 2.7984897841120846 0.0000080790169295 2.3822611618685947 0.1522346956600662 -0.0000000000002155 -3.1145198339600233 16.8931633525550140 20.9297532468115293 
ITEM: TIMESTEP
1
ITEM: NUMBER OF ATOMS
6
ITEM: BOX BOUNDS pp pp pp
0.0000000000000000e+00 4.8819591223992003e+00
0.0000000000000000e+00 4.8819591223992003e+00
0.0000000000000000e+00 4.8819591223992003e+00
ITEM: ATOMS id type fx fy fz x y z rho_SPH width_SPH omega_SPH u_SPH vx vy vz 
5 2 0.0000000127771390 -0.0000016170918857 0.0000017015301649 1.6803260429594866 0.0926755249613254 1.4016819044368372 0.0000025111251792 3.6539043478226612 0.0835385544914310 0.0000000000000751 4.2176772357697336 -24.5969142181356872 -12.3931973597978793 
1 1 0.0000004219252712 0.0000010026330937 -0.0000003449915784 2.7270022163155563 1.9337256195364516 0.3127935493279467 0.0000013689288058 4.0913679453522525 0.0701587705781652 0.0000000000005989 -3.1820096435120209 -16.0669176721091418 -15.8575669915458430 
4 2 -0.0000006042548964 -0.0000009866082034 -0.0000009855995161 4.8246915779074255 2.2215344862823825 2.3036232261245808 0.0000016326556679 3.8894681798523454 0.0543335896330595 0.0000000000009639 -10.2390957426111751 15.6252840675695701 6.2356987838621558 
6 2 -0.0000006555475994 0.0000019159724920 0.0000002455281635 3.3769859324351774 2.1199919525658153 2.9399105853232412 0.0000026137008562 3.6104842430879360 0.0804248752540946 -0.0000000000004008 6.0214185068122612 8.9716301505399336 6.1574985759228920 
3 1 0.0000012642878966 0.0000014980611962 -0.0000005499660756 1.3575416132106852 3.8120573801169995 3.2139033829197916 0.0000026610324985 3.5936833208815240 0.0781300841857145 -0.0000000000002617 6.2965294774972760 -0.8262456803920010 -5.0721862552572254 
2 1 -0.0000004391878111 -0.0000018129666927 -0.0000000665011583 2.8485876849657350 4.3637471814089324 2.7984899934096172 0.0000027788781539 3.5507953200520914 0.0735006195268027 -0.0000000000002495 -3.1145198339560509 16.8931633525273384 20.9297532468159133 
ITEM: TIMESTEP
2
ITEM: NUMBER OF ATOMS
6
ITEM: BOX BOUNDS pp pp pp
0.0000000000000000e+00 4.8819591223992003e+00
0.0000000000000000e+00 4.8819591223992003e+00
0.0000000000000000e+00 4.8819591223992003e+00
ITEM: ATOMS id type fx fy fz x y z rho_SPH width_SPH omega_SPH u_SPH vx vy vz 
5 2 0.0000001318801340 -0.0000009681820651 0.0000014065641828 1.6803260851362589 0.0926752789921833 1.4016817805048636 0.0000008681503930 5.3241414271050189 0.0404749705723183 0.0000000000001082 4.2176772357709700 -24.5969142181577816 -12.3931973597713174 
1 1 0.0000002413012125 0.0000003216644531 -0.0000005312013677 2.7270021844954599 1.9337254588672750 0.3127933907522768 0.0000004010137957 6.2885639945174283 0.0307492474405664 0.0000000000006972 -3.1820096435063534 -16.0669176720978228 -15.8575669915533304 
4 2 -0.0000004656974357 -0.0000004078032216 -0.0000002643599800 4.8246914755164685 2.2215346425352234 2.3036232884815688 0.0000004785407778 5.9487653161018503 0.0240765154588783 0.0000000000011431 -10.2390957426203180 15.6252840675576543 6.2356987838514737 
6 2 -0.0000003226982463 0.0000014077366955 0.0000003463982372 3.3769859926493626 2.1199920422821168 2.9399106468982268 0.0000009036333896 5.2565718569144444 0.0392340689373998 -0.0000000000006168 6.0214185068039017 8.9716301505683358 6.1574985759279501 
3 1 0.0000008916441917 0.0000010410340408 -0.0000008010250851 1.3575416761759800 3.8120573718545425 3.2139033321979289 0.0000009202503430 5.2280593621645828 0.0380388139090777 -0.0000000000003802 6.2965294775156995 -0.8262456803703030 -5.0721862552687700 
2 1 -0.0000004764298562 -0.0000013944499027 -0.0000001563759873 2.8485876538205366 4.3637473503405655 2.7984902027071499 0.0000009613635491 5.1582745721411971 0.0358269671140646 -0.0000000000002504 -3.1145198339638753 16.8931633524999292 20.9297532468140091 
ITEM: TIMESTEP
3
ITEM: NUMBER OF ATOMS
6
ITEM: BOX BOUNDS pp pp pp
0.0000000000000000e+00 4.8819591223992003e+00
0.0000000000000000e+00 4.8819591223992003e+00
0.0000000000000000e+00 4.8819591223992003e+00
ITEM: ATOMS id type fx fy fz x y z rho_SPH width_SPH omega_SPH u_SPH vx vy vz 
5 2 0.0000001446467892 -0.0000005470248225 0.0000009430045247 1.6803261273130312 0.0926750330230411 1.4016816565728900 0.0000003012454192 7.6567118043880971 0.0198157978483623 0.0000000000001286 4.2176772357733334 -24.5969142181707312 -12.3931973597512375 
1 1 0.0000001355438919 0.0000000637243456 -0.0000004651661742 2.7270021526753636 1.9337252981980984 0.3127932321766069 0.0000001177108146 9.5456330380861978 0.0135312031786880 0.0000000000007453 -3.1820096435031333 -16.0669176720945295 -15.8575669915618445 
4 2 -0.0000003122750805 -0.0000001347935841 -0.0000000037982094 4.8246913731255114 2.2215347987880643 2.3036233508385568 0.0000001405158050 9.0114904476150741 0.0106484659376851 0.0000000000012344 -10.2390957426269651 15.6252840675530180 6.2356987838491813 
6 2 -0.0000001478555132 0.0000009402509079 0.0000003320750565 3.3769860528635478 2.1199921319984183 2.9399107084732123 0.0000003135784629 7.5569823221422832 0.0192683187442011 -0.0000000000007728 6.0214185067998800 8.9716301505883997 6.1574985759337482 
3 1 0.0000005230084300 0.0000006257857809 -0.0000006771768820 1.3575417391412747 3.8120573635920856 3.2139032814760662 0.0000003193876367 7.5132118088620841 0.0186662344716465 -0.0000000000004623 6.2965294775277885 -0.8262456803560591 -5.0721862552814017 
2 1 -0.0000003430685174 -0.0000009479426276 -0.0000001289383155 2.8485876226753382 4.3637475192721986 2.7984904120046825 0.0000003337265769 7.4080438765890095 0.0175929908198521 -0.0000000000002473 -3.1145198339708786 16.8931633524799132 20.9297532468115719 
ITEM: TIMESTEP
4
ITEM: NUMBER OF ATOMS
6
ITEM: BOX BOUNDS pp pp pp
0.0000000000000000e+00 4.8819591223992003e+00
0.0000000000000000e+00 4.8819591223992003e+00
0.0000000000000000e+00 4.8819591223992003e+00
ITEM: ATOMS id type fx fy fz x y z rho_SPH width_SPH omega_SPH u_SPH vx vy vz 
5 2 0.0000001205852288 -0.0000003029201510 0.0000005934570783 1.6803261694898035 0.0926747870538989 1.4016815326409164 0.0000001047419606 10.9440675475815379 0.0097560174296192 0.0000000000001410 4.2176772357756001 -24.5969142181779965 -12.3931973597381067 
1 1 0.0000000755831728 -0.0000000223475022 -0.0000003463111451 2.7270021208552673 1.9337251375289217 0.3127930736009369 0.0000000345869013 14.4132070828175358 0.0059698390195785 0.0000000000007685 -3.1820096435013294 -16.0669176720941778 -15.8575669915687794 
4 2 -0.0000002002743586 -0.0000000209828167 0.0000000733690539 4.8246912707345544 2.2215349550409051 2.3036234131955449 0.0000000412946816 13.5948392883113698 0.0047085992239567 0.0000000000012795 -10.2390957426313438 15.6252840675516875 6.2356987838497755 
6 2 -0.0000000600901425 0.0000006028333296 0.0000002629491800 3.3769861130777330 2.1199922217147198 2.9399107700481979 0.0000001090348665 10.7998649177430792 0.0095005452538615 -0.0000000000008776 6.0214185067981028 8.9716301506015856 6.1574985759388330 
3 1 0.0000002879171375 0.0000003563796183 -0.0000004946451236 1.3575418021065695 3.8120573553296286 3.2139032307542035 0.0000001110621546 10.7353822487932753 0.0092003469662812 -0.0000000000005164 6.2965294775347180 -0.8262456803476659 -5.0721862552914150 
2 1 -0.0000002237210380 -0.0000006129624780 -0.0000000888190436 2.8485875915301397 4.3637476882038317 2.7984906213022152 0.0000001160610143 10.5817828333117525 0.0086744992948288 -0.0000000000002448 -3.1145198339757223 16.8931633524665763 20.9297532468097103 
ITEM: TIMESTEP
5
ITEM: NUMBER OF ATOMS
6
ITEM: BOX BOUNDS pp pp pp
0.0000000000000000e+00 4.8819591223992003e+00
0.0000000000000000e+00 4.8819591223992003e+00
0.0000000000000000e+00 4.8819591223992003e+00
ITEM: ATOMS id type fx fy fz x y z rho_SPH width_SPH omega_SPH u_SPH vx vy vz 
5 2 0.0000000891284655 -0.0000001670241471 0.0000003641787079 1.6803262116665758 0.0926745410847567 1.4016814087089429 0.0000000364563482 15.5968978318703435 0.0048169803198881 0.0000000000001486 4.2176772357773924 -24.5969142181820146 -12.3931973597299230 
1 1 0.0000000421257744 -0.0000000418194883 -0.0000002386579378 2.7270020890351709 1.9337249768597451 0.3127929150252670 0.0000000101674178 21.7130248572242479 0.0026372015851222 0.0000000000007794 -3.1820096435003236 -16.0669176720947284 -15.8575669915737780 
4 2 -0.0000001259437142 0.0000000181365684 0.0000000808045484 4.8246911683435973 2.2215351112937460 2.3036234755525329 0.0000000121402376 20.4724003802217069 0.0020821235072196 0.0000000000013013 -10.2390957426341309 15.6252840675516627 6.2356987838510927 
6 2 -0.0000000197266074 0.0000003780218344 0.0000001883075690 3.3769861732919182 2.1199923114310213 2.9399108316231835 0.0000000379514441 15.3902706110490506 0.0046942152106448 -0.0000000000009451 6.0214185067974206 8.9716301506099683 6.1574985759426895 
3 1 0.0000001547967308 0.0000001987895754 -0.0000003373652941 1.3575418650718643 3.8120573470671717 3.2139031800323408 0.0000000386583496 15.2970323093127440 0.0045451119316557 -0.0000000000005510 6.2965294775385008 -0.8262456803429217 -5.0721862552985248 
2 1 -0.0000001403806491 -0.0000003861043427 -0.0000000572675935 2.8485875603849413 4.3637478571354649 2.7984908305997478 0.0000000404005920 15.0758596477305939 0.0042861220478036 -0.0000000000002434 -3.1145198339788336 16.8931633524580391 20.9297532468084597 
