ITEM: TIMESTEP
0
ITEM: NUMBER OF ATOMS
300
ITEM: BOX BOUNDS pp pp pp
0.0000000000000000e+00 1.7985291181993400e+01
0.0000000000000000e+00 1.7985291181993400e+01
0.0000000000000000e+00 1.7985291181993400e+01
ITEM: ATOMS id type fx fy fz x y z rho_SPH width_SPH omega_SPH 
4 1 0.0000001445737175 0.0000000309306325 -0.0000000004241988 2.9225864512209974 2.6921145515115188 1.1942240905234134 0.0000334900635588 2.4521825377250410 0.8427244779124694 
10 1 0.0000000354513720 -0.0000001982612651 -0.0000000518511065 5.9900179367506716 2.4506940871594631 2.0956545859378699 0.0000291164729436 2.6518750556316664 1.0089517412472677 
12 1 -0.0000001211600048 0.0000002731876374 0.0000001290281152 2.1515897303101688 5.6775477825134164 5.4847454061512222 0.0000311502961365 2.4602320458954363 0.8057960346473665 
14 1 0.0000000788524158 -0.0000002065708279 -0.0000000182631663 3.4737911452257668 0.0351301392890164 4.7468600363061340 0.0000320993723163 2.4931888104347757 0.8592980537694820 
22 1 -0.0000000986624580 -0.0000001488399612 0.0000001747259412 1.4638280934372401 1.0217937851426955 3.1587618979590304 0.0000338611465824 2.4356245165497383 0.8178526424409951 
25 1 0.0000000102661475 -0.0000000543000085 0.0000000498138152 2.8143808605671286 1.9330653785264047 3.5498157591842405 0.0000337597628251 2.4482146483779892 0.8445188903590356 
29 1 -0.0000000786792735 0.0000001078741990 -0.0000000152226286 0.3148869792041285 2.4443611712857072 5.6524140436337964 0.0000301128067799 2.5529619687029790 0.9236922283523581 
167 2 -0.0000000390808322 0.0000001770329390 -0.0000000783291163 5.8471524637121917 4.7989416374711009 1.3664409183964961 0.0000295127162336 2.5957434873460539 0.9854912404520276 
169 2 -0.0000000241933677 0.0000002104224123 -0.0000000955519766 4.8251814815600138 5.0087185323065846 1.8049818357632437 0.0000295143541647 2.6154786488102024 0.9835072641457079 
170 2 -0.0000000739669128 -0.0000000632429286 0.0000000125234236 2.2518140824355850 1.1631423968356782 5.3023161447674907 0.0000318287731566 2.5088757539583262 0.8953966900065951 
172 2 -0.0000000092003561 -0.0000001039713109 0.0000000668258219 2.5252857917230456 1.4850887204805732 3.6047266117514738 0.0000341099808681 2.4261689753049773 0.8253787786981374 
175 2 0.0000000508453957 -0.0000002692820647 0.0000002016355634 1.4115708408177812 0.8924852208025814 1.2719840741321655 0.0000333256307680 2.4619600347571264 0.8453101248053576 
177 2 -0.0000000127596612 0.0000002327201202 0.0000000623030729 0.1451308650571681 4.3884921669793826 5.2997280771866544 0.0000296540657392 2.5287610374100806 0.8823376586593662 
182 2 0.0000001045746327 -0.0000003590049205 -0.0000000776919813 5.4641455926048641 1.0069850175604791 1.0030464195274391 0.0000273827398771 2.7215515499067036 1.0403521886661455 
203 2 -0.0000000238754768 0.0000002117639689 0.0000001224887327 1.4004440612418345 5.8730536081344100 3.5311232214284782 0.0000322194733081 2.4174430879791569 0.7657227912226003 
193 2 0.0000000793680967 0.0000002707746580 -0.0000000013052628 2.4728493353701850 3.7034369664564188 1.0901845223779743 0.0000334967754866 2.4502447950568853 0.8365187074791243 
194 2 -0.0000000024643724 0.0000004682122507 0.0000000547687793 1.3047926936454881 4.3867747018560479 0.6931270213271427 0.0000314441616023 2.5166814788986382 0.8850247160727802 
198 2 0.0000001269097470 -0.0000002233983365 -0.0000000722151593 5.4080285740690215 0.5659250297030329 4.6239040478913918 0.0000300350524385 2.5690917993412570 0.9402074598227899 
9 1 -0.0000002330074736 0.0000000892554563 -0.0000002118942367 7.5657911680626286 5.3197113146725803 3.7352172733358384 0.0000312480364233 2.5694179035117028 0.9581631635735565 
11 1 -0.0000002093988803 -0.0000004249694264 0.0000001538063558 8.9324307666514482 1.8797633643901823 0.0967410951541163 0.0000331426758873 2.4309074556046784 0.8261647052103531 
18 1 -0.0000000376692795 -0.0000003467829337 0.0000002531057724 10.9678531588855250 1.0497321483033175 1.9394638086320919 0.0000303238959215 2.5703318682136818 0.9313323733288476 
204 2 0.0000001330558493 -0.0000002031095053 -0.0000000889394393 11.0830129791308707 4.8531769771640025 4.1236885697974905 0.0000347518789585 2.3943389313080163 0.7954370169072744 
32 1 0.0000000030231894 -0.0000003862190245 0.0000001228935090 10.3030556768298123 1.6264715027996288 3.4024533619958879 0.0000299919271367 2.6065228668636786 0.9614619544474946 
39 1 -0.0000001876038598 0.0000001373823088 -0.0000001260643253 8.0545500099143776 5.1350901421654944 2.6212808914013030 0.0000318274063159 2.5202074771889564 0.9074003695872610 
154 2 0.0000001144567007 -0.0000003728206337 -0.0000001816059121 10.9387540874162177 5.0231021283068875 5.7382329086631172 0.0000370167764293 2.3694279565871028 0.8017123242220756 
165 2 0.0000003773002654 0.0000002976236856 -0.0000001670664050 11.5673732158244853 5.9761407510459339 2.9845543977985112 0.0000303131828917 2.5216874564345533 0.8905466966279795 
176 2 0.0000000058470418 0.0000002179284592 0.0000001181687480 10.4917424506978598 4.2999883455474492 1.4862841979883570 0.0000331175134240 2.4980254685179464 0.8638438159241454 
178 2 0.0000004051010282 -0.0000000581790526 -0.0000001410114135 11.8428070854046883 5.7851999174294084 5.8356411038713292 0.0000353137838816 2.3813609524910682 0.8033549375752240 
186 2 -0.0000000510827807 -0.0000003857035046 -0.0000000939669351 9.9155999756025146 4.1132765871527761 4.2949056998561677 0.0000345735913241 2.4490039292887547 0.8609078440232785 
195 2 -0.0000000872715870 0.0000003585404785 0.0000000086673294 7.2280696352600522 5.9687515287567265 0.2318987605636768 0.0000292947298880 2.6162037200205104 0.9703983624336788 
21 1 0.0000000481990106 -0.0000002287174259 0.0000001863545733 12.3311023338188761 0.8353199375881875 3.7569659001123941 0.0000278364571525 2.6727801277340921 1.0028093356742516 
152 2 0.0000001723980825 0.0000006535561489 0.0000002502829004 12.0747173966048980 4.8789049487635756 0.0863196270947810 0.0000299797931518 2.6096942342885874 0.9707063066885879 
160 2 0.0000001547433727 0.0000000683947429 0.0000003748666054 13.0967885564214637 2.6316827281012958 1.7370006805606124 0.0000286154099595 2.6829817303364196 1.0155505689106310 
168 2 -0.0000000889800508 -0.0000000960091463 0.0000001513599973 16.2442950099966232 0.1373049875085107 4.1733775880272166 0.0000271327427925 2.6565456906162135 1.0195730546652453 
187 2 0.0000000304259395 0.0000000009378320 0.0000001061307720 15.3804967798588361 2.1074732043480018 4.5404137601624388 0.0000267736451032 2.7102648099993889 1.0321467818229040 
15 1 0.0000000501553347 0.0000000179320684 0.0000000657120513 1.1899517500734569 8.9136717343042378 1.8669896321750323 0.0000281851468324 2.6067089170402107 0.9093446825811653 
23 1 -0.0000000164436945 0.0000001619314390 -0.0000000625766943 5.9549792973375517 9.4739520149170566 2.9049867150352950 0.0000248193234886 2.8190827767677646 1.0773951234511938 
24 1 -0.0000000358577438 0.0000002124074737 0.0000000818187478 2.1648172809768851 6.1811449338309581 3.7407028696225213 0.0000321093530014 2.4238029461554254 0.7792414988479636 
40 1 0.0000001244282260 0.0000000356481344 0.0000002149564454 2.7899874665806514 10.9890329848063200 2.8605305637379166 0.0000265226946357 2.6775306932445555 0.9690203165834027 
41 1 0.0000000093477755 0.0000001796750912 0.0000000709257366 1.9801628939245834 6.8297037727866092 3.3501737349455873 0.0000309966168747 2.4441317763682391 0.7959927305394618 
44 1 -0.0000001453345276 0.0000001420621274 0.0000000776626630 0.0240746425809290 6.1226176698988377 3.5256901579438020 0.0000281365840259 2.5471257177345175 0.8827773594306904 
156 2 0.0000001395387279 -0.0000000097919310 -0.0000000511084275 2.6075074002245699 11.5456594281217821 0.1765374735581930 0.0000303461778741 2.5232170621099401 0.8402193897201183 
158 2 0.0000000075691745 0.0000001710499007 0.0000002422898522 1.7418412210866476 7.5596114260712515 4.2892668398802307 0.0000291755046020 2.4999353102946484 0.8217744644451439 
163 2 0.0000001067734829 -0.0000000097753315 0.0000002095829575 1.1924560420808772 11.9499964341880212 1.7964517099218968 0.0000301673068964 2.5432482060962101 0.8716433640811116 
185 2 0.0000000680485896 0.0000000851347362 -0.0000000787571413 2.8035770458998073 8.6861308758133724 0.5900440166381831 0.0000275477056201 2.6446341583397550 0.9528189196840834 
202 2 0.0000000374856144 0.0000001328845804 -0.0000000986333987 1.7646714360862186 7.5023760119674376 0.7042443610566008 0.0000280126993046 2.6249325840262441 0.9478671404424178 
1 1 -0.0000000036730024 0.0000004357611355 -0.0000001078575951 9.9481029200239846 7.3579839289371307 1.1649408938076171 0.0000274839931312 2.6549114419775193 0.9828705133099841 
3 1 -0.0000000686672799 0.0000003019048981 -0.0000002804341672 9.9849410099534772 10.0162938317751387 4.2896260984106478 0.0000283460197676 2.6318906182805768 0.9427252801266864 
5 1 -0.0000001688665818 0.0000002167793454 -0.0000001867199538 6.9695814514344736 9.7041356545136104 4.7666751995694270 0.0000265361940998 2.6825627631572919 1.0088857281731773 
20 1 -0.0000001716681413 0.0000004111455379 -0.0000002797964498 9.0211413106281366 7.7083585323886084 2.9968909703798761 0.0000298197275236 2.5277515597325690 0.8973721174340751 
37 1 0.0000000901302834 0.0000003070236402 -0.0000000372293186 11.3592895490602928 11.9723894684525813 4.9151136786548024 0.0000285613269779 2.5745678384476762 0.8921486734067958 
38 1 -0.0000000783605963 0.0000001916107492 -0.0000001947331321 8.8696740710113318 10.5508750515346037 2.5475340607762229 0.0000251717533410 2.7256009782410375 1.0060407111240928 
153 2 -0.0000001005674473 0.0000001067892632 -0.0000003550545600 10.2124195645936240 6.2957492854671209 4.8668228070329125 0.0000367245828683 2.3676644963866833 0.7812977616329388 
190 2 -0.0000000185359378 0.0000001387295589 -0.0000002760501211 10.6198824746983274 6.1583567117650944 4.2828816259771276 0.0000357505239540 2.3636843271169887 0.7627654917863534 
197 2 -0.0000001477654568 0.0000003715613606 -0.0000002786437129 9.0642646819968160 8.2330108441055394 2.9385765461205473 0.0000286056623608 2.5635898520000877 0.9252779469841844 
6 1 0.0000002112865384 -0.0000000060333574 0.0000003815474092 15.5527879206064146 11.0522629900870921 4.0409730321521407 0.0000278323417566 2.5655448834019703 0.8866705383355284 
7 1 0.0000001223488968 -0.0000000585637094 0.0000001926426497 15.5373113858064116 10.1559129627317706 3.0219705920357707 0.0000280385061795 2.5868229762440422 0.8965506381488940 
30 1 0.0000001013097627 0.0000000101190416 0.0000001578033835 16.8501154374031543 8.2333079564275735 3.5823928731082231 0.0000253211575451 2.7328446271985292 0.9997550861981994 
34 1 0.0000000791766227 0.0000002286259812 0.0000000107096756 13.8826411130542358 8.3225566481732347 0.2881167684633250 0.0000249998794969 2.7259915203786691 1.0219026614321538 
43 1 0.0000005520900136 0.0000001891385195 -0.0000001114649332 13.5184854625185036 6.4543786213411183 5.9239143680073232 0.0000287509279419 2.6027893658013381 0.9761900815015938 
171 2 0.0000001505140215 0.0000002375709624 0.0000001749960385 17.6130116859057537 6.7124195751681119 5.8247476637179991 0.0000262029073321 2.6530252750920114 0.9326214786204166 
173 2 0.0000000017525649 0.0000000588607464 -0.0000000043746339 14.1209676663430965 11.3484184480214711 2.4997976864170868 0.0000313062411081 2.4805889415139299 0.7942702182219433 
181 2 -0.0000000237188134 -0.0000000331107398 0.0000000690309103 16.7938684979617463 11.5794492971891110 1.0802045987657101 0.0000328094596978 2.4462424820608621 0.7895597550830282 
196 2 -0.0000001319888200 -0.0000000263336317 -0.0000001668199858 15.5817757246152464 11.5236294321384580 0.1245180583333705 0.0000329258096235 2.4077723982237047 0.7439611173452921 
13 1 0.0000000888980717 -0.0000001250291031 0.0000001414993766 2.4816167916201408 14.7638977993329217 3.6326341496008392 0.0000288815148626 2.5472478281229636 0.8914067439716855 
16 1 0.0000002515336315 0.0000000161581422 0.0000000310870794 4.3190602959161630 12.6320148321411132 1.0224278311276644 0.0000278519823860 2.5877170354777106 0.8878799774084811 
27 1 0.0000001966193815 -0.0000001590927981 0.0000000415335330 2.7839820796210422 15.4003213720043242 2.2142020238192393 0.0000292323899691 2.5813061823760739 0.9202176803240205 
159 2 0.0000001951112876 -0.0000000115354762 0.0000001454312578 2.8777531536814709 12.7490659197769087 2.0213886816204574 0.0000289651179143 2.5481946864999792 0.8825278730452299 
179 2 -0.0000001507579099 -0.0000001848004381 0.0000002425924640 0.0532778217110632 17.7167555016805380 2.8438161045128236 0.0000301664664291 2.5478508012103593 0.9154907985898715 
183 2 0.0000002717872090 -0.0000002394275448 -0.0000000710936518 4.0068920019921386 16.5888834683558315 2.1043430153883165 0.0000282305121848 2.6473801379642992 0.9572094269584102 
184 2 0.0000000711658407 0.0000000268347906 0.0000000064095247 5.4749971827629356 13.1457339747078610 4.0516040399201012 0.0000246707526953 2.7874133930226219 1.0199054191054990 
188 2 -0.0000000173048813 -0.0000001411901053 0.0000002070699731 1.5010762246582114 14.8923997562102670 3.9037254501953833 0.0000283698955149 2.5758241025971573 0.9146891985747750 
200 2 -0.0000000208770374 -0.0000001864772806 0.0000002347592396 2.3425944697994128 14.1328066290585497 5.2490595539074061 0.0000263544750091 2.6536312022748816 0.9587372139883609 
242 2 -0.0000001435078946 -0.0000002826870514 0.0000000631431265 1.4443595850921376 16.5320449486098369 5.9921870488737756 0.0000283073398472 2.6344235634506559 0.9413032538162071 
2 1 -0.0000001386926603 0.0000000459228995 -0.0000002173352105 10.6578957220508563 12.6324957721783200 0.2320429464010213 0.0000245495549978 2.7312824793247215 0.9966632872463270 
28 1 -0.0000002439291152 0.0000000186940654 -0.0000003001347941 11.1081979684877066 12.7871433791602165 1.3831254602863505 0.0000270874193620 2.5755728898516983 0.8843462058838713 
31 1 -0.0000001307586078 -0.0000003238562124 -0.0000000147133806 9.4620530103943672 17.0154559761614870 1.7625912716183256 0.0000264336001437 2.6910708324649129 0.9990377985453130 
35 1 -0.0000001472816999 0.0000000934275066 -0.0000000985166246 10.5565304911510243 13.3811365865901823 3.4461304631813707 0.0000278742287815 2.5439770907764965 0.8667557692786704 
151 2 0.0000001200770113 -0.0000002162971962 -0.0000000552058316 6.2342634619863446 17.9389470408501701 5.4940198057551006 0.0000299273463051 2.5441239760922714 0.9074979958717662 
155 2 -0.0000000216866516 -0.0000001768293768 0.0000000781554117 10.5070680326598058 17.1887914719180124 5.5714031602752092 0.0000273071622137 2.6580537379851359 0.9782844076804862 
157 2 -0.0000001706588374 0.0000000635010690 -0.0000001144464723 10.7310467374094074 13.4877339798706100 3.1024626662545205 0.0000282315065221 2.5206746839014817 0.8447319991113015 
164 2 -0.0000001882902884 -0.0000002717343940 -0.0000000159252102 10.4595068201753563 16.1627345216331761 1.5324067067601406 0.0000265584014940 2.6736131462373502 0.9837052566782321 
166 2 0.0000000834886630 -0.0000000728975883 -0.0000000656276096 6.5142048957849958 15.4332935610769191 3.7628753244467146 0.0000256704877419 2.7236290823795399 0.9994513992814928 
199 2 0.0000000301524968 -0.0000002025254705 0.0000000018318403 8.6262667798567154 17.4719536293716970 5.6140228824278449 0.0000281852342676 2.6024168206635125 0.9453932893598244 
201 2 0.0000000555395216 -0.0000000664869495 -0.0000000855170356 6.9951339710729634 14.7301917549604546 2.1263610155866641 0.0000241423628223 2.7861245991318957 1.0342127802356029 
8 1 -0.0000000586765806 -0.0000001360326907 0.0000002815929948 15.9491235025967661 16.5652878119710358 1.9581030049893882 0.0000277713102890 2.6752609125588136 1.0286908229116589 
17 1 -0.0000000611157710 0.0000000857746289 -0.0000000216453327 12.3892797733694398 12.9299689771352586 3.2355795194607686 0.0000316581418157 2.4185614409297567 0.7490036695653959 
19 1 -0.0000001769327016 -0.0000000008112799 -0.0000000617536488 13.2447353125881246 13.2616654025162521 1.9582992078306034 0.0000309017909034 2.4954442476790675 0.8125673638623498 
33 1 0.0000000679472006 0.0000001950790858 0.0000000079447535 12.5110856512861570 12.1270829510185454 3.8811539635276491 0.0000310622938552 2.4470244174743323 0.7787204618400632 
36 1 -0.0000000051698804 -0.0000000097982742 0.0000002268179534 13.8753836916281461 14.6061096363011043 3.7421529342434234 0.0000278463713412 2.6377313421553907 0.9323762436105723 
42 1 -0.0000000005987860 -0.0000001239157469 0.0000003665949116 16.6614273508744510 13.6402917032225837 4.7758593798314859 0.0000255264102411 2.7042038685418364 1.0053097538241149 
161 2 -0.0000000756079858 -0.0000003455934624 0.0000003019402041 14.3527581881799140 17.0993062005873178 0.5011334589941887 0.0000292345107056 2.6180620273375306 0.9827395688184463 
162 2 -0.0000001716771893 -0.0000002636946732 0.0000000901994212 12.4751142189077822 15.9349859464998804 1.1935854935180326 0.0000278072106945 2.6599627724586483 0.9614095444254420 
174 2 -0.0000001055621564 -0.0000001079877997 0.0000002351431449 16.6599513026503345 17.5651278114840288 3.2515365409061130 0.0000277249584233 2.6175889680966078 1.0045981534195829 
180 2 -0.0000000060838525 -0.0000000206326196 0.0000000277610258 17.3097708241540609 12.3892463600145035 0.6300879065677518 0.0000323678456792 2.4707639930897818 0.8242651075772292 
191 2 0.0000000282572259 -0.0000001209276692 0.0000004221143143 17.0153345195636057 13.0769441525715902 4.8393662097542958 0.0000251804860059 2.7085232856283978 0.9989071817326294 
192 2 0.0000001954947143 0.0000000851526043 0.0000003147895696 14.3233730420960583 12.0611593467252121 4.3321549925831437 0.0000297149205612 2.4909581953263875 0.8118056782516294 
56 1 -0.0000002252443355 0.0000002871246596 0.0000000428068811 2.8365483205117723 5.4049256430973669 6.5530673788219973 0.0000291935509301 2.5622239595707925 0.9219791111765655 
68 1 -0.0000001494249562 -0.0000002488147302 -0.0000000245816394 5.3618087858739756 3.0498450233415286 9.7594153555657268 0.0000307377511276 2.5751092964676578 0.9648889109715291 
75 1 -0.0000003236612797 0.0000002637187382 -0.0000000667729238 4.3532781953766548 5.9792394324561053 6.3727784122355917 0.0000295034958687 2.5899946536460341 0.9618261120367320 
84 1 -0.0000001054536550 -0.0000002441909726 -0.0000001002318683 0.5128450513444529 0.1967610588267971 8.2164267708105836 0.0000288513752047 2.6611053325124807 0.9818708445124334 
89 1 -0.0000000827246456 0.0000007164613254 -0.0000001107330865 1.2635095264610983 5.2582543778705588 11.0250196545773544 0.0000265461681872 2.7062868278348935 1.0368998924505393 
218 2 0.0000000209043567 -0.0000002053491595 -0.0000000597884095 5.6113850702800994 1.7879410885533444 6.5394516687471560 0.0000304581929224 2.5937586267976256 0.9694047906205617 
222 2 0.0000001012276935 0.0000004874544597 -0.0000001471448948 1.5058743387581435 3.3457510890522610 11.6861390523729973 0.0000325199242002 2.4647857807933473 0.8715612240960853 
226 2 -0.0000000234254583 0.0000002500372491 -0.0000000181074192 0.9322452778829717 3.6667508532165058 6.3653149467331431 0.0000294814951272 2.5694798817222293 0.9423377002290541 
228 2 0.0000001498304698 -0.0000001138493324 -0.0000000417974479 2.4300909128028052 1.5418967941860866 11.6930296349971208 0.0000337554847926 2.4327644191778677 0.8278328631284977 
253 2 -0.0000004418340449 0.0000003753479813 -0.0000000393135753 3.8182695651888667 5.6171123189607624 9.0662423101095353 0.0000279756987935 2.6929981480921050 1.0217481846445411 
53 1 -0.0000003980108321 -0.0000001268776668 -0.0000002562441513 6.4569824379398639 4.8864595675748843 7.3658827913389322 0.0000337034762222 2.4581382301188501 0.9116674027679426 
58 1 -0.0000002920373887 -0.0000002259017942 -0.0000002659558903 6.8781221433098523 4.5677770252107601 6.8586097893433458 0.0000334413194572 2.4796207474907233 0.9346624102960027 
61 1 0.0000000480163514 -0.0000003681670121 0.0000000012122545 8.7012035502204501 0.3869653281742338 6.8682338501172069 0.0000296636758761 2.5633150459989484 0.9250059088656801 
64 1 -0.0000000037349860 -0.0000005969211426 -0.0000000526773698 10.2169128074708127 1.5581082130866497 7.0792788035301202 0.0000308702313938 2.5788788881853457 0.9602485326009066 
72 1 -0.0000000854537594 -0.0000008203561799 -0.0000002520076539 11.0711503449303841 2.5573515117145349 9.9141436785691024 0.0000326557910789 2.5877872382703289 1.0082503283682214 
78 1 -0.0000003453685726 -0.0000001948179647 -0.0000004445533691 8.2725734985039487 5.9007878189060916 7.4307856495287457 0.0000380010341643 2.4160152724397994 0.8661850390365332 
79 1 -0.0000000320027519 -0.0000005130984220 0.0000000232388835 6.3887980577746619 2.1963742518996039 10.4300370326295759 0.0000299365495356 2.5973687815094877 0.9859108792752841 
85 1 -0.0000000779366547 -0.0000002642937790 0.0000002048737115 9.0213242565640197 5.3038629590825730 11.3600579678764184 0.0000394452702326 2.3634516914175423 0.8374924322554829 
90 1 -0.0000006631659654 -0.0000001625123894 -0.0000000777438387 6.8672448749432133 5.6771215832516031 9.7775877710424162 0.0000374416211242 2.3933164561444435 0.8307971820340985 
95 1 -0.0000000443528459 -0.0000004636226703 -0.0000001391567196 7.5730926785804531 2.9391603137950013 6.5517849343882775 0.0000320251615556 2.5577572598379579 0.9702268067020923 
207 2 -0.0000001392836362 -0.0000004174894102 0.0000001391730629 8.8767946976811718 4.8041525565076029 11.4905834311317765 0.0000383650280927 2.3854743402146101 0.8519071041992159 
210 2 0.0000000407282464 -0.0000005544322054 0.0000000336091291 7.0994036469939834 1.2937963100407877 10.2030346319393814 0.0000284978367136 2.6551920384602883 1.0101558367540739 
216 2 -0.0000004131585008 -0.0000003094237705 -0.0000001698552180 6.4994755680406309 4.5657350695699925 8.5690785954378619 0.0000347469455506 2.4350321823048469 0.8764480521350372 
223 2 -0.0000000560563171 -0.0000007618278840 -0.0000001032241409 9.6686887736747540 1.5817309293310311 9.1912624681702102 0.0000301708120423 2.6260332434833771 1.0082079115800175 
50 1 0.0000000638054356 -0.0000002856058964 -0.0000000880892503 13.6420570734945059 1.8317287220544058 6.3934158002123214 0.0000300604181831 2.5468098026229939 0.9192944626188541 
52 1 -0.0000000635146846 -0.0000004423956785 -0.0000002933172681 16.1093027433131439 1.1572206775044105 9.6407380682651116 0.0000330006551197 2.4505204012969215 0.8635869217084452 
54 1 -0.0000000404195844 -0.0000003404178631 -0.0000003070426476 15.3944977154608988 1.6297836096803819 9.1215462778476208 0.0000335203093728 2.4254647419410493 0.8416732428016342 
70 1 0.0000002037145202 0.0000002532637865 -0.0000002581014374 13.7396001190544670 4.1055157107304270 11.8225145813345609 0.0000384525853570 2.3755485960970901 0.8390846441016925 
74 1 0.0000000002818102 -0.0000006980582716 -0.0000003559406745 16.3915621645494731 0.9715794363805084 11.5794469052362423 0.0000342427825925 2.4911025944151763 0.9014403874484526 
77 1 0.0000003994033657 0.0000005624486869 -0.0000002327768186 14.4833614395622021 5.0746080926878143 11.0081608737285812 0.0000350594428036 2.4456041402105204 0.8693731882586132 
92 1 0.0000000800566926 0.0000001925343129 -0.0000000826096424 16.5990992690891481 3.3042676662979882 6.4474974746673768 0.0000286628544311 2.6180404844503729 0.9641206051680008 
96 1 0.0000005005957246 -0.0000000254393427 -0.0000001348946830 12.8332698299898098 5.3805342716343834 7.5306815721628695 0.0000337400330601 2.4747075810985417 0.9031559929994992 
211 2 -0.0000000061914833 -0.0000004733117753 -0.0000001658110805 13.0782625419912328 1.9589349348501586 7.6187168101902127 0.0000320101680017 2.4984142786030183 0.8994548937962334 
230 2 0.0000005102092747 0.0000001538998048 -0.0000001678176576 13.6162122212053571 5.2926373864196323 8.3654023118726979 0.0000327150593284 2.5351450041598409 0.9364360309424589 
237 2 0.0000001336238411 -0.0000000979135938 -0.0000004425598440 14.9988769720630923 2.8928480107803893 11.0307584494669779 0.0000371053478698 2.4011116817924294 0.8446104366573236 
238 2 -0.0000000132459328 -0.0000001831204010 -0.0000002165544328 15.4415792319989418 1.6761198691132451 7.8691017171359556 0.0000315129450727 2.4823125373645589 0.8667866257789791 
243 2 0.0000001278043387 -0.0000004883697532 -0.0000001366504836 12.2762893831247748 3.0498313555543288 6.9826126760367471 0.0000329385502125 2.5068917451261834 0.9136132735321143 
245 2 0.0000000508821095 -0.0000002334147711 -0.0000003977445831 14.9783078389054634 2.4225684941711294 9.7888132310131528 0.0000351528155464 2.4201884575130168 0.8524432725232054 
254 2 0.0000003384381353 0.0000009180049649 -0.0000002383356123 16.9786726878988823 4.8574129095196978 11.7637924153767681 0.0000308574470240 2.5719808017531944 0.9395475447766254 
256 2 0.0000002387592702 0.0000006217582938 -0.0000002788389886 17.8381059847792827 3.5991559013721530 11.2144302183029012 0.0000324402467114 2.5116487786693686 0.9059608215820003 
47 1 -0.0000002455262055 0.0000000875063053 -0.0000000524697499 5.2550226735519550 11.7453058843632192 11.8383875594319488 0.0000260033896100 2.6527570758496730 0.9325278164141586 
63 1 -0.0000001361263130 0.0000001017622023 0.0000002903767223 1.9673594305558553 9.4153392123753417 7.0935911321124205 0.0000231872813218 2.7840570552008925 0.9858660171076813 
65 1 -0.0000002659464197 0.0000000993535851 0.0000000838877786 4.4006401259670955 10.2735363219362696 7.3884509182543070 0.0000257052108225 2.6413821767262351 0.9411719269770995 
88 1 -0.0000003420230348 0.0000000299452993 -0.0000000224282354 4.7081774642819703 11.2927825042197565 9.6616316746942452 0.0000258009998520 2.6286341474826931 0.9206369099139222 
205 2 0.0000000613469138 0.0000003179191834 0.0000001410048781 0.0858490619751212 8.1007253284161109 8.4863969056524766 0.0000223366046906 2.8234995154701723 1.0436001926694323 
208 2 -0.0000004030377007 0.0000001866411079 0.0000000403334686 4.6547874956165494 9.8411232345350719 8.0292785855629365 0.0000267770955371 2.6036433885122836 0.9169408438991945 
244 2 -0.0000003452427995 -0.0000000282244566 -0.0000000644725207 2.7830976073285094 10.7760604671509377 10.6336893701976116 0.0000220281103615 2.8171459712415632 1.0438201687553961 
251 2 -0.0000003763612620 0.0000003388602588 0.0000000857461254 3.7910781901541255 7.8175955621467539 7.1558962685941720 0.0000270622392917 2.6441194863829574 0.9441323841615187 
252 2 -0.0000001605241402 -0.0000001116595821 0.0000000926846182 1.7416220457806191 11.4111733335316305 9.3333047965278961 0.0000212152807544 2.8309240800731659 1.0340780581745530 
49 1 -0.0000004217632783 0.0000004543976244 -0.0000000479051737 7.0266861020089575 10.2501509556885892 8.7385538648865175 0.0000303278273967 2.5491023825359109 0.8926561761024548 
59 1 0.0000005251189497 0.0000004034327246 -0.0000000276262669 10.6029796104224303 7.8130815547486794 8.9361619214590178 0.0000383003927318 2.3717489823686257 0.8254343204425418 
60 1 -0.0000002051209219 0.0000005266301475 -0.0000003068383193 8.6291681759976129 9.6651362054671157 7.2675939869967250 0.0000325167334516 2.4913834333955025 0.8822588444638645 
66 1 -0.0000005072547816 0.0000004095709745 -0.0000003761173355 7.2087911931035524 8.5525134172934081 6.7725334934863826 0.0000320353986038 2.5439887767073310 0.9062728138384341 
73 1 0.0000001912900768 0.0000006212411120 -0.0000001125130743 9.7479444292972026 8.5583901347113986 8.7451854270052856 0.0000382062155237 2.3562031132751837 0.7984826578476694 
80 1 -0.0000005645644070 0.0000004325818468 0.0000000573764506 6.1620599532339524 9.5232609930697851 11.1088027903349840 0.0000292360718799 2.6237036948564825 0.9405699885565219 
87 1 -0.0000001955298794 0.0000005778583076 0.0000002056476212 8.6987242511531324 7.9970530703187039 10.1605321737681979 0.0000400093340957 2.3315714271090271 0.7759816143322905 
93 1 -0.0000001070570428 -0.0000001918597948 -0.0000000547363827 8.9071736307828644 6.2094369188489962 9.7233629854428880 0.0000420494340049 2.3018377385100539 0.7863148143329570 
94 1 -0.0000004318513723 0.0000000862152549 -0.0000002238019959 8.1826370524774852 6.8006366379765000 9.1128157171152164 0.0000414360092846 2.3104795633441224 0.7752622646280992 
214 2 0.0000003688462822 0.0000007173217713 0.0000002840321486 10.5290995591263332 10.5935885016036497 10.3062330857220346 0.0000293365820194 2.5944598740391660 0.9283262447549173 
220 2 0.0000001383212281 0.0000000783373995 0.0000001051156208 9.4766773377567368 6.7270584133499742 10.0541767830883977 0.0000416928166433 2.3091154281115589 0.7918340120613018 
229 2 0.0000004529980990 0.0000007885555109 0.0000002039220238 10.1912582613949443 9.0113703275568380 9.6668137829516976 0.0000358557984289 2.4038070489380070 0.8285277980387737 
232 2 0.0000004148735446 0.0000001100648597 -0.0000002057260866 11.4365246061276764 6.6858870327505802 6.7542040625732174 0.0000361447641574 2.4090586692934450 0.8413400133725351 
235 2 -0.0000005028178559 0.0000004432733437 0.0000004052045535 7.4082928402970190 7.3184613991997258 11.8417637104392703 0.0000361376084459 2.4324863332829554 0.8460962266045189 
239 2 0.0000000282312888 0.0000004481447318 0.0000001861795801 7.7669176210456312 11.4646520019731497 11.6407993639143275 0.0000266796487715 2.7052788646887920 0.9686312347244656 
247 2 -0.0000001305256711 0.0000002090049580 -0.0000001211294175 7.6405268736922221 11.3416175187421349 6.1410051793040719 0.0000264098804464 2.6850590809084629 0.9984728958821071 
248 2 -0.0000006308544628 0.0000000972411034 0.0000002266936209 6.3201055083703164 6.0159376889458915 11.8811073183984366 0.0000341452057045 2.4825077514969078 0.8857141060215583 
250 2 -0.0000000142453071 0.0000005269377789 -0.0000000243966067 8.9590427667696986 11.1061851871811150 7.8876457830376268 0.0000288275964756 2.6054574527789605 0.9564393963081594 
48 1 0.0000001010738806 0.0000000311383996 -0.0000000869373420 16.5833663283024961 11.2862560682265549 11.2041014867983844 0.0000203396556204 2.9450518816288960 1.0834841251634306 
57 1 0.0000004145628276 0.0000003396855575 0.0000000914203812 15.4643281736327083 7.5793789058926286 7.9893200845992300 0.0000253451602706 2.7269765820171648 1.0123590767660300 
62 1 0.0000004145683220 0.0000001626506204 0.0000003030437218 14.4265695692045686 11.0945746987159790 6.1885687758499994 0.0000254337487177 2.6927407311469316 0.9673035680639130 
69 1 0.0000005765960315 0.0000006217271408 0.0000000523198168 13.6075043265522435 7.5274046718225671 11.0816626285444926 0.0000306859276558 2.5313886347111607 0.9176907986456099 
76 1 0.0000006828620596 0.0000004488310655 -0.0000000388789893 12.3293110508128390 8.5439352731224840 7.4521769837879992 0.0000306229985020 2.5999093529520314 0.9516038141738219 
83 1 0.0000003000281582 0.0000003887589423 0.0000001022220367 12.3573256100554669 11.0967788048417475 11.7357425332727541 0.0000249447569602 2.7257479663529374 0.9900972675085283 
206 2 0.0000006189001247 0.0000005415601465 0.0000001382307393 12.6886671522837382 7.4222985466699445 10.8038824797070294 0.0000327317248473 2.5232336348323088 0.9193488657346898 
231 2 0.0000002516413263 0.0000002886419001 0.0000001388664500 16.4886400574919172 8.6775962885830094 8.9905009761535624 0.0000223288258381 2.7988342753132720 1.0375800535048694 
240 2 0.0000004737187176 0.0000006809889459 -0.0000000951183687 15.6765827382357177 7.4074034105895690 10.9052572064149018 0.0000262304547169 2.6473707477261179 0.9617389383346706 
46 1 0.0000000346863225 -0.0000001019030417 -0.0000000199820526 4.8972403008599361 14.0048551055028074 11.9618797004754835 0.0000260914405664 2.6431274711618995 0.9200043150837309 
51 1 0.0000000599594065 -0.0000003194447203 -0.0000000733455778 2.4358902976494319 17.9504607255940023 10.5751016592954716 0.0000318993868388 2.4812851381324061 0.8562139345218095 
67 1 0.0000000521092635 -0.0000002738529589 0.0000000093992981 4.0719107169858839 16.0203231785370193 9.7859617899758398 0.0000287822459059 2.5535751328258769 0.8754970091844196 
71 1 0.0000000613466771 -0.0000003972600263 -0.0000000265635753 3.1423638092970223 16.4231499706705115 11.3119633667073245 0.0000300134809592 2.4942349301927251 0.8436086517926337 
81 1 0.0000000440747665 -0.0000004884905734 -0.0000001312046908 1.4590553986419827 17.8626864705639079 11.2761924912530436 0.0000328077447791 2.4639791469562287 0.8434908498149315 
212 2 -0.0000000045504498 -0.0000002509933920 0.0000000234902005 3.4724961853621368 16.0027198244154754 6.8914472299275067 0.0000291185101045 2.5712790779818957 0.8884338318497065 
219 2 0.0000000962016346 -0.0000002045063539 -0.0000000011099050 4.2764347244020344 17.5915552198893721 9.0786867953961590 0.0000299176053695 2.5626744332981781 0.9071327491823354 
224 2 -0.0000002083336207 -0.0000005575666249 -0.0000000155753668 0.1712630338815060 16.0329185133747245 9.1321270143316706 0.0000259156993940 2.7261802206601056 0.9967179011145906 
225 2 -0.0000001740769566 -0.0000002972109402 0.0000000961821342 2.6134615404205492 13.5935991424825371 8.3140908340975912 0.0000242913877601 2.7322990567033330 0.9649147672469812 
233 2 0.0000000851343570 -0.0000001646343380 0.0000000038217800 4.8344835182095878 16.3159685763218860 7.2728043847253607 0.0000296582578616 2.5337828731514946 0.8675867418184039 
241 2 0.0000000560928081 -0.0000003560890168 -0.0000000422254310 3.4256719214250388 15.7596951956633333 11.7522191109704384 0.0000286529703451 2.5313637016864772 0.8642665361681351 
249 2 -0.0000001410175107 -0.0000001211650298 0.0000000528451519 4.1414438415069252 12.9640460647889206 8.1871616952603077 0.0000250706582733 2.6964824592388759 0.9478591648607536 
45 1 -0.0000000353328742 -0.0000001528093395 0.0000000620769812 10.8101696914412191 15.6514486587565500 9.9554354202585884 0.0000251734414542 2.6433870086821178 0.9661591445388638 
55 1 0.0000001315257571 -0.0000001520068188 0.0000000132124442 6.0427646494745719 17.0564085329788142 7.4138110741184349 0.0000298612624077 2.5217794999853647 0.8636058693161031 
82 1 0.0000000491436426 0.0000000997404246 0.0000001158249568 8.9268295690406116 15.3343120425246777 7.8215579326870843 0.0000254976693649 2.7036731809613461 0.9912816602850015 
86 1 -0.0000000480420190 -0.0000002545597777 0.0000000439026370 10.3689653646001982 16.2204441413645135 10.0197825294859566 0.0000251660414088 2.6766312903649396 0.9973200134196639 
91 1 0.0000001888195140 0.0000003296855849 0.0000001708095174 11.5125550163880845 13.0846662009886057 8.5206726040450711 0.0000260912672969 2.6528639804313983 0.9371920424565383 
213 2 0.0000001454315478 -0.0000001163151184 0.0000001224458355 7.2038509183383965 16.3862737878871414 8.9866715220832543 0.0000262703071410 2.6790056865012088 0.9700037303190499 
255 2 0.0000000391372867 0.0000000673311162 0.0000000297051897 7.4588793223230372 15.1728524272370642 6.6192548265575386 0.0000259399191745 2.6884899611115829 0.9754091421586640 
209 2 -0.0000002113232919 -0.0000007021188304 -0.0000001045141666 15.9756055198368010 17.2632603832378528 9.4586486208854179 0.0000280961283892 2.6172687417113232 0.9575098938163642 
215 2 -0.0000000836459667 -0.0000002938897302 0.0000000407570917 12.3421738184695151 15.7580885393356365 9.2905105638133172 0.0000260700004511 2.6279821248302841 0.9372964102033717 
217 2 0.0000003565065266 0.0000001978812990 0.0000002146623277 13.3277092974028744 12.3024664580000866 8.2254995167663711 0.0000254578128479 2.6317958038731062 0.9328473057834262 
221 2 -0.0000000145011884 -0.0000003307694217 0.0000001411764501 15.9162218005446583 14.3510403340565702 8.7507263212537989 0.0000228201155848 2.8278146889816203 1.0315882782576615 
227 2 -0.0000001497118350 -0.0000005218003568 -0.0000000466174589 13.8360123215403501 17.9207105822890895 7.9319639593852127 0.0000286154845250 2.6021832839372419 0.9419030868744075 
234 2 -0.0000000457476984 -0.0000003683638363 -0.0000000901182613 15.8032688764815017 14.3745401640446744 11.0329013892104477 0.0000232346344435 2.7986406832446327 1.0276739481035946 
236 2 -0.0000001073257096 -0.0000003851183884 -0.0000000498979785 12.6678021114874664 15.6173015982213066 10.5365045774282926 0.0000254329126382 2.6682515008534997 0.9582575974248372 
257 2 0.0000003220084404 0.0000001652410371 0.0000002343929690 13.3949237051089973 12.4873627400995684 7.7895589158264853 0.0000255152511310 2.6356373383183236 0.9312480240634868 
246 2 0.0000002290955799 0.0000001175520203 0.0000001189051425 13.1203088703849531 13.0497458533097550 9.6877336311830646 0.0000249314094614 2.6373653567173401 0.9036321829020659 
189 2 -0.0000000411261491 -0.0000001770001322 0.0000001263862741 12.4535965730520850 16.7375627070080633 6.0036946601808916 0.0000263575360558 2.7335540126722351 1.0030882235927863 
102 1 0.0000002321730704 -0.0000001748523285 -0.0000001358924855 1.0446516493379623 1.4808355216948721 12.1976206243317176 0.0000359646108510 2.3973950211142228 0.8122944033796206 
103 1 0.0000003482812114 -0.0000001585234914 -0.0000001142003772 0.7292801086693760 1.6158441889597825 13.5242313071297282 0.0000363542339786 2.4165530449299526 0.8364796883386384 
112 1 0.0000000246770191 0.0000001494935022 0.0000000026584499 2.8484940163031380 2.9582648278483314 12.1710697013933320 0.0000324585902131 2.4660579759717156 0.8629320804686967 
113 1 -0.0000000125839261 0.0000002405963510 -0.0000000249826682 4.4070965647843554 5.2780183455025593 16.4923996301991558 0.0000297326215150 2.6056408714053738 0.9508151274024289 
127 1 -0.0000001454226284 -0.0000000504247393 0.0000000651743773 4.3173012802917174 3.4328981439746551 12.1462584874004982 0.0000306302224847 2.5708605317277051 0.9453863492817824 
132 1 0.0000001912846257 0.0000001775165015 0.0000002466755091 0.4102871967066947 2.3953506945126071 17.4364922686322323 0.0000346114839664 2.3959694944393730 0.8187272234573154 
133 1 0.0000001950001475 0.0000002641728957 -0.0000000170850387 2.1490982593811250 3.1682544144261886 17.6284471868595105 0.0000338041274328 2.4300122241061466 0.8270700963972792 
144 1 0.0000002362448236 -0.0000002126587434 0.0000001708180264 0.5193194426013654 1.4324871838544357 16.8955590726047085 0.0000350753760576 2.3945151736516257 0.8278177711711057 
147 1 -0.0000002263469530 0.0000005089111415 -0.0000000658167374 3.0470019287603098 5.8257742595868907 13.5071121832713903 0.0000276267254704 2.6260345124086797 0.9718754364686313 
259 2 0.0000001165887760 -0.0000003778752994 0.0000000319391968 4.9544787833923110 0.8118314026797877 14.1494193576341942 0.0000265591797938 2.7779080594959504 1.0662052134190250 
266 2 0.0000001558465828 -0.0000000222092796 0.0000002507857567 0.6620575141692064 1.9376785377736563 17.7655126836841752 0.0000347850869971 2.3885496818822651 0.8088183466713693 
273 2 -0.0000003471774404 0.0000002584898014 0.0000000983107544 4.7669949708308748 5.8741557842023857 13.4141318556909326 0.0000299186833009 2.5693848405005757 0.9396137073663490 
279 2 0.0000002611857372 0.0000002466409192 -0.0000000330027264 2.2380658113414396 2.9901264776688636 14.5376384974727344 0.0000332252822718 2.4898971315341845 0.8716060089269756 
283 2 0.0000003743916446 0.0000001781251791 0.0000000816222774 0.1308918835484837 2.3149948662704736 15.9103965721979304 0.0000359181789144 2.4032573566021735 0.8338913177442171 
293 2 0.0000003714410034 0.0000001608900277 -0.0000000407132477 1.1534910093066251 2.3678519478231306 15.0176690418592020 0.0000354718995395 2.4210745237403266 0.8407608546374270 
100 1 -0.0000001091020392 0.0000001612329571 0.0000001202262742 11.4649599772417776 3.9429963648154636 13.3359743557254120 0.0000379284252347 2.4132403491627317 0.8827283936981417 
108 1 -0.0000003100444121 -0.0000004334494515 0.0000001040784039 8.4501496444138571 3.4502267222813172 13.4348620797556446 0.0000337618995083 2.4885305131955389 0.9171905882880433 
117 1 -0.0000001931343679 -0.0000003276124439 -0.0000000870386765 11.2974975437330958 3.2633739458109092 12.8231432521876716 0.0000372397909202 2.4069802588594413 0.8854243551835879 
122 1 -0.0000001105938371 -0.0000000427187460 0.0000000718787051 6.1540559619635244 3.9117271784957479 15.4685035947470055 0.0000303124938744 2.6178536621005235 0.9719111839833038 
137 1 -0.0000002125585233 0.0000002510442457 0.0000004226413364 8.1789339007069017 5.8087531976245819 13.7076678727742003 0.0000354396556237 2.4379593788049556 0.8695969013223954 
139 1 -0.0000002978763598 -0.0000000962009819 0.0000002678206874 10.6002821716665405 2.2243165645637868 16.5884660927110623 0.0000379577426056 2.3660926609211308 0.7824091483837080 
148 1 -0.0000004643585505 -0.0000010256678651 -0.0000001326136812 10.5103589099562722 0.7073515595681250 15.7740672872978749 0.0000329460569166 2.4859564548587172 0.8585605560747442 
276 2 -0.0000003526989390 -0.0000006025275122 -0.0000000542984929 8.2401670417724997 2.0599787270118890 15.3855252929876443 0.0000307757341881 2.5343189206544388 0.9207297192852217 
277 2 -0.0000003138028552 -0.0000004646714365 0.0000000697205258 8.8232633771464002 1.9234813498138459 17.0359037235505895 0.0000336284579484 2.4049972075797870 0.8089890588790822 
281 2 -0.0000003016897940 -0.0000010135495140 -0.0000002675728787 10.6327995020863337 1.9022236387011666 12.2161887003295178 0.0000320520077926 2.5499003075855553 0.9797242942925359 
282 2 -0.0000002445994412 0.0000000893076800 0.0000003402099780 10.7566456370836310 2.5637818926353328 17.0451299237244847 0.0000378019039916 2.3749029252478340 0.7904245224220259 
284 2 -0.0000000643060135 0.0000005034797241 0.0000001178327433 9.0572398259693063 5.1989343884708212 17.8133255430889541 0.0000319453973206 2.5398414291105769 0.9099639673130686 
291 2 -0.0000002601852179 -0.0000003946404742 0.0000000854524624 9.3768515517548288 3.4841912786239875 13.1476430827800854 0.0000353339745690 2.4420560909127680 0.9013974651754804 
294 2 -0.0000001891066701 0.0000000724007132 0.0000001088789659 8.0851562562330823 3.3992303692105215 16.9213856626183095 0.0000333920524461 2.4540778349274568 0.8574707521140851 
26 1 -0.0000001849832095 -0.0000002482941858 0.0000001448760385 8.8068560670905018 2.3302805277796907 17.9844296322309773 0.0000339494258416 2.4110380402851170 0.8139591985364369 
104 1 0.0000001293665402 0.0000006002808595 0.0000002555323346 13.7457230863663487 5.7322971144495716 17.1070167876615962 0.0000273462900128 2.6958021086678841 1.0452173346413851 
105 1 0.0000001082448123 -0.0000008911356116 -0.0000000662514221 16.2035410966740585 0.1245865893174781 15.0945271090194257 0.0000340641172253 2.5095529206394067 0.9116195514849431 
110 1 0.0000000827995280 0.0000011049564268 0.0000003244574723 13.8213899361360593 4.0946584544435112 15.1180524449372253 0.0000377398570546 2.3734012353607490 0.8132289856909147 
111 1 0.0000002125629267 -0.0000004539539456 -0.0000003105673389 15.8009928774545596 1.7391956256615524 13.4242073158329340 0.0000376296086701 2.4325488204555823 0.8703475782778530 
120 1 -0.0000002796346497 -0.0000006640185375 -0.0000003796349204 12.7692394265715947 2.3653710390287306 12.9708852160450832 0.0000381371505860 2.3973782485169592 0.8542994524451493 
125 1 0.0000001445423450 0.0000005846090334 -0.0000000165542390 17.5498885762059622 5.6431801420547396 16.1468805103797770 0.0000271811290661 2.7539003269077460 1.0425512089618039 
129 1 -0.0000002281472642 -0.0000005860247537 0.0000002976866717 13.3380927108437142 1.3521366829772659 16.2238589354625802 0.0000396879428979 2.3098567241760350 0.7420802736364293 
149 1 0.0000000205368929 -0.0000001369138081 0.0000000041314686 14.3186984129499635 2.2417554683848175 14.9872839632639323 0.0000420348375921 2.2764132271930571 0.7306033833938712 
262 2 -0.0000001167924943 -0.0000004392326994 0.0000005023412745 13.6355154528098161 1.4074419567914824 16.7395959309978757 0.0000381555646335 2.3357086930206536 0.7677542339531460 
263 2 -0.0000000987007481 -0.0000004773706558 0.0000005821360654 13.4400924489124254 1.0415013825829069 17.3341025450286637 0.0000354202861364 2.4070398465354197 0.8228053254324952 
265 2 0.0000002119478708 0.0000005768531520 -0.0000001638720796 13.9880464053407199 4.3461093598041272 12.6070293463223617 0.0000389329455075 2.3562548950759634 0.8113424110293439 
268 2 -0.0000000255486389 0.0000006737150006 0.0000002620327499 13.8170880780138425 3.2754588258588599 15.4250366644065888 0.0000403937459770 2.3079850762010001 0.7523627134909839 
286 2 -0.0000000357210957 -0.0000003290913968 0.0000000192278017 14.1802908443818048 1.9722398500712541 15.0638445671582240 0.0000418810372042 2.2773989242443555 0.7299752159387572 
288 2 0.0000002757484464 0.0000010499027633 0.0000000692833135 14.6096008549993197 4.5195646562706120 13.9533250122825869 0.0000369222022479 2.4028509907824147 0.8355476976431844 
290 2 0.0000001412119287 -0.0000002718140532 0.0000003372227739 14.9592448291731426 1.7043076375787485 16.1381976120058397 0.0000383521034958 2.3438343240251172 0.7843228894745882 
106 1 -0.0000000845218581 -0.0000000743587380 -0.0000004050303355 1.6613276267403883 11.0115580780600624 16.1576430478833757 0.0000271834077252 2.6660514936041233 0.9255766491592090 
138 1 -0.0000001013096116 0.0000001219353955 -0.0000000471934269 4.9322647388626679 10.3486379010022116 15.6676786474086427 0.0000278022598857 2.5874000191834261 0.8861859606067526 
146 1 -0.0000002035330211 0.0000003168304280 -0.0000002022448633 2.8039220807684124 7.3793082725949395 14.5868785589915184 0.0000253442086184 2.7038641235793461 1.0297179301471950 
264 2 -0.0000000735668070 0.0000001978873838 -0.0000000592694500 4.0965525268290577 7.2136238391258587 16.3660097482616926 0.0000278411323055 2.6294869869734350 0.9603823303800183 
298 2 -0.0000000684450208 0.0000000893537433 -0.0000000791153364 4.4207208024684377 10.0636426401338372 16.2548917097653920 0.0000275762567716 2.6057450874387378 0.9083701948312733 
299 2 0.0000000303630280 0.0000004474751892 -0.0000001513376046 1.7193375490650684 6.1783991368691833 15.6419436147112911 0.0000271903787138 2.6608996805675433 0.9883911910120250 
116 1 0.0000001067298521 0.0000003321491281 0.0000001275420036 8.5390806304136149 10.9543733359451192 14.9885243490186415 0.0000252796588069 2.6901436720722813 0.9689938403737313 
123 1 -0.0000000841993344 0.0000003353643889 0.0000001490950030 6.8177218694389934 10.6641012827936983 13.6621337880795881 0.0000278990080977 2.6118368319595007 0.9011440757568142 
126 1 -0.0000002778344319 0.0000002447773136 0.0000002094601127 6.0917699295579499 6.5437250036050099 14.6275959737066987 0.0000311091558864 2.5352849258261942 0.9102799959919214 
128 1 0.0000000945517995 0.0000005265616584 0.0000003276918805 9.2534943035767032 8.4189211488937037 14.7457145227731257 0.0000284244107672 2.6068250430677780 0.9825170994870948 
131 1 -0.0000000199629411 0.0000005299743197 0.0000004623025589 8.9420743569610064 6.6739950784705089 14.1655960195352879 0.0000332772445100 2.4940762555508349 0.9194513035668150 
270 2 0.0000001800990313 0.0000006317900875 0.0000004488507497 9.7005550382590950 8.8464923308365009 13.3122729981556809 0.0000299301624838 2.5866387226646474 0.9467530645403007 
274 2 0.0000000452975495 0.0000002399885279 0.0000000645456657 7.1598190277871696 10.1157335712260199 16.6062054725692541 0.0000257527363603 2.7004320272433584 0.9736350515146379 
278 2 -0.0000000933783868 0.0000004043849953 0.0000002486915975 7.5201059813355142 7.6037862467372577 15.4212680165650511 0.0000295845103769 2.5804561495107627 0.9429006172133412 
300 2 0.0000002592782022 0.0000005847017150 0.0000002905973147 11.8882726153804725 8.5482556532622116 13.1473350725990716 0.0000283340734468 2.6597812952632687 0.9905988554834066 
97 1 -0.0000000456025325 0.0000002611106433 -0.0000001552768773 14.4106860626278550 9.8315944857288518 16.3970683190165509 0.0000264497649195 2.5607801179629948 0.8834457104681060 
119 1 -0.0000000652525516 0.0000000436080006 -0.0000001906736644 15.2974908402708394 9.8703737540248166 17.2721772857438545 0.0000290970620251 2.4624067005418797 0.7848675618516167 
121 1 -0.0000000212376335 -0.0000000570735603 -0.0000002959487548 16.7357444048784672 10.1521763217173824 17.1908274271951207 0.0000294033202336 2.5076065997699937 0.8164025954384151 
140 1 0.0000003679944819 0.0000006518848164 -0.0000000275218756 14.6193855710653509 7.7416703176088388 12.7332231397965483 0.0000273402969898 2.6025692616514480 0.9498157315370443 
141 1 -0.0000001535306858 -0.0000000125471431 -0.0000002468221602 15.2180318071719967 10.9846341054807350 17.7169184589021604 0.0000317088373938 2.4137130453687554 0.7410290015440755 
142 1 0.0000000769680188 0.0000002940311278 -0.0000002733938730 17.0622667860056900 8.7353665071162592 15.0113691171928831 0.0000235157422908 2.8326312744234743 1.0433403329738162 
287 2 0.0000002908980829 0.0000006973191808 0.0000000314569721 14.5920883550331126 7.2599229409279769 13.3916193647803148 0.0000282478465658 2.5991901735714213 0.9501901896893347 
296 2 -0.0000000956810861 0.0000002475511685 -0.0000001581330646 13.9675531554914816 10.0541623333791108 16.6278620123364647 0.0000262523731108 2.5801184291660739 0.8987074756884627 
297 2 0.0000000473526924 0.0000005002578464 0.0000001484753845 12.3957867027461806 7.2474053091178670 16.1197282486782640 0.0000268444531751 2.7310897361040150 1.0466432548281004 
107 1 0.0000000033874316 0.0000000069909714 -0.0000000738801911 5.1368037454454933 12.7717613122212761 13.9392554979183316 0.0000277208648510 2.5473743758479386 0.8341163954455653 
109 1 0.0000001115313821 -0.0000000365083322 -0.0000001341780993 4.1531664311838448 12.7059435982020457 15.9820008924828745 0.0000294579291240 2.5145567153301096 0.8103178347698676 
115 1 0.0000001303361426 -0.0000001336787618 -0.0000001178775809 2.0707698409769386 13.8931420560031977 16.7150661418550364 0.0000294870893446 2.5741530093506682 0.9001027958458745 
135 1 -0.0000000930171901 -0.0000001809939295 -0.0000003729675669 0.0124711360050967 13.4436473778582410 15.5714218186464741 0.0000279956384840 2.5804336875087284 0.9124965453237843 
143 1 0.0000002587766847 -0.0000002191265314 -0.0000000360986727 2.9432910134382784 15.4884005553595134 16.9348802012085748 0.0000276903566739 2.6854112340794485 0.9887229647302657 
145 1 0.0000002247334047 0.0000000441007614 -0.0000000160755213 5.6015782757626944 12.6562604563936496 17.8393667258455650 0.0000265732724871 2.6275817596517337 0.9003781428868118 
150 1 -0.0000000590597620 -0.0000003774979386 -0.0000002381818979 0.1594798498643047 14.9163391079704724 14.8344405032166602 0.0000279860193240 2.6042839369115409 0.9616152752887627 
260 2 0.0000001638774500 -0.0000004740221145 0.0000001342272311 0.4705848637439913 17.7091557877699124 17.1035775044298575 0.0000314036553611 2.5685832339988588 0.9542230467300886 
261 2 -0.0000000680059730 -0.0000007211748365 -0.0000001933283788 0.2491175897666270 16.5554707936004881 12.9841075212562078 0.0000296709449328 2.6204333715065666 0.9499839806717667 
269 2 0.0000002838331944 -0.0000003217844955 0.0000000027155719 3.3982471526089735 17.3788935085759526 14.9137707931176546 0.0000276135700042 2.7060030261884775 1.0162598821152116 
280 2 0.0000002361196840 0.0000000385770739 -0.0000000259842121 5.7343213387542100 13.1957753136580163 16.1729934034760134 0.0000273964945462 2.5560034842866983 0.8363892266611166 
285 2 0.0000001313663800 -0.0000002876762950 -0.0000000402050958 3.6384774854193775 15.5776842942203206 12.9060469646546832 0.0000277955883586 2.5759817241131602 0.8902788761362498 
289 2 0.0000002032522784 -0.0000001250291424 -0.0000000331887540 4.7660954405756417 14.3643365259709359 14.4347322684558694 0.0000271204769529 2.5773666398320993 0.8742473959355166 
99 1 -0.0000001109759998 -0.0000001271247227 -0.0000001320218902 11.6018768775839849 14.4881689333554711 14.7158200652607363 0.0000237885416784 2.7028606354087112 1.0239879202140443 
114 1 0.0000000024208910 0.0000001436352823 -0.0000000582260472 9.3923886035414359 12.3892641828288710 16.1500685933024926 0.0000230612624919 2.8174891468058512 1.0351075022245630 
118 1 0.0000000312898541 -0.0000003250876394 -0.0000000196335381 8.3125778463230251 16.4244439781232678 13.8425762689082905 0.0000231764319344 2.8954132022817234 1.1034567475890724 
258 2 0.0000002348477772 0.0000000557421061 0.0000000176728640 6.5116956683910150 13.7107586565382515 14.6230285588606748 0.0000255220833847 2.6307426042022262 0.8959403016317552 
267 2 0.0000000534458286 -0.0000002928745269 -0.0000000705890770 7.2086382408058771 16.2880670390194950 17.7817168495439475 0.0000237676566987 2.8691534644698593 1.0875577809156061 
292 2 0.0000000055194936 -0.0000000843774828 -0.0000000014337572 10.1281880347001696 14.8603531957783197 12.9880994678448847 0.0000230420427084 2.7809761688639778 1.0401116609205656 
295 2 -0.0000004335571472 -0.0000011215501138 -0.0000002795396642 11.5439913115417774 17.7611343834996624 14.9960888424178798 0.0000307252584094 2.5656805389911921 0.9153563856729070 
98 1 -0.0000000009566332 -0.0000000526433260 -0.0000001592732737 17.9725193073519662 13.0166469914313776 17.3097710470917399 0.0000310240644264 2.5105751713376994 0.8572378068326488 
101 1 -0.0000002229289713 -0.0000004779589690 -0.0000002129649246 12.2778364336301564 15.6748030079206018 14.6425641844948249 0.0000258789963015 2.6561856730603632 0.9991592527779259 
124 1 -0.0000001635250383 -0.0000005250995979 -0.0000003168711337 16.0771612985264873 15.2677052400894304 14.2519446008795256 0.0000270359040885 2.6498363366256417 0.9989925075232962 
130 1 -0.0000001034513365 -0.0000005072753837 0.0000000233638607 15.1048273350755284 16.2271548830084775 16.9455201537043294 0.0000295318573137 2.6247218155897403 0.9833883357326698 
134 1 0.0000001318983506 0.0000002683381432 0.0000000139554050 12.1436283982329112 12.2254436439422758 12.4209338156345641 0.0000235989799827 2.7716855920960253 1.0016148718492113 
136 1 -0.0000000302238237 -0.0000001416169596 -0.0000002439845961 16.8603050372704111 12.7755035441055949 12.5438319558273559 0.0000218700683450 2.8488385740708875 1.0630037066864038 
271 2 -0.0000001329099660 -0.0000002216539251 -0.0000001533613344 12.0809465763408888 14.8374874956909686 14.2285043659909292 0.0000242921947077 2.6769380923460835 1.0089639892730675 
272 2 -0.0000002116830064 -0.0000001712161201 -0.0000002377226905 15.0103098299679463 13.8271204614173264 17.1015735924072843 0.0000284826488398 2.6397932483517996 0.9367013529389866 
275 2 -0.0000001522454129 -0.0000003383939890 -0.0000003609111632 16.6008479272389025 14.3524012123314808 14.7997129282366959 0.0000268906513189 2.6074005631841164 0.9632904592836975 
