ITEM: TIMESTEP
800975
ITEM: NUMBER OF ATOMS
512
ITEM: BOX BOUNDS ss ss ss
-2.2775349561678951e-01 3.2932607586404616e+00
-4.0122540508749138e-01 3.2891132425832117e+00
-1.7039273299291779e-01 3.2223573019164853e+00
ITEM: ATOMS id x y z width_SPH x_COM y_COM z_COM vx vy vz 
23 0.539285 1.16104 0.372783 0.613015 0 0 0 0.63379 -0.0976659 -0.570004 
3 -0.140327 -0.12443 0.0939765 1.0357 0 0 0 -1.01066 -0.934143 -0.881361 
4 1.1215 0.71024 0.265513 0.622552 0 0 0 0.00934789 0.209764 -1.02937 
5 0.225459 1.27088 -0.0393985 0.782508 0 0 0 -0.197425 -0.301984 -0.966517 
6 0.0115287 1.14394 0.376961 0.727351 0 0 0 -0.762219 -0.268032 -0.705399 
22 0.128623 1.05029 0.059603 0.785115 0 0 0 -0.507386 -0.424324 -0.97068 
8 0.686461 0.733456 -0.0391924 0.747512 0 0 0 0.0953237 -0.433163 -1.18306 
9 1.3567 -0.24185 0.263496 0.804203 0 0 0 -0.298906 -1.18641 -1.40898 
10 -0.0863132 -0.263402 0.0260476 1.0737 0 0 0 -0.93198 -0.985742 -0.90192 
11 0.920703 1.15036 -0.0285241 0.696436 0 0 0 0.752233 -0.165359 -0.435128 
12 0.461885 1.343 0.164186 0.674423 0 0 0 0.502728 -0.204186 -0.606966 
13 0.278631 -0.299305 0.200455 0.957904 0 0 0 -0.806316 -1.14365 -1.01853 
14 0.972035 1.22081 0.390067 0.568524 0 0 0 1.27038 0.14246 0.81269 
15 1.08249 0.66997 0.304812 0.617963 0 0 0 -0.0679189 0.142872 -1.16074 
16 0.612759 -0.235824 0.244744 0.869623 0 0 0 -0.630675 -1.1666 -1.20391 
17 0.878271 0.25389 0.00523343 0.783179 0 0 0 -0.298622 -0.660975 -1.49786 
18 0.562192 0.565605 0.356096 0.67312 0 0 0 -0.327169 -0.544918 -1.23565 
274 1.4895 1.31442 0.568074 0.508711 0 0 0 -0.206581 -0.281944 4.84881 
20 0.679388 0.94068 0.297783 0.628463 0 0 0 0.463982 -0.143643 -0.766473 
62 1.19143 1.02676 0.635981 0.499498 0 0 0 0.00570853 0.577686 1.37843 
50 0.549989 -0.381026 0.627226 0.850631 0 0 0 -0.738676 -1.36616 -0.856501 
31 -0.0666953 1.19079 0.657987 0.694829 0 0 0 -0.999891 -0.0999594 -0.58465 
44 0.384568 0.857338 0.611349 0.611978 0 0 0 -0.317974 -0.373772 -1.12028 
24 1.01877 -0.213779 1.39568 0.679353 0 0 0 -0.124016 -1.69284 0.603261 
353 1.43469 1.07796 1.35086 0.306615 0 0 0 -0.477907 -3.56868 0.63681 
26 -0.135933 1.02548 1.49494 0.658912 0 0 0 -1.52791 0.0880222 0.0612322 
27 0.398739 1.14913 0.832394 0.54623 0 0 0 -0.092982 0.0261738 -1.24837 
28 0.947158 0.225003 1.38726 0.550772 0 0 0 -0.881576 -1.47364 0.742539 
91 0.800645 1.12867 1.21354 0.410232 0 0 0 -0.998802 -0.848583 -0.341446 
303 1.47401 1.06098 1.34496 0.308976 0 0 0 0.971347 -3.79451 0.771689 
65 0.669837 0.471786 1.33838 0.530128 0 0 0 -1.15566 -1.29716 0.0919411 
32 0.390329 -0.347394 1.28432 0.809108 0 0 0 -0.778118 -1.47595 -0.132815 
33 0.747584 -0.211894 1.15272 0.709652 0 0 0 -0.599512 -1.55106 -0.195168 
173 0.936228 0.960759 1.29479 0.396881 0 0 0 -3.46756 -1.14487 -0.811057 
35 1.49751 0.0185886 0.818716 0.616274 0 0 0 -0.421815 -1.4179 -1.15817 
21 1.50709 1.44184 1.49138 0.220517 0 0 0 0.244358 1.59155 0.627081 
154 1.32469 1.31544 1.43485 0.268892 0 0 0 1.65036 2.35801 -4.96374 
38 0.219854 1.02869 0.800813 0.601114 0 0 0 -0.640081 -0.169682 -1.01707 
39 -0.227453 0.894409 1.43968 0.703331 0 0 0 -1.58736 -0.0297136 -0.0849083 
2 1.14969 0.675247 1.21354 0.426023 0 0 0 -4.14308 -2.31414 -1.38044 
351 0.859148 1.19146 1.32514 0.381096 0 0 0 -0.728123 -0.464093 0.443802 
42 0.799967 1.37177 1.32996 0.382827 0 0 0 0.818998 -0.14612 1.05492 
195 1.40658 0.799881 1.18838 0.381446 0 0 0 -2.14149 -3.6216 -0.893519 
318 1.4922 1.06871 1.34922 0.306647 0 0 0 1.80125 -3.84441 0.63384 
45 0.998557 0.224034 1.32982 0.545671 0 0 0 -1.04178 -1.56827 0.537118 
46 0.61045 0.267939 0.790688 0.635115 0 0 0 -0.974976 -0.894114 -1.36008 
47 1.21212 0.915317 0.835746 0.454217 0 0 0 -1.73108 -0.485268 0.987947 
48 0.526623 0.788824 1.37475 0.498782 0 0 0 -1.05292 -1.06539 0.0363197 
250 1.49186 1.08594 1.35641 0.302454 0 0 0 1.96525 -3.83446 0.346225 
79 1.49622 1.36941 1.46082 0.233519 0 0 0 3.6423 0.758526 0.553358 
51 0.476674 1.30496 0.949276 0.506037 0 0 0 0.169114 0.221643 -1.3358 
52 1.29203 0.22636 1.31754 0.525362 0 0 0 -0.907504 -1.91139 0.784896 
53 -0.0398804 0.626634 1.25893 0.678802 0 0 0 -1.45044 -0.441309 -0.414647 
54 1.02301 -0.400925 1.42876 0.747458 0 0 0 0.00503086 -1.74378 0.513745 
385 1.48524 1.28967 1.43147 0.252411 0 0 0 3.42369 -2.10521 0.493522 
56 1.27652 0.103598 1.02254 0.574013 0 0 0 -0.869731 -1.66905 -0.734859 
178 0.995018 1.43603 1.45857 0.329987 0 0 0 2.91036 1.35599 0.624078 
115 1.50525 1.15043 1.37639 0.287015 0 0 0 3.09561 -4.38321 0.778793 
59 0.618221 0.602606 1.24067 0.517389 0 0 0 -1.31685 -1.26838 -0.596072 
124 1.46275 1.03847 1.3335 0.314948 0 0 0 0.308029 -3.79331 1.08184 
306 1.50773 -0.285859 0.765567 0.723844 0 0 0 -0.127737 -1.60429 -0.682451 
64 0.863757 -0.33905 1.3046 0.736467 0 0 0 -0.275694 -1.69422 0.22101 
119 1.46934 1.29804 1.43364 0.251084 0 0 0 3.24153 -1.66885 0.903086 
313 1.06026 1.33633 1.41901 0.322544 0 0 0 1.09835 0.947141 2.21132 
149 1.36226 1.21565 1.35164 0.287126 0 0 0 -1.32905 -1.55251 -0.811895 
179 1.27092 0.655453 1.19794 0.420357 0 0 0 -3.4967 -2.75732 -1.57725 
106 1.48397 1.28129 1.42805 0.254529 0 0 0 3.33201 -2.41588 0.655917 
322 1.48976 1.08077 1.35422 0.303748 0 0 0 1.82426 -3.82886 0.433888 
19 1.48534 0.423854 1.00494 0.484892 0 0 0 -0.852793 -1.86257 -1.91704 
512 1.49418 1.3562 1.4562 0.236442 0 0 0 3.67118 0.312663 0.470503 
301 0.930608 1.30713 1.40803 0.352103 0 0 0 0.844287 0.696096 0.473318 
214 1.39942 0.983966 1.30052 0.332291 0 0 0 -2.34845 -3.66486 1.32738 
77 0.45329 1.43621 1.29507 0.467503 0 0 0 -0.729823 0.322799 -0.75653 
358 0.802635 1.13455 1.1541 0.418093 0 0 0 -0.811699 -0.815714 -0.341115 
81 0.658636 0.594061 1.15419 0.517894 0 0 0 -1.4328 -1.2459 -1.06387 
71 0.654127 1.22741 1.34848 0.421631 0 0 0 -0.472622 -0.274514 -0.366807 
329 0.872553 1.19711 1.34631 0.376297 0 0 0 -0.664147 -0.284354 0.350793 
57 1.51229 0.644713 1.18741 0.412428 0 0 0 -0.12242 -3.05667 -1.62646 
122 1.21657 0.673198 1.20291 0.42071 0 0 0 -3.98111 -2.58506 -1.52542 
74 0.974812 0.845294 1.26176 0.411885 0 0 0 -4.06689 -1.59234 -1.05779 
228 1.1961 1.41563 1.46551 0.285852 0 0 0 3.66152 1.69265 2.54587 
198 0.988596 1.43716 1.45868 0.331367 0 0 0 2.87842 1.25719 0.754333 
165 1.3282 0.926643 1.25837 0.353435 0 0 0 -4.30438 -3.50961 0.956361 
101 1.00028 1.23476 1.37484 0.3457 0 0 0 -1.0084 0.365414 1.16487 
82 0.91422 0.731787 1.19891 0.446421 0 0 0 -3.04143 -1.67029 -1.19383 
229 1.43794 1.01784 1.32157 0.321261 0 0 0 -0.817359 -3.73933 1.25786 
66 0.0779152 -0.209389 2.31731 0.901785 0 0 0 -0.68797 -1.05208 0.580833 
67 0.89659 0.389783 1.98979 0.568992 0 0 0 0.53516 -0.0874043 0.637822 
68 1.03628 0.897854 1.78786 0.431444 0 0 0 0.893008 2.98618 -4.25707 
95 0.398485 -0.0108996 2.10984 0.741993 0 0 0 -0.249946 -0.999986 0.679917 
70 0.43186 1.36488 2.12842 0.53468 0 0 0 0.501962 -0.113964 0.726986 
88 0.060364 0.335405 2.25425 0.754693 0 0 0 -0.785912 -0.437366 0.780303 
55 0.179155 0.110085 1.56622 0.715515 0 0 0 -0.990376 -1.03049 0.129725 
63 0.0687014 1.42391 1.57716 0.574447 0 0 0 -1.32728 0.122364 0.333604 
87 -0.124822 0.602197 1.97093 0.726214 0 0 0 -1.23338 -0.227815 0.586443 
75 0.134232 1.38274 2.08425 0.597901 0 0 0 -0.600558 -0.111097 0.927918 
86 1.52819 0.49428 1.73489 0.483928 0 0 0 0.0889238 0.601444 0.00440242 
90 0.772489 1.18916 2.00602 0.467511 0 0 0 2.16494 1.08639 -1.69302 
78 0.397217 -0.00262744 2.21456 0.75524 0 0 0 -0.216509 -0.931591 0.705685 
113 0.977996 1.35999 2.061 0.439924 0 0 0 2.96963 2.54499 -6.73393 
93 0.811337 0.804859 2.0233 0.511044 0 0 0 1.24664 0.892038 -0.290533 
92 0.38802 0.389796 1.87057 0.619934 0 0 0 -0.311906 -0.630201 0.88868 
108 1.18119 0.815737 2.12938 0.500499 0 0 0 1.03672 2.73468 -3.26127 
83 0.717759 1.15514 1.91969 0.462906 0 0 0 1.76405 0.737011 -0.786619 
84 0.247415 0.0622385 2.16075 0.758663 0 0 0 -0.490209 -0.857553 0.680791 
96 1.42755 0.839291 1.89151 0.437829 0 0 0 0.310934 5.24104 -7.87265 
127 1.45838 0.642879 2.04465 0.504506 0 0 0 0.17929 2.32784 -2.51005 
34 -0.00994721 0.530523 1.66397 0.680596 0 0 0 -1.25689 -0.447016 0.292406 
60 0.616718 0.958431 1.89368 0.496539 0 0 0 0.906058 0.186398 0.694873 
25 1.06932 0.282781 1.6188 0.537637 0 0 0 -0.332387 -0.97398 1.42413 
76 0.569501 0.905028 1.57236 0.476951 0 0 0 -0.410874 -0.726924 0.959431 
94 0.548015 0.812213 1.57409 0.494659 0 0 0 -0.474165 -0.799158 1.01573 
37 0.451648 1.06436 1.55401 0.483797 0 0 0 -0.715185 -0.372694 0.801575 
49 -0.22509 0.992379 1.53528 0.693611 0 0 0 -1.56993 0.0719859 0.072146 
125 1.09267 1.35856 2.31578 0.494749 0 0 0 1.87391 1.87914 -4.76152 
370 1.52837 0.876181 2.34622 0.53546 0 0 0 -0.114133 2.66178 -3.73589 
121 1.2299 0.0557189 2.56175 0.739895 0 0 0 0.420605 -0.463416 0.18891 
97 0.741253 0.963633 2.6719 0.641807 0 0 0 0.791071 0.769509 -0.027618 
98 0.311902 1.033 2.82434 0.738882 0 0 0 -0.0618713 0.189119 0.94223 
99 0.716605 0.0242855 2.58279 0.779044 0 0 0 0.238127 -0.650579 0.651583 
100 0.647803 0.403616 2.84607 0.77345 0 0 0 0.218129 0.0516046 0.748555 
128 0.383362 1.44118 2.49723 0.615765 0 0 0 0.291516 -0.114644 0.746951 
131 0.549717 1.23793 2.93584 0.721722 0 0 0 0.375431 0.238881 0.767593 
103 1.03332 0.516065 2.74005 0.695681 0 0 0 0.557455 0.579627 -0.00872025 
130 1.37066 0.465208 2.56845 0.65114 0 0 0 0.363659 0.736517 -0.682315 
114 1.06693 0.880373 2.58087 0.60421 0 0 0 0.894329 1.47519 -1.26365 
129 0.50815 0.0503812 3.07878 0.938566 0 0 0 -0.0944042 -0.452564 0.92644 
116 -0.091802 0.828692 2.48471 0.768906 0 0 0 -0.926291 -0.00656209 0.912698 
117 -0.112806 0.373907 2.52756 0.849196 0 0 0 -0.963991 -0.312897 0.858364 
109 0.427185 0.944433 3.03849 0.793867 0 0 0 0.0459881 0.256792 0.963267 
110 0.486302 -0.255054 2.78202 0.93817 0 0 0 -0.12156 -0.936634 0.764155 
123 1.28798 1.23655 2.37886 0.511357 0 0 0 0.834435 2.64138 -5.32583 
112 1.16532 0.42495 2.80165 0.724466 0 0 0 0.467809 0.431175 0.0413355 
162 0.457142 2.5951 0.566884 0.691735 0 0 0 -0.19897 0.795865 -0.43368 
132 0.66222 2.53027 0.217892 0.732798 0 0 0 0.175173 0.271926 -0.335459 
133 0.0922415 1.78605 0.558716 0.665836 0 0 0 -0.455892 0.139867 -0.50416 
134 0.162153 2.01557 0.242432 0.736258 0 0 0 -0.340422 0.19716 -0.58983 
135 1.32373 2.40949 0.446197 0.616066 0 0 0 0.357555 -1.41328 1.05041 
136 1.10481 2.57107 0.555833 0.622616 0 0 0 0.39744 -0.469667 0.464806 
137 0.0490391 2.5059 0.614628 0.758153 0 0 0 -0.885981 0.864002 -0.494767 
138 0.513595 2.21214 0.0647124 0.74566 0 0 0 0.264218 0.00926195 -0.511836 
139 0.291598 2.24804 0.292717 0.722671 0 0 0 -0.186676 0.33472 -0.526088 
140 0.883334 2.73443 0.162878 0.770974 0 0 0 0.129504 0.361194 -0.290005 
141 -0.0439135 2.3866 0.160643 0.863759 0 0 0 -0.835621 0.588496 -0.612645 
142 1.45321 2.54109 0.575777 0.605432 0 0 0 -0.0152699 -1.15817 0.848434 
143 1.27571 2.91643 0.597735 0.687648 0 0 0 -0.0928338 0.533049 -0.0019592 
160 0.794612 3.07601 0.428215 0.804011 0 0 0 -0.207686 1.16476 -0.290242 
145 0.49542 2.00223 0.013941 0.740949 0 0 0 0.384899 -0.141002 -0.551361 
146 1.33715 2.00137 0.341046 0.601082 0 0 0 0.654433 -2.10932 2.1055 
147 0.766194 1.82077 0.226306 0.636295 0 0 0 1.1953 -0.680033 0.317585 
148 1.26681 3.02295 0.252031 0.799049 0 0 0 -0.0618115 0.640631 -0.233336 
156 0.0923365 1.95726 0.419738 0.705677 0 0 0 -0.503508 0.219993 -0.514307 
150 1.0832 1.84154 0.514006 0.549524 0 0 0 1.65375 -2.03898 2.64021 
155 0.802647 1.62672 0.139302 0.650624 0 0 0 1.20366 -0.523907 0.232103 
161 1.3747 2.00684 0.411123 0.582787 0 0 0 0.554475 -2.40398 2.53739 
159 0.0392308 1.48546 -0.0352867 0.821635 0 0 0 -0.532876 -0.159729 -0.891089 
170 1.13968 2.09624 1.09394 0.440554 0 0 0 1.46611 -3.77862 4.57838 
163 0.51282 2.85754 0.715428 0.721362 0 0 0 -0.362544 1.26008 -0.434115 
202 0.614149 2.0095 1.00203 0.503112 0 0 0 1.10007 -0.139535 -1.05799 
167 0.867396 1.79174 1.05681 0.436405 0 0 0 2.56092 -1.83453 2.56757 
225 1.49735 1.51636 1.51443 0.21752 0 0 0 -0.854903 -0.81834 -0.884747 
169 0.925708 1.73868 1.4307 0.356739 0 0 0 1.84706 -1.94831 4.92856 
201 -0.0238939 2.74169 0.921929 0.787358 0 0 0 -1.1016 1.15803 -0.493637 
171 0.344801 1.88397 1.315 0.51087 0 0 0 -0.752007 0.282542 -1.14342 
183 1.05568 1.45291 1.46249 0.315993 0 0 0 3.41778 1.60696 1.20705 
30 0.792086 1.64482 1.51741 0.376354 0 0 0 1.02658 0.0814051 0.162165 
174 0.206881 1.77876 1.03604 0.567113 0 0 0 -0.476458 0.230799 -1.02288 
210 1.50148 1.47892 1.50125 0.21735 0 0 0 0.56514 0.98649 0.146514 
157 1.18863 2.27084 1.02741 0.478472 0 0 0 0.927595 -2.54604 1.97861 
152 1.07996 2.08942 0.712457 0.523345 0 0 0 1.53882 -2.43133 2.37588 
314 1.50113 1.48138 1.50212 0.217252 0 0 0 0.47034 0.862471 0.0425235 
197 0.0748447 2.23525 1.08021 0.643441 0 0 0 -1.00234 0.595561 -0.809883 
180 0.421878 2.02562 1.49853 0.493812 0 0 0 -1.13636 0.339407 -0.727693 
181 0.627688 2.08579 1.41777 0.456516 0 0 0 -0.466666 0.710649 -1.41778 
428 1.18669 2.56475 1.42784 0.483301 0 0 0 -0.598237 1.18327 -1.622 
410 1.4991 1.48774 1.50438 0.217079 0 0 0 0.802626 0.60942 -0.0285158 
184 0.816889 2.82806 1.23689 0.603669 0 0 0 -0.226954 1.57108 -1.11906 
460 1.49413 1.50152 1.50837 0.217105 0 0 0 -0.273655 -0.0799882 -0.505864 
186 0.975643 2.81774 1.04021 0.60602 0 0 0 -0.0236878 1.00236 -0.639685 
196 0.570967 1.70122 1.47318 0.43214 0 0 0 -0.553476 0.191713 -0.178811 
188 0.309628 2.5385 1.32084 0.613258 0 0 0 -0.883849 1.28404 -1.11729 
200 0.952341 2.70818 1.14965 0.565976 0 0 0 0.065271 0.959626 -1.03807 
190 0.811561 1.85976 1.03819 0.453608 0 0 0 2.21287 -1.24132 0.978826 
166 0.57832 1.64115 0.820064 0.51415 0 0 0 1.37963 -0.126787 -0.491458 
192 0.613365 2.06273 1.28737 0.468807 0 0 0 0.15237 0.522603 -1.66706 
193 1.11512 2.50091 1.38662 0.476141 0 0 0 -0.418184 0.868588 -1.52479 
203 1.49709 1.53529 1.52114 0.218904 0 0 0 -1.53144 -1.18504 -1.05265 
208 1.50103 1.48233 1.50246 0.217218 0 0 0 0.444111 0.810238 0.00915147 
41 1.49969 1.49087 1.50544 0.217018 0 0 0 0.111462 0.316907 -0.330444 
342 1.4981 1.50466 1.51029 0.217089 0 0 0 -0.412766 -0.393281 -0.696061 
164 1.49914 1.49496 1.50688 0.216989 0 0 0 -0.0432497 0.0837239 -0.460481 
40 1.49907 1.4955 1.50707 0.216988 0 0 0 -0.0639698 0.0538505 -0.476271 
219 1.49839 1.50152 1.50919 0.21703 0 0 0 -0.293091 -0.251627 -0.629398 
73 1.49777 1.50903 1.51184 0.21721 0 0 0 -0.57872 -0.570509 -0.776388 
43 0.805599 1.44796 1.3708 0.376499 0 0 0 1.30564 -0.0243786 1.27892 
418 1.50719 1.47294 1.49917 0.217693 0 0 0 -0.374726 0.84721 0.0295466 
158 1.23225 1.80441 1.11309 0.389209 0 0 0 1.38768 -9.68784 21.2834 
394 1.50446 1.48699 1.49865 0.21713 0 0 0 -0.306811 0.64416 -1.04339 
107 1.49843 1.45725 1.49536 0.218852 0 0 0 1.73308 1.28022 2.59303 
215 0.540875 2.16283 1.63005 0.479713 0 0 0 -1.42837 0.603942 -0.340428 
447 1.39749 2.80307 2.23838 0.567393 0 0 0 -0.109988 1.2307 1.24136 
205 0.0357142 1.958 2.06486 0.630638 0 0 0 -1.35399 -0.385487 0.701846 
206 1.02526 2.47209 2.29805 0.52608 0 0 0 -0.784696 0.0757956 2.24096 
207 0.438849 2.84841 1.72196 0.64868 0 0 0 -0.970142 1.70347 -0.719286 
257 1.1462 1.73854 1.56929 0.308094 0 0 0 0.151648 1.36618 0.791144 
194 0.555397 1.94539 1.63956 0.452293 0 0 0 -1.3244 0.0737858 0.248991 
235 1.21548 2.18612 2.35238 0.493659 0 0 0 -0.51585 -1.03701 1.78994 
211 0.956352 2.92221 2.05614 0.605034 0 0 0 -0.719818 1.80984 0.0663373 
212 0.453135 2.60915 1.67387 0.582913 0 0 0 -1.16157 1.49542 -0.741522 
213 0.821559 1.77282 1.80143 0.397828 0 0 0 -0.215118 0.0120576 -1.25187 
242 0.400464 2.35909 2.29194 0.595598 0 0 0 -1.03597 -0.272329 1.1963 
231 0.848347 2.32006 2.12815 0.491556 0 0 0 -1.46656 0.000740764 2.18596 
216 1.16683 2.94849 2.0896 0.599367 0 0 0 -0.547801 1.81478 0.245521 
217 0.343206 2.85138 1.83538 0.671171 0 0 0 -1.07811 1.48816 -0.520562 
218 0.188138 2.60236 1.94756 0.653436 0 0 0 -1.42612 0.765563 -0.0978861 
468 0.852827 2.30966 1.85529 0.453563 0 0 0 -2.19996 1.12476 0.887594 
204 0.982451 2.13674 1.79705 0.400179 0 0 0 -3.11411 1.07099 0.489758 
221 0.781369 2.16855 1.99553 0.461676 0 0 0 -1.81787 -0.142157 1.8916 
222 0.874655 2.13024 1.82114 0.418686 0 0 0 -2.52255 0.607911 0.876335 
223 0.648263 1.75377 1.7334 0.425429 0 0 0 -0.647127 -0.244328 0.582394 
246 1.14636 1.78049 1.58 0.313138 0 0 0 -0.964798 1.31947 0.383033 
104 0.233992 1.55829 2.31381 0.6057 0 0 0 -0.273947 -0.332352 0.943849 
226 1.33009 3.06354 2.06162 0.626228 0 0 0 -0.383281 1.88234 0.0383699 
227 0.147304 1.58649 2.08044 0.590155 0 0 0 -0.738972 -0.333805 0.957723 
234 1.08919 1.775 1.6573 0.327882 0 0 0 -0.110605 5.1381 -13.7899 
238 1.01265 1.72344 1.58265 0.333683 0 0 0 1.2378 1.37738 -3.74723 
321 1.32126 2.33261 1.84131 0.409751 0 0 0 -2.19731 3.09489 1.0583 
475 0.852233 2.20785 1.83083 0.434528 0 0 0 -2.39339 0.831059 0.936055 
476 1.236 2.27059 2.3039 0.488502 0 0 0 -0.670208 -0.591756 2.29741 
189 0.782459 2.23929 1.56137 0.444168 0 0 0 -1.22516 1.24315 -1.12477 
239 1.34952 1.8979 1.62615 0.304185 0 0 0 -5.24227 3.48675 3.25025 
328 1.23901 2.61188 1.80516 0.480288 0 0 0 -1.13676 2.5566 -0.289679 
185 0.0296426 2.45809 1.54539 0.667551 0 0 0 -1.48893 0.759402 -0.529462 
337 1.08118 2.12646 1.79494 0.384858 0 0 0 -3.71972 1.54259 0.134536 
462 1.49401 3.28881 1.96819 0.696853 0 0 0 -0.327536 1.96141 -0.252643 
168 1.33187 1.8586 1.63154 0.298782 0 0 0 -4.91532 3.88026 2.86784 
247 1.21228 2.26016 1.82707 0.399112 0 0 0 -3.19434 2.60089 0.841961 
177 1.34233 2.09072 1.75653 0.350179 0 0 0 -4.1043 3.7739 -1.22961 
485 1.5067 2.80876 2.33204 0.583719 0 0 0 0.095693 0.929012 1.3801 
264 1.37211 2.2453 1.827 0.387486 0 0 0 -2.45641 3.42762 0.95173 
69 1.40451 2.22361 1.82303 0.381678 0 0 0 -2.28886 3.58822 0.832535 
483 1.42128 2.31223 1.83497 0.40212 0 0 0 -1.57757 3.46079 1.19434 
350 1.439 2.29198 1.83174 0.397127 0 0 0 -1.51898 3.54182 1.19907 
249 0.810739 1.71806 2.34598 0.511764 0 0 0 1.12855 -0.642113 -0.195576 
420 1.11137 1.94425 1.68019 0.344426 0 0 0 -3.58168 1.6028 -2.54976 
240 1.42891 1.9938 1.67737 0.320756 0 0 0 -4.04896 3.95811 0.323327 
300 1.51917 1.67207 1.57346 0.245252 0 0 0 -3.20613 2.23986 -0.654112 
398 1.51864 1.67006 1.57264 0.244758 0 0 0 -3.21454 2.18932 -0.696117 
29 0.0998302 1.58839 1.57877 0.564951 0 0 0 -1.34125 0.0104521 0.251721 
224 1.11369 1.66991 1.54005 0.307841 0 0 0 2.2575 1.3586 0.488497 
111 0.951801 1.52522 1.75503 0.365739 0 0 0 2.94906 3.9908 -11.4167 
105 1.42239 1.7449 1.56869 0.264087 0 0 0 -3.21112 2.29621 8.88722 
172 1.02343 1.85688 1.56821 0.344259 0 0 0 -0.614638 -1.55432 3.58488 
153 1.36635 1.72333 1.6767 0.28019 0 0 0 -1.66221 12.4658 -21.7782 
341 1.49773 1.55245 1.52725 0.220827 0 0 0 -2.06915 -1.21011 -1.11501 
144 1.49738 1.55544 1.52766 0.221193 0 0 0 -2.02443 -1.23762 -0.916902 
332 1.49424 1.56548 1.53147 0.222691 0 0 0 -0.53919 -0.879085 -0.94194 
486 1.5315 1.94567 2.15281 0.420414 0 0 0 -0.552603 0.806489 -5.18573 
336 1.53234 1.71295 1.59081 0.255617 0 0 0 -2.86137 3.06603 0.0568104 
80 1.4976 1.55014 1.52643 0.220534 0 0 0 -2.00192 -1.22208 -1.11003 
232 0.492161 2.02196 2.69548 0.642609 0 0 0 -0.0745579 -0.804801 1.4171 
233 0.819151 1.89518 2.82464 0.638634 0 0 0 0.440476 -0.774792 1.02633 
255 -0.0545527 2.84034 2.49112 0.830804 0 0 0 -1.33127 0.662495 0.395608 
266 0.366654 1.98499 2.58793 0.636921 0 0 0 -0.320953 -0.749402 1.30899 
236 1.10598 2.61864 2.76413 0.651238 0 0 0 -0.0563552 -0.167823 1.86498 
237 0.373433 2.44496 2.4469 0.637516 0 0 0 -0.879454 -0.195095 1.14203 
262 0.719176 1.67966 2.53177 0.568062 0 0 0 0.926245 -0.484225 0.339239 
254 0.214178 2.73861 3.11696 0.891494 0 0 0 -0.712484 0.273396 1.45052 
118 0.0283954 1.48111 2.6882 0.743106 0 0 0 -0.653578 -0.166582 1.01436 
241 0.939423 2.12978 3.11426 0.728296 0 0 0 0.137832 -0.661531 1.54264 
265 0.0329595 3.01139 2.61218 0.868521 0 0 0 -1.12544 0.909761 0.525492 
243 0.559651 3.01397 2.64266 0.760242 0 0 0 -0.50886 1.00279 0.858384 
244 -0.0538423 3.17008 2.96978 1.01469 0 0 0 -0.989228 0.906801 0.85333 
245 1.25688 2.18075 2.86042 0.631951 0 0 0 -0.0454377 -0.97667 1.37673 
256 0.0639252 2.93295 2.98771 0.928309 0 0 0 -0.938702 0.617743 1.10112 
260 -0.0684576 2.86215 2.72928 0.884979 0 0 0 -1.22646 0.592821 0.736891 
248 0.535509 2.66342 2.98131 0.774497 0 0 0 -0.342601 0.0705718 1.64876 
507 1.514 2.78544 2.91086 0.717639 0 0 0 0.00158563 0.241194 1.78001 
258 0.563517 2.96535 3.08817 0.86575 0 0 0 -0.344541 0.623048 1.47814 
251 0.511306 2.47669 2.63315 0.654782 0 0 0 -0.499804 -0.285979 1.4739 
252 -0.111919 2.39186 2.39214 0.756579 0 0 0 -1.488 -0.039763 0.500079 
253 1.04036 3.18638 2.78128 0.794803 0 0 0 -0.146968 1.14523 1.12598 
267 1.82892 0.385598 0.477785 0.596851 0 0 0 -0.154207 -0.0364115 -2.08403 
268 2.77883 0.405527 0.286067 0.78613 0 0 0 1.25566 -0.459798 -1.24518 
269 2.2067 0.0402889 -0.170093 0.89093 0 0 0 0.374263 -0.76961 -1.63994 
270 2.56706 0.0594608 -0.0701687 0.911769 0 0 0 0.827073 -0.801579 -1.41337 
291 2.17938 0.517071 -0.0151417 0.745445 0 0 0 0.104552 -0.0265055 -1.80516 
272 2.88249 0.826455 0.434379 0.720698 0 0 0 1.24071 0.0309802 -1.11999 
273 1.72709 1.05678 0.271323 0.594022 0 0 0 -0.639102 0.752333 0.272376 
295 2.17131 1.36023 0.380862 0.583848 0 0 0 -1.32069 0.225591 0.267917 
275 2.66357 -0.0269299 -0.00181399 0.933266 0 0 0 0.95208 -0.903033 -1.25185 
276 1.80978 0.0752502 0.0483246 0.778946 0 0 0 -0.0838288 -0.687909 -1.77599 
294 1.73981 1.32132 0.468045 0.539317 0 0 0 -1.13498 0.0486272 2.88221 
278 1.84914 0.11894 -0.019307 0.792007 0 0 0 -0.0537298 -0.613857 -1.79872 
279 2.175 0.767301 0.422037 0.586647 0 0 0 -0.127526 0.711335 -1.5724 
290 2.36632 1.24236 0.156963 0.668461 0 0 0 -0.466662 0.307241 -0.928706 
281 2.44926 1.10437 0.37246 0.618621 0 0 0 -0.226704 0.581781 -1.09594 
289 2.44023 0.7443 0.539652 0.597762 0 0 0 0.576959 0.387561 -1.48423 
292 2.33956 0.902121 0.628319 0.547956 0 0 0 0.151977 0.787045 -1.36182 
284 1.63518 0.788279 0.385014 0.570139 0 0 0 -0.509395 0.940153 -0.962259 
285 2.84963 1.17716 0.0625959 0.791307 0 0 0 0.71507 0.0555123 -1.2482 
286 1.78723 0.48572 0.444946 0.587348 0 0 0 -0.294044 0.28262 -2.06149 
287 2.57698 1.17322 0.482566 0.611559 0 0 0 0.0428268 0.539601 -1.02997 
288 2.12027 0.470308 0.103736 0.706465 0 0 0 0.0548286 -0.00959445 -1.83869 
283 2.43673 -0.0381339 0.797335 0.720708 0 0 0 1.11704 -1.28514 -0.558131 
297 2.10952 0.404047 1.31447 0.507879 0 0 0 1.90426 -1.28942 1.10995 
298 2.93 0.378403 1.22614 0.69964 0 0 0 1.80701 -0.768654 0.103673 
299 2.17784 0.794496 1.15773 0.446811 0 0 0 3.0417 -0.0319312 -0.486561 
326 2.16131 0.241586 1.27565 0.557613 0 0 0 1.36205 -1.478 0.897706 
421 1.83955 1.44086 1.50274 0.29555 0 0 0 -2.29237 -3.41384 -0.0458811 
302 2.20229 0.171774 1.03879 0.593097 0 0 0 1.23415 -1.32814 -0.190313 
409 1.68108 1.13813 1.38277 0.302334 0 0 0 7.62316 -3.47422 0.202118 
304 2.56841 0.907697 0.967206 0.532659 0 0 0 1.36611 0.342876 -0.843678 
327 2.48295 0.0221948 1.06097 0.685997 0 0 0 1.27707 -1.34471 -0.007591 
271 2.03988 0.860398 1.25086 0.407326 0 0 0 4.8336 -0.125987 -0.0685201 
325 1.98593 0.355557 1.00005 0.521512 0 0 0 1.37394 -1.15532 -1.03989 
308 1.84277 0.353852 1.39548 0.497792 0 0 0 1.14387 -1.6752 1.55097 
309 2.88628 1.00556 1.17505 0.59401 0 0 0 1.7457 0.142742 -0.102373 
352 2.8534 1.20475 1.47988 0.560577 0 0 0 1.76096 0.0542489 0.516953 
311 2.00272 0.716305 0.965154 0.458607 0 0 0 2.42632 -0.00746341 -1.77902 
312 2.53391 1.33844 0.846887 0.525579 0 0 0 -0.117285 0.548423 -0.597072 
293 2.42309 1.11164 0.861819 0.504926 0 0 0 0.210275 0.81099 -0.879092 
324 1.62813 -0.0597911 0.885019 0.633871 0 0 0 -0.114655 -1.61402 -0.685127 
315 2.60038 1.07859 1.23024 0.500886 0 0 0 1.63783 0.261194 -0.0845577 
316 2.72627 0.872234 1.06806 0.566481 0 0 0 1.68882 0.0840891 -0.39088 
317 2.17447 0.00896228 1.26039 0.630983 0 0 0 0.83353 -1.67296 0.738084 
345 2.10887 1.08501 1.35917 0.384713 0 0 0 3.15609 0.531537 0.357367 
323 2.38133 0.331231 1.45359 0.569984 0 0 0 1.39884 -1.12535 1.28537 
455 2.55583 1.28173 1.36755 0.472766 0 0 0 1.5132 0.132497 0.181867 
435 2.27638 1.22552 1.31462 0.411362 0 0 0 0.998211 0.0654833 0.565516 
448 2.20141 1.19778 1.32868 0.395789 0 0 0 1.29381 0.0631785 0.913617 
330 2.12817 0.968259 1.33152 0.403423 0 0 0 3.69328 0.317839 0.285004 
333 2.02457 1.08667 1.30522 0.371338 0 0 0 4.5522 0.0177849 1.82279 
320 2.05152 1.24466 1.39438 0.356998 0 0 0 1.45053 -0.217658 1.67601 
85 1.93764 0.688033 1.22732 0.424791 0 0 0 4.19089 -1.03457 -0.384207 
72 1.85276 0.835645 1.34412 0.38142 0 0 0 5.9904 -0.138864 -1.58488 
280 1.92793 1.1572 0.954494 0.418543 0 0 0 0.28217 -0.515588 5.51755 
282 1.82595 1.09003 1.37788 0.331792 0 0 0 7.68167 0.0363527 -2.0892 
58 1.53876 0.410766 0.794843 0.520962 0 0 0 -0.628833 -0.813632 -2.48373 
7 1.78035 0.749638 1.18988 0.399084 0 0 0 4.57972 -1.92999 -1.07292 
175 1.68618 0.702481 1.18442 0.402965 0 0 0 3.05568 -2.53231 -1.39673 
151 1.67336 0.694871 1.1842 0.404022 0 0 0 2.80401 -2.59504 -1.42889 
102 1.68172 0.685807 1.18739 0.406091 0 0 0 2.83261 -2.53389 -1.3964 
401 1.6876 1.21333 1.3846 0.290455 0 0 0 6.15633 -7.39747 9.31007 
431 1.82256 1.38594 1.47812 0.294164 0 0 0 -1.17796 -3.90073 1.50497 
230 1.56872 0.814007 1.19065 0.375186 0 0 0 1.90295 -3.51151 -0.54998 
402 1.95158 1.39057 1.18269 0.365176 0 0 0 -1.92932 -6.34684 17.6045 
61 2.0614 1.43225 1.48035 0.347745 0 0 0 -1.14367 -1.58243 0.680917 
305 2.1485 1.42894 1.51639 0.368187 0 0 0 -0.452894 -0.69037 -0.938688 
89 2.19201 1.4391 1.48267 0.378193 0 0 0 -0.209298 -1.02967 0.25759 
363 1.70563 1.42057 1.51278 0.263075 0 0 0 1.53746 23.0544 -69.0718 
500 2.10569 1.32174 1.88393 0.412452 0 0 0 -1.33961 1.80835 -6.18321 
355 2.35839 0.184456 1.86312 0.634468 0 0 0 0.366734 -1.07692 1.05963 
381 3.11612 1.01979 2.35073 0.739095 0 0 0 1.30335 -0.262186 0.688336 
331 2.87923 0.0788109 2.06589 0.792851 0 0 0 1.08627 -1.15039 0.611428 
364 1.76963 0.735982 2.1603 0.517311 0 0 0 -0.565367 2.08265 -2.76982 
456 2.33967 1.28734 1.85279 0.452111 0 0 0 -0.0220614 -0.0186924 -0.568029 
334 2.8487 0.65064 1.56622 0.619734 0 0 0 1.61382 -0.52613 0.796445 
379 2.85971 0.751269 2.16119 0.662738 0 0 0 0.956919 -0.296369 0.716265 
357 2.7917 1.1106 1.69074 0.555738 0 0 0 1.47411 -0.156892 0.974818 
349 2.50806 1.06994 1.68912 0.485856 0 0 0 1.04775 -0.242777 1.07396 
338 2.91328 1.04907 1.57017 0.592007 0 0 0 1.6915 -0.0901207 0.716241 
339 2.60637 0.208209 1.78259 0.663657 0 0 0 0.880218 -1.09933 0.930312 
340 2.03196 0.919069 1.73825 0.427772 0 0 0 0.609834 2.04156 -2.76081 
380 2.25571 1.36196 2.17207 0.492287 0 0 0 -0.922281 0.227032 -1.48848 
356 2.53184 0.904635 2.01939 0.548951 0 0 0 0.229582 -0.0732399 0.595372 
359 2.00327 -0.096047 2.15981 0.722345 0 0 0 0.00872734 -1.20844 0.524015 
344 2.80141 -0.0437749 2.11852 0.816013 0 0 0 0.909431 -1.29319 0.606318 
348 3.04076 1.33757 1.60003 0.619054 0 0 0 1.74326 -0.105231 0.435819 
346 1.58773 0.374971 1.94495 0.544623 0 0 0 0.0740086 0.361063 0.0552001 
354 2.04635 0.843227 1.58868 0.422712 0 0 0 2.33693 1.06438 -0.59299 
368 2.37677 0.682568 2.36623 0.614731 0 0 0 -0.272405 0.0967611 0.0448986 
366 1.71032 1.38228 2.04885 0.405725 0 0 0 -1.48491 7.06216 -20.3537 
371 2.18583 0.971471 2.33558 0.551661 0 0 0 -0.951583 0.813118 -1.29553 
377 1.74602 1.18742 1.97104 0.407237 0 0 0 -1.22705 7.54293 -18.0353 
360 1.90747 0.404477 2.3254 0.616732 0 0 0 -0.290954 0.209374 -0.467834 
361 2.15682 1.26106 2.27567 0.509607 0 0 0 -1.325 0.772358 -2.22137 
335 2.54275 0.223584 1.52696 0.631492 0 0 0 1.20218 -1.1683 0.995491 
384 1.99729 -0.0776339 2.77942 0.849445 0 0 0 0.0754451 -0.817641 0.466717 
376 2.66834 0.594173 2.77916 0.779061 0 0 0 0.37016 -0.26763 0.787271 
375 2.39585 0.989106 2.70504 0.665022 0 0 0 -0.36435 0.253902 0.190172 
362 2.50173 1.42621 2.86667 0.696428 0 0 0 -0.126963 -0.207792 0.712507 
126 1.54709 0.230959 2.44275 0.669908 0 0 0 0.190596 -0.0431289 -0.289624 
383 3.11738 1.16306 2.83543 0.835522 0 0 0 1.03589 -0.27595 0.893781 
365 2.9694 -0.0926724 2.52754 0.942723 0 0 0 0.96465 -1.11934 0.625856 
374 2.49303 0.362289 2.5845 0.739403 0 0 0 0.163726 -0.518936 0.603528 
367 2.83511 -0.095213 2.44692 0.894592 0 0 0 0.828554 -1.20571 0.631792 
382 2.46012 0.611974 2.90139 0.779645 0 0 0 0.00276503 -0.096011 0.703877 
369 2.63777 0.58011 2.64824 0.739165 0 0 0 0.331697 -0.275986 0.688787 
373 2.14105 0.726531 2.45078 0.603868 0 0 0 -0.651313 0.594319 -0.680591 
406 2.09112 2.16897 0.430837 0.611265 0 0 0 -1.0655 -1.43415 0.481047 
386 2.0284 2.99122 0.371051 0.772703 0 0 0 -0.203152 0.49982 -0.469325 
387 2.72329 1.69898 0.609382 0.620609 0 0 0 0.12537 -0.13928 -0.670039 
408 1.85314 2.49566 0.317939 0.670081 0 0 0 -0.440766 -0.943487 0.185391 
389 2.18616 3.05826 0.42831 0.790714 0 0 0 -0.0941008 0.69583 -0.557214 
390 2.98317 1.77901 0.535158 0.707929 0 0 0 0.8499 -0.129286 -0.779542 
391 2.11536 1.83162 0.648477 0.532528 0 0 0 -2.13311 -1.78888 1.75405 
403 2.5459 2.18679 0.119719 0.751348 0 0 0 -0.075445 -0.41147 -0.815096 
393 2.66093 2.28842 0.183068 0.7642 0 0 0 0.173615 -0.246747 -0.873352 
405 2.78811 3.02173 -0.121108 1.01931 0 0 0 0.448673 0.483317 -0.802753 
395 1.81381 2.31843 0.625904 0.567287 0 0 0 -0.974999 -2.06634 1.31375 
396 2.10804 2.72738 0.663083 0.647387 0 0 0 -0.447567 -0.0233289 -0.398826 
397 2.16783 2.01056 -0.00250659 0.73013 0 0 0 -0.55179 -0.808949 -0.32696 
407 3.03609 2.65996 0.0661406 0.941518 0 0 0 0.752086 0.242105 -0.877942 
399 2.55634 2.07553 0.339483 0.678295 0 0 0 -0.217672 -0.510673 -0.662346 
400 3.03866 3.09633 0.0948086 1.03121 0 0 0 0.703316 0.615634 -0.726267 
404 2.54911 1.82913 0.135103 0.717733 0 0 0 -0.227237 -0.383353 -0.795869 
392 1.64899 1.70201 1.30208 0.31374 0 0 0 -4.39369 -24.5573 61.7428 
347 1.74969 2.5856 1.44171 0.482405 0 0 0 -0.442339 0.909044 -1.16967 
470 3.18033 2.73685 1.51285 0.77733 0 0 0 1.36502 0.545223 -0.283492 
412 2.83895 2.70486 0.904633 0.719793 0 0 0 0.791079 0.476936 -0.695035 
413 2.99686 2.31763 1.18363 0.663643 0 0 0 1.32583 -0.0831179 -0.625397 
414 2.35624 1.78558 1.13988 0.461765 0 0 0 -0.74213 -1.47697 0.0407714 
415 2.1873 1.95171 0.959634 0.482596 0 0 0 -2.14005 -2.22295 1.05718 
416 1.76813 2.56766 1.21183 0.503754 0 0 0 -0.959929 -0.469315 -0.755589 
454 1.96176 3.07034 1.40585 0.634752 0 0 0 -0.187833 1.48752 -0.880986 
427 1.90156 2.97811 1.41373 0.600578 0 0 0 -0.275443 1.393 -1.01348 
419 3.09086 2.31628 1.28366 0.685427 0 0 0 1.47356 -0.0908054 -0.502442 
457 2.18048 2.18527 1.39275 0.445661 0 0 0 0.66446 -0.848688 -0.804481 
411 1.77754 1.49711 1.51758 0.279064 0 0 0 -3.50501 -3.86757 0.148591 
422 2.52327 1.82722 0.892716 0.53417 0 0 0 -0.48851 -0.711683 -0.445566 
423 2.22281 3.17064 1.41836 0.692845 0 0 0 0.211834 1.49872 -0.625271 
424 1.98908 2.69972 0.785546 0.609121 0 0 0 -0.64464 -0.213526 -0.311738 
425 2.52502 2.65947 0.978219 0.634301 0 0 0 0.284966 0.379796 -0.819751 
426 2.16556 2.22827 1.02762 0.500696 0 0 0 -1.39627 -1.51879 -0.245683 
446 2.15404 1.47217 1.43061 0.370648 0 0 0 -0.758532 -2.0782 2.30948 
441 3.15008 2.03261 1.39372 0.670916 0 0 0 1.6853 -0.393194 -0.321675 
429 2.28301 3.01718 0.830941 0.710768 0 0 0 -0.0175296 0.880801 -0.6455 
430 3.24665 2.98694 1.29672 0.866166 0 0 0 1.22318 0.801647 -0.328424 
449 2.29124 2.24049 1.41349 0.472485 0 0 0 0.979873 -0.238274 -1.01198 
388 1.59812 2.19685 1.01814 0.463191 0 0 0 -1.12517 -4.52464 4.55064 
433 2.03728 1.73803 1.21702 0.390808 0 0 0 -3.06219 -5.99407 9.0725 
434 1.60082 2.73668 1.06616 0.558628 0 0 0 -0.646781 -0.104369 -0.507375 
432 2.37388 1.88405 1.34991 0.447539 0 0 0 0.877447 -1.55975 -0.547269 
436 3.01036 2.09203 0.843112 0.681812 0 0 0 1.07791 -0.223426 -0.688403 
437 2.84619 1.57156 0.966141 0.587292 0 0 0 0.940968 0.077504 -0.585478 
438 2.85549 2.16438 1.42914 0.589199 0 0 0 1.62873 -0.368418 -0.503887 
439 3.06984 3.26361 1.23339 0.897854 0 0 0 0.949554 1.11242 -0.325501 
440 2.10109 2.0154 0.939845 0.483861 0 0 0 -2.34453 -2.61685 1.55995 
458 2.1452 2.40779 1.42054 0.480221 0 0 0 0.452099 0.375877 -1.04743 
464 2.20089 2.07552 1.39205 0.431481 0 0 0 0.776343 -1.57512 -0.489602 
443 2.5877 1.94946 2.09055 0.535519 0 0 0 1.2274 -0.883268 1.06617 
444 2.84859 1.46505 1.86655 0.570206 0 0 0 1.47545 -0.495901 0.74102 
445 2.81526 2.21551 2.12929 0.614386 0 0 0 1.2189 -0.376564 0.618593 
310 1.78293 2.08928 1.76574 0.364644 0 0 0 2.92994 1.76756 -0.104242 
372 1.61022 2.19642 1.81033 0.377704 0 0 0 0.390841 3.5285 0.842895 
296 2.37675 1.99588 1.7502 0.454788 0 0 0 2.7315 -0.912969 0.691345 
471 1.98873 1.90614 1.68088 0.358623 0 0 0 3.68324 -2.27068 -0.855856 
450 2.67999 1.85887 1.96779 0.537544 0 0 0 1.57149 -0.979903 0.850275 
182 1.64285 1.88949 1.64867 0.302926 0 0 0 0.632279 1.13997 2.03379 
452 2.1188 2.90997 1.68517 0.59222 0 0 0 0.466526 1.44555 -0.398891 
453 1.56027 2.45094 2.19981 0.487032 0 0 0 0.354 0.827499 2.32812 
469 2.08406 1.70843 2.05621 0.431067 0 0 0 0.0260209 -0.355387 -3.08896 
343 2.09717 1.70348 1.57754 0.360074 0 0 0 0.921816 -3.60654 0.049155 
481 2.16302 2.25177 1.79843 0.451734 0 0 0 2.75718 0.771765 1.11108 
467 1.86345 2.6493 1.66668 0.495959 0 0 0 0.528562 1.84501 -0.479484 
378 1.78867 2.33534 1.81544 0.420983 0 0 0 1.83527 2.73107 1.37884 
459 3.15663 2.7618 2.17728 0.803688 0 0 0 1.33111 0.599002 0.259743 
277 1.76727 1.99982 1.70694 0.340647 0 0 0 3.00547 0.914995 -1.08514 
461 1.65114 2.97998 1.71221 0.580966 0 0 0 -0.214549 1.91987 -0.769155 
263 1.87893 1.99472 1.72044 0.355842 0 0 0 3.87647 -0.294745 -0.870136 
261 1.68404 1.99278 1.69119 0.329299 0 0 0 1.71234 1.80498 -0.604265 
176 1.90639 1.54436 1.53657 0.311144 0 0 0 -2.19483 -3.76131 0.588783 
465 1.96042 2.96193 1.89533 0.59778 0 0 0 0.441379 1.5593 0.0162225 
466 2.24247 3.2713 1.79524 0.726832 0 0 0 0.41927 1.62691 -0.194175 
319 2.24974 1.91454 1.63878 0.41173 0 0 0 2.9168 -1.83141 0.106573 
478 2.18733 3.04935 2.25826 0.683235 0 0 0 0.539367 1.21413 0.572482 
484 1.90492 2.64751 2.31714 0.562309 0 0 0 0.647538 0.489758 1.45393 
187 2.1303 2.09995 1.70539 0.413706 0 0 0 3.45124 -0.361985 0.63069 
509 3.29296 2.84291 2.26144 0.875193 0 0 0 1.37374 0.653909 0.3296 
488 2.31765 1.87768 1.72535 0.429169 0 0 0 2.7826 -1.52853 0.405946 
492 2.70859 2.30871 2.28735 0.62086 0 0 0 0.893967 -0.213807 0.823925 
494 2.94686 2.34984 2.28063 0.684458 0 0 0 1.18417 -0.12725 0.575892 
504 2.87671 1.94561 2.27657 0.631951 0 0 0 1.10361 -0.739903 0.756485 
199 1.89314 1.96045 1.70229 0.351185 0 0 0 3.89576 -0.926795 -1.12835 
120 1.67258 1.96379 1.67438 0.321486 0 0 0 1.45946 1.53516 -0.00795692 
442 2.28183 1.6774 1.7112 0.410209 0 0 0 1.68399 -1.59527 -0.505247 
498 2.04613 1.55965 1.97781 0.409445 0 0 0 -0.910791 1.08473 -7.1465 
487 1.91916 2.03369 2.33112 0.488955 0 0 0 0.0326547 -0.698242 0.224924 
209 2.03145 1.70591 1.5911 0.345967 0 0 0 0.866279 -3.84934 -0.484672 
36 2.10177 2.14084 1.7225 0.416342 0 0 0 3.4068 0.0970881 0.774095 
191 1.67811 1.96818 1.67706 0.323022 0 0 0 1.57687 1.52201 -0.15004 
417 2.33713 2.53507 1.7657 0.533532 0 0 0 1.30014 0.973338 0.259034 
451 2.99113 2.22371 1.53029 0.63345 0 0 0 1.65106 -0.275957 -0.312233 
259 1.58513 1.88707 1.64908 0.297928 0 0 0 -0.810229 2.34851 2.43866 
463 1.58447 1.95968 1.66738 0.313832 0 0 0 -0.643915 2.58972 1.31802 
307 1.54447 1.74374 1.60345 0.263562 0 0 0 -2.46946 3.23948 0.80764 
220 1.54374 1.74204 1.60278 0.263121 0 0 0 -2.49382 3.23962 0.764096 
496 2.03147 2.50601 2.78624 0.657583 0 0 0 0.0310411 -0.181215 1.52991 
472 2.0747 1.79642 2.63684 0.574764 0 0 0 -0.779226 -0.595593 -0.0763597 
473 1.75626 1.5959 2.58877 0.549216 0 0 0 -1.17774 0.121215 -2.34774 
474 2.95854 3.17647 2.68346 0.934251 0 0 0 0.901271 1.04183 0.755759 
497 1.61663 1.94128 2.57965 0.539007 0 0 0 -0.635618 -1.02516 -0.520543 
502 2.22662 2.57159 2.71503 0.667082 0 0 0 0.220398 0.0468213 1.38665 
477 3.17713 2.0138 2.59478 0.781976 0 0 0 1.29712 -0.453759 0.857112 
513 2.63016 3.02979 3.05944 0.919994 0 0 0 0.557671 0.80513 1.277 
479 1.80985 1.75127 2.417 0.498561 0 0 0 -1.15685 -0.356627 -2.63208 
501 1.65361 2.45381 3.00117 0.698247 0 0 0 -0.144871 -0.376347 1.73341 
503 2.03372 3.1535 2.47845 0.734323 0 0 0 0.328413 1.26103 0.849399 
482 1.57532 3.16057 3.12964 0.875846 0 0 0 0.0454238 0.862652 1.4957 
511 3.00814 2.13235 2.41307 0.702009 0 0 0 1.18574 -0.463521 0.754314 
510 2.10249 2.54653 2.61071 0.623519 0 0 0 0.225987 -0.0462916 1.38353 
508 2.62305 1.96044 3.05691 0.772118 0 0 0 0.28278 -0.409099 1.38037 
505 3.15567 2.91939 3.22206 1.06051 0 0 0 0.887146 0.587057 1.13087 
499 1.80691 1.78436 2.91322 0.645104 0 0 0 -0.705556 -0.515534 0.136831 
495 2.94831 1.72933 2.79659 0.758139 0 0 0 0.82713 -0.506831 1.07246 
489 3.12956 1.50361 3.00017 0.868007 0 0 0 0.959262 -0.334792 1.04645 
490 2.37284 2.40854 2.58346 0.629824 0 0 0 0.304749 -0.181174 1.22528 
491 2.27434 1.49882 2.74564 0.629949 0 0 0 -0.618197 -0.160336 0.104058 
506 1.97648 2.06883 3.04671 0.700276 0 0 0 -0.385158 -0.559216 1.21412 
493 3.07267 3.01074 2.79146 0.943091 0 0 0 1.00009 0.817251 0.886017 
480 2.35966 2.25058 2.39424 0.569218 0 0 0 0.406869 -0.38714 1.22441 
ITEM: TIMESTEP
800976
ITEM: NUMBER OF ATOMS
512
ITEM: BOX BOUNDS ss ss ss
-2.2775349561678951e-01 3.2932607586404616e+00
-4.0122540508749138e-01 3.2891132425832117e+00
-1.7039273299291779e-01 3.2223573019164853e+00
ITEM: ATOMS id x y z width_SPH x_COM y_COM z_COM vx vy vz 
23 0.539285 1.16104 0.372783 0.613015 0 0 0 0.63379 -0.0976639 -0.570001 
3 -0.140327 -0.124431 0.0939763 1.0357 0 0 0 -1.01066 -0.934141 -0.881359 
4 1.1215 0.71024 0.265512 0.622552 0 0 0 0.00934946 0.209766 -1.02937 
5 0.225459 1.27088 -0.0393987 0.782508 0 0 0 -0.197425 -0.301983 -0.966516 
6 0.0115285 1.14394 0.376961 0.727351 0 0 0 -0.76222 -0.26803 -0.705398 
22 0.128622 1.05029 0.0596027 0.785115 0 0 0 -0.507386 -0.424322 -0.970678 
8 0.686461 0.733456 -0.0391926 0.747512 0 0 0 0.0953244 -0.433161 -1.18306 
9 1.3567 -0.24185 0.263496 0.804203 0 0 0 -0.298905 -1.18641 -1.40898 
10 -0.0863134 -0.263403 0.0260474 1.0737 0 0 0 -0.93198 -0.985741 -0.901919 
11 0.920703 1.15036 -0.0285242 0.696436 0 0 0 0.752233 -0.165358 -0.435125 
12 0.461885 1.343 0.164186 0.674423 0 0 0 0.502728 -0.204184 -0.606964 
13 0.278631 -0.299306 0.200455 0.957904 0 0 0 -0.806315 -1.14364 -1.01853 
14 0.972035 1.22081 0.390067 0.568524 0 0 0 1.27038 0.142462 0.812696 
15 1.08249 0.66997 0.304811 0.617963 0 0 0 -0.067917 0.142874 -1.16073 
16 0.612758 -0.235824 0.244744 0.869623 0 0 0 -0.630673 -1.1666 -1.2039 
17 0.878271 0.25389 0.00523306 0.783179 0 0 0 -0.29862 -0.660974 -1.49786 
18 0.562192 0.565604 0.356096 0.67312 0 0 0 -0.327168 -0.544916 -1.23565 
274 1.4895 1.31442 0.568075 0.508711 0 0 0 -0.206584 -0.281942 4.84883 
20 0.679388 0.94068 0.297783 0.628463 0 0 0 0.463983 -0.143641 -0.766471 
62 1.19143 1.02676 0.635982 0.499498 0 0 0 0.00571112 0.577689 1.37844 
50 0.549989 -0.381027 0.627226 0.850631 0 0 0 -0.738674 -1.36616 -0.856499 
31 -0.0666955 1.19079 0.657987 0.69483 0 0 0 -0.999892 -0.0999582 -0.584649 
44 0.384568 0.857338 0.611348 0.611978 0 0 0 -0.317974 -0.373769 -1.12028 
24 1.01877 -0.21378 1.39568 0.679353 0 0 0 -0.124012 -1.69284 0.603263 
353 1.43469 1.07796 1.35086 0.306615 0 0 0 -0.477912 -3.56871 0.636717 
26 -0.135933 1.02548 1.49494 0.658912 0 0 0 -1.52791 0.088023 0.061232 
27 0.398739 1.14913 0.832393 0.54623 0 0 0 -0.0929826 0.0261756 -1.24837 
28 0.947158 0.225002 1.38726 0.550772 0 0 0 -0.881569 -1.47364 0.742541 
91 0.800645 1.12867 1.21354 0.410232 0 0 0 -0.998793 -0.84859 -0.341447 
303 1.47401 1.06098 1.34496 0.308977 0 0 0 0.971348 -3.79455 0.771598 
65 0.669837 0.471785 1.33838 0.530128 0 0 0 -1.15565 -1.29716 0.0919435 
32 0.390329 -0.347394 1.28432 0.809108 0 0 0 -0.778116 -1.47595 -0.132814 
33 0.747584 -0.211894 1.15272 0.709652 0 0 0 -0.599509 -1.55106 -0.195166 
173 0.936227 0.960758 1.29479 0.396881 0 0 0 -3.46753 -1.14487 -0.81105 
35 1.49751 0.0185882 0.818716 0.616274 0 0 0 -0.421814 -1.4179 -1.15817 
21 1.50709 1.44184 1.49138 0.220517 0 0 0 0.244408 1.59172 0.626516 
154 1.32469 1.31545 1.43485 0.268891 0 0 0 1.65037 2.35792 -4.96361 
38 0.219854 1.02869 0.800813 0.601114 0 0 0 -0.640082 -0.16968 -1.01707 
39 -0.227454 0.894409 1.43968 0.703331 0 0 0 -1.58736 -0.0297126 -0.0849082 
2 1.14969 0.675247 1.21354 0.426024 0 0 0 -4.14306 -2.31414 -1.38043 
351 0.859147 1.19146 1.32514 0.381096 0 0 0 -0.728113 -0.464109 0.443795 
42 0.799967 1.37177 1.32996 0.382827 0 0 0 0.81899 -0.146141 1.05492 
195 1.40658 0.79988 1.18838 0.381446 0 0 0 -2.1415 -3.62159 -0.893507 
318 1.4922 1.06871 1.34922 0.306647 0 0 0 1.80126 -3.84446 0.633745 
45 0.998557 0.224033 1.32982 0.545671 0 0 0 -1.04178 -1.56828 0.53712 
46 0.610449 0.267939 0.790688 0.635115 0 0 0 -0.974973 -0.894112 -1.36008 
47 1.21212 0.915317 0.835746 0.454217 0 0 0 -1.73108 -0.485261 0.98795 
48 0.526622 0.788823 1.37475 0.498782 0 0 0 -1.05292 -1.06539 0.036321 
250 1.49186 1.08594 1.35641 0.302454 0 0 0 1.96526 -3.83451 0.346129 
79 1.49622 1.36941 1.46082 0.233519 0 0 0 3.64234 0.75847 0.553186 
51 0.476674 1.30496 0.949276 0.506037 0 0 0 0.169112 0.221642 -1.3358 
52 1.29203 0.226359 1.31754 0.525362 0 0 0 -0.907497 -1.91139 0.784898 
53 -0.0398807 0.626634 1.25893 0.678802 0 0 0 -1.45044 -0.441307 -0.414646 
54 1.02301 -0.400926 1.42876 0.747459 0 0 0 0.00503367 -1.74378 0.513747 
385 1.48524 1.28967 1.43147 0.252411 0 0 0 3.42375 -2.10532 0.493345 
56 1.27652 0.103597 1.02254 0.574013 0 0 0 -0.869726 -1.66905 -0.734857 
178 0.995019 1.43603 1.45857 0.329987 0 0 0 2.91035 1.35598 0.624076 
115 1.50525 1.15042 1.37639 0.287016 0 0 0 3.09565 -4.38332 0.778734 
59 0.618221 0.602606 1.24067 0.517389 0 0 0 -1.31684 -1.26838 -0.59607 
124 1.46275 1.03847 1.3335 0.314948 0 0 0 0.308022 -3.79333 1.08176 
306 1.50773 -0.28586 0.765567 0.723844 0 0 0 -0.127735 -1.60429 -0.682449 
64 0.863756 -0.33905 1.3046 0.736467 0 0 0 -0.275691 -1.69422 0.221012 
119 1.46934 1.29804 1.43364 0.251084 0 0 0 3.24159 -1.66895 0.902912 
313 1.06026 1.33633 1.41901 0.322544 0 0 0 1.09837 0.947124 2.21131 
149 1.36226 1.21564 1.35164 0.287126 0 0 0 -1.32908 -1.55293 -0.81094 
179 1.27092 0.655452 1.19794 0.420357 0 0 0 -3.49669 -2.75732 -1.57724 
106 1.48397 1.28129 1.42805 0.254529 0 0 0 3.33207 -2.41599 0.655748 
322 1.48977 1.08077 1.35422 0.303748 0 0 0 1.82427 -3.82891 0.433792 
19 1.48534 0.423853 1.00494 0.484892 0 0 0 -0.852796 -1.86257 -1.91704 
512 1.49418 1.3562 1.4562 0.236442 0 0 0 3.67123 0.312599 0.470317 
301 0.930608 1.30713 1.40803 0.352103 0 0 0 0.844293 0.69607 0.473312 
214 1.39941 0.983965 1.30052 0.332291 0 0 0 -2.34847 -3.66486 1.32734 
77 0.453289 1.43621 1.29507 0.467503 0 0 0 -0.729833 0.322793 -0.756533 
358 0.802634 1.13455 1.1541 0.418094 0 0 0 -0.81169 -0.815719 -0.341114 
81 0.658636 0.594061 1.15419 0.517894 0 0 0 -1.43279 -1.24589 -1.06386 
71 0.654127 1.22741 1.34848 0.421631 0 0 0 -0.472626 -0.274524 -0.366812 
329 0.872553 1.19711 1.34631 0.376297 0 0 0 -0.664136 -0.284372 0.350787 
57 1.51229 0.644712 1.18741 0.412429 0 0 0 -0.122433 -3.05667 -1.62645 
122 1.21657 0.673198 1.20291 0.420711 0 0 0 -3.9811 -2.58505 -1.52541 
74 0.974811 0.845294 1.26176 0.411886 0 0 0 -4.06685 -1.59233 -1.05778 
228 1.1961 1.41563 1.46551 0.285852 0 0 0 3.66151 1.69273 2.54574 
198 0.988597 1.43717 1.45868 0.331367 0 0 0 2.87841 1.25718 0.754324 
165 1.3282 0.926642 1.25837 0.353435 0 0 0 -4.30439 -3.5096 0.956348 
101 1.00028 1.23476 1.37484 0.3457 0 0 0 -1.00837 0.365388 1.16487 
82 0.91422 0.731786 1.19891 0.446421 0 0 0 -3.04141 -1.67028 -1.19383 
229 1.43794 1.01784 1.32157 0.321261 0 0 0 -0.817374 -3.73934 1.2578 
66 0.077915 -0.209389 2.31731 0.901786 0 0 0 -0.687969 -1.05208 0.580833 
67 0.89659 0.389783 1.98979 0.568992 0 0 0 0.535162 -0.0874067 0.63782 
68 1.03628 0.897855 1.78786 0.431444 0 0 0 0.893007 2.98618 -4.25712 
95 0.398485 -0.0108999 2.10984 0.741993 0 0 0 -0.249945 -0.999986 0.679918 
70 0.43186 1.36488 2.12842 0.53468 0 0 0 0.501959 -0.113964 0.72698 
88 0.0603638 0.335405 2.25425 0.754693 0 0 0 -0.785911 -0.437366 0.780303 
55 0.179155 0.110084 1.56622 0.715515 0 0 0 -0.990375 -1.03049 0.129726 
63 0.0687011 1.42391 1.57716 0.574448 0 0 0 -1.32728 0.122363 0.333602 
87 -0.124822 0.602197 1.97093 0.726214 0 0 0 -1.23338 -0.227814 0.586442 
75 0.134232 1.38274 2.08425 0.597902 0 0 0 -0.600561 -0.111097 0.927915 
86 1.52819 0.49428 1.73489 0.483928 0 0 0 0.0889276 0.601433 0.00439074 
90 0.77249 1.18916 2.00602 0.467511 0 0 0 2.16493 1.0864 -1.69305 
78 0.397217 -0.00262767 2.21456 0.75524 0 0 0 -0.216508 -0.931591 0.705685 
113 0.977997 1.35999 2.061 0.439923 0 0 0 2.96963 2.54501 -6.73401 
93 0.811337 0.804859 2.0233 0.511044 0 0 0 1.24664 0.892038 -0.290541 
92 0.38802 0.389796 1.87057 0.619934 0 0 0 -0.311906 -0.6302 0.888681 
108 1.18119 0.815738 2.12938 0.500498 0 0 0 1.03673 2.73469 -3.26129 
83 0.717759 1.15514 1.91969 0.462906 0 0 0 1.76405 0.737013 -0.786638 
84 0.247415 0.0622383 2.16075 0.758664 0 0 0 -0.490208 -0.857552 0.680792 
96 1.42755 0.839292 1.89151 0.437828 0 0 0 0.310943 5.24107 -7.87275 
127 1.45838 0.64288 2.04465 0.504506 0 0 0 0.179296 2.32784 -2.51007 
34 -0.00994753 0.530523 1.66397 0.680596 0 0 0 -1.25689 -0.447015 0.292406 
60 0.616718 0.958431 1.89368 0.496539 0 0 0 0.906056 0.186399 0.694865 
25 1.06932 0.282781 1.6188 0.537637 0 0 0 -0.33238 -0.973983 1.42412 
76 0.569501 0.905028 1.57236 0.476952 0 0 0 -0.410874 -0.726924 0.959429 
94 0.548015 0.812212 1.57409 0.494659 0 0 0 -0.474164 -0.799157 1.01573 
37 0.451648 1.06436 1.55401 0.483797 0 0 0 -0.715188 -0.372694 0.801573 
49 -0.225091 0.992379 1.53528 0.693611 0 0 0 -1.56994 0.0719867 0.0721458 
125 1.09267 1.35856 2.31578 0.494749 0 0 0 1.87392 1.87915 -4.76155 
370 1.52837 0.876182 2.34622 0.53546 0 0 0 -0.114125 2.66178 -3.73591 
121 1.2299 0.0557187 2.56175 0.739895 0 0 0 0.420607 -0.463418 0.18891 
97 0.741253 0.963633 2.6719 0.641807 0 0 0 0.791073 0.769509 -0.0276233 
98 0.311902 1.033 2.82434 0.738882 0 0 0 -0.0618711 0.189119 0.942227 
99 0.716605 0.0242853 2.58279 0.779044 0 0 0 0.238128 -0.65058 0.651582 
100 0.647803 0.403616 2.84607 0.77345 0 0 0 0.21813 0.0516041 0.748554 
128 0.383362 1.44118 2.49723 0.615765 0 0 0 0.291515 -0.114644 0.746947 
131 0.549717 1.23793 2.93584 0.721722 0 0 0 0.375432 0.238881 0.767589 
103 1.03332 0.516065 2.74005 0.695681 0 0 0 0.557458 0.579627 -0.008723 
130 1.37066 0.465208 2.56845 0.65114 0 0 0 0.363663 0.736516 -0.682317 
114 1.06693 0.880373 2.58087 0.60421 0 0 0 0.894333 1.47519 -1.26366 
129 0.50815 0.0503811 3.07878 0.938566 0 0 0 -0.0944029 -0.452565 0.926439 
116 -0.0918022 0.828692 2.48471 0.768906 0 0 0 -0.926291 -0.00656197 0.912696 
117 -0.112806 0.373907 2.52757 0.849196 0 0 0 -0.963991 -0.312897 0.858363 
109 0.427185 0.944433 3.03849 0.793867 0 0 0 0.045989 0.256791 0.963264 
110 0.486302 -0.255055 2.78202 0.93817 0 0 0 -0.121558 -0.936635 0.764154 
123 1.28798 1.23655 2.37886 0.511357 0 0 0 0.834444 2.64139 -5.32587 
112 1.16532 0.424951 2.80165 0.724466 0 0 0 0.467812 0.431174 0.0413335 
162 0.457142 2.5951 0.566884 0.691736 0 0 0 -0.198971 0.795867 -0.433682 
132 0.66222 2.53027 0.217891 0.732798 0 0 0 0.175172 0.271928 -0.33546 
133 0.0922414 1.78605 0.558716 0.665836 0 0 0 -0.455894 0.139868 -0.50416 
134 0.162153 2.01557 0.242431 0.736258 0 0 0 -0.340423 0.197161 -0.58983 
135 1.32373 2.40949 0.446198 0.616066 0 0 0 0.357554 -1.41328 1.05041 
136 1.10481 2.57107 0.555833 0.622616 0 0 0 0.397439 -0.469666 0.464805 
137 0.0490388 2.5059 0.614628 0.758153 0 0 0 -0.885984 0.864004 -0.494768 
138 0.513595 2.21214 0.0647123 0.74566 0 0 0 0.264217 0.00926411 -0.511835 
139 0.291598 2.24804 0.292717 0.722671 0 0 0 -0.186677 0.334722 -0.526089 
140 0.883334 2.73443 0.162878 0.770974 0 0 0 0.129503 0.361196 -0.290005 
141 -0.0439137 2.3866 0.160642 0.863759 0 0 0 -0.835623 0.588498 -0.612645 
142 1.45321 2.54109 0.575777 0.605432 0 0 0 -0.0152706 -1.15817 0.848435 
143 1.27571 2.91643 0.597735 0.687648 0 0 0 -0.0928343 0.53305 -0.00196115 
160 0.794612 3.07601 0.428215 0.804012 0 0 0 -0.207687 1.16476 -0.290244 
145 0.49542 2.00223 0.0139409 0.74095 0 0 0 0.384898 -0.140999 -0.55136 
146 1.33715 2.00137 0.341047 0.601082 0 0 0 0.654432 -2.10932 2.1055 
147 0.766194 1.82077 0.226306 0.636295 0 0 0 1.1953 -0.680031 0.317588 
148 1.26681 3.02295 0.252031 0.799049 0 0 0 -0.0618122 0.640632 -0.233337 
156 0.0923363 1.95726 0.419738 0.705677 0 0 0 -0.50351 0.219994 -0.514308 
150 1.0832 1.84154 0.514006 0.549523 0 0 0 1.65375 -2.03898 2.64022 
155 0.802647 1.62672 0.139302 0.650624 0 0 0 1.20366 -0.523904 0.232107 
161 1.3747 2.00684 0.411123 0.582787 0 0 0 0.554475 -2.40398 2.5374 
159 0.0392306 1.48546 -0.0352869 0.821635 0 0 0 -0.532877 -0.159728 -0.891087 
170 1.13968 2.09624 1.09394 0.440553 0 0 0 1.4661 -3.77863 4.57842 
163 0.51282 2.85754 0.715428 0.721362 0 0 0 -0.362546 1.26008 -0.434118 
202 0.614149 2.0095 1.00203 0.503112 0 0 0 1.10006 -0.139534 -1.05799 
167 0.867397 1.79174 1.05681 0.436405 0 0 0 2.5609 -1.83454 2.5676 
225 1.49735 1.51636 1.51443 0.21752 0 0 0 -0.854924 -0.818166 -0.884934 
169 0.925708 1.73868 1.4307 0.356739 0 0 0 1.84702 -1.9483 4.92856 
201 -0.0238941 2.74169 0.921929 0.787358 0 0 0 -1.1016 1.15803 -0.493638 
171 0.344801 1.88397 1.315 0.51087 0 0 0 -0.752018 0.282542 -1.14343 
183 1.05568 1.45292 1.46249 0.315993 0 0 0 3.41776 1.60695 1.20709 
30 0.792086 1.64482 1.51741 0.376354 0 0 0 1.02655 0.0814006 0.162152 
174 0.206881 1.77876 1.03604 0.567113 0 0 0 -0.476464 0.230799 -1.02288 
210 1.50148 1.47892 1.50125 0.21735 0 0 0 0.565115 0.986605 0.146273 
157 1.18863 2.27084 1.02741 0.478472 0 0 0 0.927594 -2.54604 1.97862 
152 1.07996 2.08942 0.712458 0.523345 0 0 0 1.53882 -2.43133 2.37589 
314 1.50113 1.48138 1.50212 0.217252 0 0 0 0.470316 0.862592 0.0422856 
197 0.0748445 2.23525 1.08021 0.643441 0 0 0 -1.00234 0.595562 -0.809885 
180 0.421878 2.02562 1.49853 0.493812 0 0 0 -1.13637 0.339409 -0.727699 
181 0.627688 2.08579 1.41777 0.456516 0 0 0 -0.466681 0.710658 -1.41778 
428 1.18669 2.56475 1.42784 0.483301 0 0 0 -0.59823 1.18327 -1.622 
410 1.4991 1.48774 1.50438 0.217079 0 0 0 0.802587 0.609555 -0.0287561 
184 0.816889 2.82806 1.23689 0.603669 0 0 0 -0.226954 1.57108 -1.11906 
460 1.49413 1.50152 1.50837 0.217105 0 0 0 -0.273646 -0.0798488 -0.506001 
186 0.975643 2.81774 1.04021 0.60602 0 0 0 -0.0236882 1.00236 -0.639688 
196 0.570967 1.70122 1.47318 0.43214 0 0 0 -0.5535 0.191709 -0.178818 
188 0.309628 2.5385 1.32084 0.613258 0 0 0 -0.883852 1.28404 -1.11729 
200 0.952341 2.70818 1.14965 0.565976 0 0 0 0.0652706 0.959629 -1.03808 
190 0.811561 1.85976 1.03819 0.453608 0 0 0 2.21286 -1.24133 0.978841 
166 0.57832 1.64115 0.820064 0.51415 0 0 0 1.37963 -0.126788 -0.491454 
192 0.613365 2.06273 1.28737 0.468807 0 0 0 0.152357 0.522608 -1.66707 
193 1.11512 2.50091 1.38662 0.476141 0 0 0 -0.418179 0.868595 -1.52479 
203 1.49709 1.53529 1.52114 0.218904 0 0 0 -1.53148 -1.18486 -1.05282 
208 1.50103 1.48233 1.50246 0.217218 0 0 0 0.444087 0.810361 0.0089144 
41 1.49969 1.49087 1.50544 0.217018 0 0 0 0.111442 0.317049 -0.330664 
342 1.4981 1.50466 1.51029 0.217088 0 0 0 -0.412785 -0.393117 -0.696261 
164 1.49914 1.49496 1.50687 0.216989 0 0 0 -0.0432691 0.0838733 -0.460693 
40 1.49907 1.4955 1.50707 0.216988 0 0 0 -0.0639891 0.0540009 -0.476483 
219 1.49839 1.50152 1.50919 0.21703 0 0 0 -0.293109 -0.251467 -0.629601 
73 1.49777 1.50903 1.51184 0.21721 0 0 0 -0.57874 -0.57034 -0.776583 
43 0.805599 1.44796 1.3708 0.376499 0 0 0 1.30562 -0.0243998 1.27892 
418 1.50719 1.47294 1.49917 0.217693 0 0 0 -0.374737 0.847312 0.0293223 
158 1.23226 1.80441 1.1131 0.389207 0 0 0 1.38763 -9.688 21.284 
394 1.50446 1.48699 1.49865 0.21713 0 0 0 -0.30686 0.644069 -1.043 
107 1.49843 1.45725 1.49536 0.218852 0 0 0 1.73308 1.2804 2.59249 
215 0.540875 2.16283 1.63005 0.479713 0 0 0 -1.42838 0.603947 -0.340433 
447 1.39749 2.80307 2.23838 0.567393 0 0 0 -0.109982 1.2307 1.24136 
205 0.0357139 1.958 2.06486 0.630638 0 0 0 -1.35399 -0.385488 0.701844 
206 1.02526 2.47209 2.29805 0.52608 0 0 0 -0.784686 0.0757943 2.24096 
207 0.438849 2.84841 1.72196 0.64868 0 0 0 -0.970142 1.70347 -0.719287 
257 1.1462 1.73854 1.56929 0.308094 0 0 0 0.151587 1.36624 0.79121 
194 0.555397 1.94539 1.63956 0.452293 0 0 0 -1.32441 0.0737901 0.248985 
235 1.21548 2.18612 2.35238 0.493659 0 0 0 -0.515836 -1.03701 1.78993 
211 0.956352 2.92221 2.05614 0.605034 0 0 0 -0.719813 1.80984 0.0663358 
212 0.453134 2.60915 1.67387 0.582913 0 0 0 -1.16157 1.49543 -0.741525 
213 0.821559 1.77282 1.80143 0.397828 0 0 0 -0.215131 0.0120729 -1.25189 
242 0.400463 2.35909 2.29194 0.595598 0 0 0 -1.03597 -0.272329 1.1963 
231 0.848346 2.32006 2.12815 0.491556 0 0 0 -1.46655 0.000740776 2.18596 
216 1.16683 2.94849 2.0896 0.599367 0 0 0 -0.547796 1.81478 0.24552 
217 0.343205 2.85138 1.83538 0.671171 0 0 0 -1.07811 1.48816 -0.520563 
218 0.188137 2.60236 1.94756 0.653436 0 0 0 -1.42612 0.765564 -0.0978877 
468 0.852826 2.30966 1.85529 0.453563 0 0 0 -2.19995 1.12477 0.887592 
204 0.982451 2.13674 1.79705 0.400179 0 0 0 -3.11409 1.07101 0.489755 
221 0.781368 2.16855 1.99553 0.461676 0 0 0 -1.81786 -0.142153 1.89159 
222 0.874654 2.13024 1.82114 0.418687 0 0 0 -2.52255 0.607927 0.876332 
223 0.648263 1.75377 1.7334 0.42543 0 0 0 -0.647145 -0.244324 0.582383 
246 1.14636 1.78049 1.58 0.313138 0 0 0 -0.964844 1.31951 0.383135 
104 0.233992 1.55829 2.31381 0.6057 0 0 0 -0.273949 -0.332353 0.943846 
226 1.33009 3.06354 2.06162 0.626228 0 0 0 -0.383276 1.88234 0.0383685 
227 0.147304 1.58649 2.08044 0.590155 0 0 0 -0.738976 -0.333806 0.95772 
234 1.08919 1.775 1.6573 0.327882 0 0 0 -0.110644 5.13807 -13.7897 
238 1.01265 1.72344 1.58265 0.333682 0 0 0 1.23776 1.37739 -3.74715 
321 1.32126 2.33261 1.84131 0.409751 0 0 0 -2.19728 3.09489 1.05829 
475 0.852232 2.20785 1.83083 0.434528 0 0 0 -2.39338 0.831071 0.936053 
476 1.236 2.27059 2.3039 0.488502 0 0 0 -0.670192 -0.59176 2.2974 
189 0.782459 2.23929 1.56137 0.444168 0 0 0 -1.22516 1.24316 -1.12477 
239 1.34952 1.8979 1.62615 0.304185 0 0 0 -5.24231 3.48676 3.25036 
328 1.23901 2.61188 1.80516 0.480288 0 0 0 -1.13675 2.5566 -0.289684 
185 0.0296423 2.45809 1.54539 0.667551 0 0 0 -1.48893 0.759402 -0.529464 
337 1.08118 2.12646 1.79494 0.384858 0 0 0 -3.71968 1.54261 0.134531 
462 1.49401 3.28881 1.96819 0.696854 0 0 0 -0.327534 1.9614 -0.252644 
168 1.33187 1.8586 1.63154 0.298783 0 0 0 -4.91537 3.88035 2.86776 
247 1.21228 2.26016 1.82707 0.399112 0 0 0 -3.19431 2.6009 0.841953 
177 1.34233 2.09072 1.75653 0.350179 0 0 0 -4.10428 3.7739 -1.22959 
485 1.5067 2.80876 2.33204 0.583719 0 0 0 0.0956979 0.92901 1.3801 
264 1.37211 2.2453 1.827 0.387486 0 0 0 -2.45638 3.42762 0.951719 
69 1.40451 2.22361 1.82303 0.381678 0 0 0 -2.28884 3.58823 0.832523 
483 1.42128 2.31223 1.83497 0.40212 0 0 0 -1.57755 3.46079 1.19433 
350 1.439 2.29198 1.83174 0.397127 0 0 0 -1.51896 3.54182 1.19906 
249 0.81074 1.71806 2.34598 0.511764 0 0 0 1.12856 -0.642111 -0.195588 
420 1.11137 1.94425 1.68019 0.344426 0 0 0 -3.58166 1.60282 -2.54972 
240 1.42891 1.99381 1.67738 0.320756 0 0 0 -4.04897 3.9581 0.323389 
300 1.51917 1.67207 1.57346 0.245252 0 0 0 -3.20625 2.24007 -0.65422 
398 1.51864 1.67006 1.57264 0.244758 0 0 0 -3.21465 2.18952 -0.696222 
29 0.0998298 1.58839 1.57877 0.564951 0 0 0 -1.34125 0.0104505 0.251718 
224 1.11369 1.66991 1.54005 0.307841 0 0 0 2.25743 1.35864 0.488607 
111 0.951802 1.52522 1.75503 0.365739 0 0 0 2.94905 3.99085 -11.4168 
105 1.42239 1.7449 1.56869 0.264087 0 0 0 -3.21129 2.2962 8.88775 
172 1.02343 1.85688 1.56822 0.344259 0 0 0 -0.614665 -1.55425 3.58482 
153 1.36635 1.72333 1.67669 0.280189 0 0 0 -1.66227 12.4665 -21.7795 
341 1.49773 1.55245 1.52725 0.220827 0 0 0 -2.0692 -1.20994 -1.11515 
144 1.49738 1.55544 1.52766 0.221192 0 0 0 -2.02448 -1.23747 -0.916984 
332 1.49424 1.56548 1.53147 0.222691 0 0 0 -0.539312 -0.878919 -0.942039 
486 1.5315 1.94567 2.15281 0.420413 0 0 0 -0.552589 0.806509 -5.18578 
336 1.53234 1.71295 1.59081 0.255617 0 0 0 -2.86148 3.06625 0.0566527 
80 1.4976 1.55014 1.52643 0.220534 0 0 0 -2.00197 -1.2219 -1.11017 
232 0.492161 2.02196 2.69548 0.642609 0 0 0 -0.0745571 -0.8048 1.41709 
233 0.819151 1.89518 2.82464 0.638635 0 0 0 0.440478 -0.774792 1.02632 
255 -0.0545531 2.84034 2.49112 0.830805 0 0 0 -1.33128 0.662495 0.395607 
266 0.366654 1.98499 2.58793 0.636921 0 0 0 -0.320953 -0.749402 1.30898 
236 1.10598 2.61864 2.76413 0.651238 0 0 0 -0.0563514 -0.167823 1.86498 
237 0.373433 2.44496 2.4469 0.637516 0 0 0 -0.879454 -0.195095 1.14202 
262 0.719176 1.67966 2.53177 0.568062 0 0 0 0.926247 -0.484224 0.339232 
254 0.214178 2.73861 3.11696 0.891494 0 0 0 -0.712483 0.273397 1.45052 
118 0.0283952 1.48111 2.6882 0.743106 0 0 0 -0.653579 -0.166582 1.01436 
241 0.939423 2.12978 3.11426 0.728296 0 0 0 0.137834 -0.66153 1.54263 
265 0.0329592 3.01139 2.61218 0.868521 0 0 0 -1.12544 0.909761 0.525491 
243 0.55965 3.01397 2.64266 0.760242 0 0 0 -0.508858 1.00279 0.858383 
244 -0.0538426 3.17008 2.96978 1.01469 0 0 0 -0.989228 0.906801 0.853329 
245 1.25688 2.18075 2.86042 0.631951 0 0 0 -0.0454332 -0.976669 1.37673 
256 0.063925 2.93295 2.98771 0.928309 0 0 0 -0.938702 0.617743 1.10112 
260 -0.0684579 2.86215 2.72928 0.884979 0 0 0 -1.22646 0.592821 0.736889 
248 0.535509 2.66342 2.98131 0.774497 0 0 0 -0.3426 0.070572 1.64875 
507 1.514 2.78544 2.91086 0.717639 0 0 0 0.00158824 0.241194 1.78001 
258 0.563516 2.96535 3.08817 0.86575 0 0 0 -0.34454 0.623048 1.47814 
251 0.511306 2.47669 2.63315 0.654782 0 0 0 -0.499802 -0.285979 1.4739 
252 -0.111919 2.39186 2.39214 0.75658 0 0 0 -1.488 -0.0397628 0.500078 
253 1.04036 3.18638 2.78128 0.794803 0 0 0 -0.146965 1.14523 1.12598 
267 1.82892 0.385598 0.477784 0.596851 0 0 0 -0.154211 -0.0364126 -2.08403 
268 2.77883 0.405527 0.286067 0.78613 0 0 0 1.25566 -0.4598 -1.24518 
269 2.2067 0.0402888 -0.170093 0.89093 0 0 0 0.374263 -0.769611 -1.63994 
270 2.56706 0.0594606 -0.070169 0.911769 0 0 0 0.827072 -0.80158 -1.41337 
291 2.17938 0.517071 -0.0151421 0.745445 0 0 0 0.104551 -0.0265063 -1.80516 
272 2.88249 0.826455 0.434379 0.720698 0 0 0 1.24071 0.0309786 -1.11999 
273 1.72709 1.05678 0.271323 0.594022 0 0 0 -0.639104 0.752334 0.272381 
295 2.17131 1.36023 0.380862 0.583848 0 0 0 -1.32069 0.225594 0.26792 
275 2.66357 -0.0269301 -0.00181431 0.933266 0 0 0 0.95208 -0.903035 -1.25185 
276 1.80978 0.07525 0.0483241 0.778947 0 0 0 -0.0838288 -0.687909 -1.77599 
294 1.7398 1.32132 0.468046 0.539317 0 0 0 -1.13498 0.0486308 2.88222 
278 1.84914 0.11894 -0.0193075 0.792007 0 0 0 -0.0537299 -0.613858 -1.79871 
279 2.175 0.767302 0.422037 0.586647 0 0 0 -0.12753 0.711333 -1.5724 
290 2.36632 1.24236 0.156963 0.668461 0 0 0 -0.466663 0.307242 -0.928704 
281 2.44926 1.10437 0.37246 0.618621 0 0 0 -0.226706 0.581781 -1.09594 
289 2.44023 0.7443 0.539652 0.597762 0 0 0 0.576958 0.387558 -1.48423 
292 2.33956 0.902121 0.628319 0.547956 0 0 0 0.151973 0.787043 -1.36182 
284 1.63518 0.788279 0.385014 0.570139 0 0 0 -0.509397 0.940154 -0.962255 
285 2.84963 1.17716 0.0625956 0.791308 0 0 0 0.715071 0.0555124 -1.2482 
286 1.78723 0.48572 0.444945 0.587348 0 0 0 -0.294048 0.28262 -2.06148 
287 2.57698 1.17322 0.482566 0.611559 0 0 0 0.0428269 0.539601 -1.02997 
288 2.12027 0.470308 0.103735 0.706465 0 0 0 0.0548272 -0.00959544 -1.83869 
283 2.43673 -0.0381342 0.797335 0.720708 0 0 0 1.11704 -1.28515 -0.558131 
297 2.10952 0.404047 1.31447 0.507879 0 0 0 1.90425 -1.28944 1.10995 
298 2.93 0.378403 1.22614 0.69964 0 0 0 1.80701 -0.768659 0.103673 
299 2.17784 0.794496 1.15773 0.446811 0 0 0 3.04168 -0.031956 -0.486566 
326 2.16131 0.241586 1.27565 0.557613 0 0 0 1.36205 -1.47801 0.897707 
421 1.83955 1.44086 1.50274 0.295549 0 0 0 -2.29228 -3.41386 -0.046012 
302 2.20229 0.171774 1.03879 0.593097 0 0 0 1.23415 -1.32815 -0.190313 
409 1.68108 1.13813 1.38277 0.302335 0 0 0 7.62319 -3.47431 0.20203 
304 2.56841 0.907698 0.967206 0.532659 0 0 0 1.36612 0.34287 -0.843683 
327 2.48295 0.0221945 1.06097 0.685997 0 0 0 1.27707 -1.34472 -0.00759088 
271 2.03989 0.860398 1.25086 0.407326 0 0 0 4.83357 -0.126024 -0.0685204 
325 1.98593 0.355556 1.00005 0.521512 0 0 0 1.37393 -1.15533 -1.03989 
308 1.84277 0.353851 1.39548 0.497792 0 0 0 1.14386 -1.67521 1.55097 
309 2.88628 1.00556 1.17505 0.59401 0 0 0 1.74571 0.14274 -0.102374 
352 2.8534 1.20475 1.47988 0.560577 0 0 0 1.76098 0.0542476 0.516956 
311 2.00272 0.716305 0.965154 0.458607 0 0 0 2.4263 -0.00747601 -1.77902 
312 2.53391 1.33844 0.846887 0.525579 0 0 0 -0.117281 0.548426 -0.597076 
293 2.42309 1.11164 0.861819 0.504926 0 0 0 0.210277 0.810988 -0.879098 
324 1.62813 -0.0597915 0.885018 0.633871 0 0 0 -0.114654 -1.61402 -0.685126 
315 2.60038 1.07859 1.23024 0.500886 0 0 0 1.63785 0.261188 -0.0845596 
316 2.72627 0.872234 1.06806 0.566481 0 0 0 1.68883 0.0840841 -0.390882 
317 2.17447 0.00896186 1.26039 0.630984 0 0 0 0.833528 -1.67297 0.738085 
345 2.10887 1.08501 1.35917 0.384713 0 0 0 3.15609 0.531487 0.357371 
323 2.38133 0.33123 1.45359 0.569984 0 0 0 1.39884 -1.12536 1.28537 
455 2.55583 1.28173 1.36755 0.472766 0 0 0 1.51323 0.132497 0.181869 
435 2.27638 1.22552 1.31462 0.411362 0 0 0 0.998239 0.0654693 0.565518 
448 2.20141 1.19778 1.32868 0.395788 0 0 0 1.29383 0.063154 0.913619 
330 2.12818 0.968259 1.33153 0.403423 0 0 0 3.69327 0.317796 0.285003 
333 2.02457 1.08667 1.30522 0.371338 0 0 0 4.55217 0.0177332 1.82279 
320 2.05152 1.24466 1.39438 0.356998 0 0 0 1.45056 -0.217709 1.67602 
85 1.93765 0.688033 1.22732 0.424791 0 0 0 4.19086 -1.0346 -0.384205 
72 1.85276 0.835645 1.34412 0.38142 0 0 0 5.99037 -0.138919 -1.58486 
280 1.92793 1.15719 0.954495 0.418542 0 0 0 0.28216 -0.515614 5.51757 
282 1.82595 1.09003 1.37788 0.331792 0 0 0 7.68164 0.0362667 -2.08917 
58 1.53876 0.410765 0.794842 0.520962 0 0 0 -0.628836 -0.81363 -2.48372 
7 1.78035 0.749637 1.18988 0.399084 0 0 0 4.57968 -1.93001 -1.07291 
175 1.68619 0.70248 1.18442 0.402965 0 0 0 3.05565 -2.53232 -1.39672 
151 1.67336 0.694871 1.1842 0.404022 0 0 0 2.80398 -2.59505 -1.42888 
102 1.68172 0.685806 1.18739 0.406091 0 0 0 2.83258 -2.53391 -1.3964 
401 1.68761 1.21333 1.3846 0.290456 0 0 0 6.15639 -7.39762 9.31004 
431 1.82256 1.38594 1.47812 0.294164 0 0 0 -1.17786 -3.90078 1.50484 
230 1.56872 0.814006 1.19065 0.375186 0 0 0 1.90293 -3.51152 -0.54997 
402 1.95158 1.39057 1.18269 0.365175 0 0 0 -1.92929 -6.34695 17.6047 
61 2.0614 1.43225 1.48035 0.347744 0 0 0 -1.14362 -1.58244 0.68095 
305 2.1485 1.42894 1.51639 0.368186 0 0 0 -0.452851 -0.690371 -0.938665 
89 2.19201 1.4391 1.48267 0.378193 0 0 0 -0.209258 -1.02966 0.257606 
363 1.70563 1.42057 1.51276 0.263073 0 0 0 1.53741 23.0535 -69.0699 
500 2.10569 1.32174 1.88393 0.412452 0 0 0 -1.33959 1.80836 -6.18326 
355 2.35839 0.184456 1.86312 0.634469 0 0 0 0.366734 -1.07692 1.05964 
381 3.11612 1.01979 2.35073 0.739095 0 0 0 1.30336 -0.262188 0.68834 
331 2.87923 0.0788107 2.06589 0.792852 0 0 0 1.08628 -1.1504 0.611431 
364 1.76963 0.735983 2.16029 0.51731 0 0 0 -0.565361 2.08265 -2.76983 
456 2.33967 1.28734 1.85279 0.452111 0 0 0 -0.0220397 -0.0186965 -0.568021 
334 2.8487 0.65064 1.56623 0.619734 0 0 0 1.61383 -0.526136 0.796449 
379 2.85971 0.751269 2.16119 0.662738 0 0 0 0.956923 -0.296374 0.716271 
357 2.7917 1.1106 1.69074 0.555739 0 0 0 1.47412 -0.156897 0.974825 
349 2.50806 1.06994 1.68912 0.485856 0 0 0 1.04777 -0.242788 1.07397 
338 2.91328 1.04907 1.57017 0.592007 0 0 0 1.69151 -0.0901241 0.716246 
339 2.60637 0.208209 1.78259 0.663657 0 0 0 0.88022 -1.09934 0.930315 
340 2.03196 0.91907 1.73825 0.427772 0 0 0 0.609851 2.04153 -2.76083 
380 2.25571 1.36196 2.17207 0.492287 0 0 0 -0.922275 0.227031 -1.48848 
356 2.53184 0.904635 2.01939 0.548951 0 0 0 0.229589 -0.0732471 0.595381 
359 2.00327 -0.0960473 2.15981 0.722345 0 0 0 0.00872883 -1.20844 0.524017 
344 2.80141 -0.0437753 2.11852 0.816013 0 0 0 0.909433 -1.2932 0.606321 
348 3.04076 1.33757 1.60003 0.619054 0 0 0 1.74327 -0.105231 0.435822 
346 1.58773 0.374971 1.94495 0.544623 0 0 0 0.0740122 0.361056 0.0551966 
354 2.04635 0.843227 1.58868 0.422712 0 0 0 2.33693 1.06434 -0.592995 
368 2.37677 0.682568 2.36623 0.614731 0 0 0 -0.272403 0.0967573 0.0449029 
366 1.71032 1.38228 2.04885 0.405723 0 0 0 -1.48487 7.06234 -20.3542 
371 2.18583 0.971472 2.33558 0.551661 0 0 0 -0.951581 0.813115 -1.29553 
377 1.74602 1.18742 1.97104 0.407235 0 0 0 -1.22701 7.54307 -18.0357 
360 1.90747 0.404477 2.3254 0.616732 0 0 0 -0.290951 0.20937 -0.467832 
361 2.15681 1.26106 2.27567 0.509606 0 0 0 -1.325 0.772356 -2.22137 
335 2.54275 0.223584 1.52696 0.631492 0 0 0 1.20218 -1.16831 0.995493 
384 1.99729 -0.0776341 2.77942 0.849445 0 0 0 0.0754473 -0.817644 0.466718 
376 2.66834 0.594173 2.77916 0.779061 0 0 0 0.370163 -0.267633 0.787274 
375 2.39585 0.989106 2.70504 0.665022 0 0 0 -0.364348 0.2539 0.190174 
362 2.50173 1.42621 2.86667 0.696429 0 0 0 -0.126961 -0.207794 0.712509 
126 1.54709 0.230959 2.44275 0.669908 0 0 0 0.190599 -0.043132 -0.289624 
383 3.11738 1.16306 2.83543 0.835522 0 0 0 1.0359 -0.275951 0.893784 
365 2.9694 -0.0926727 2.52754 0.942723 0 0 0 0.964653 -1.11934 0.625859 
374 2.49303 0.362289 2.5845 0.739403 0 0 0 0.163728 -0.51894 0.603531 
367 2.83512 -0.0952133 2.44692 0.894592 0 0 0 0.828556 -1.20572 0.631795 
382 2.46012 0.611974 2.90139 0.779645 0 0 0 0.00276751 -0.0960135 0.703879 
369 2.63777 0.58011 2.64824 0.739165 0 0 0 0.3317 -0.275989 0.68879 
373 2.14105 0.726531 2.45078 0.603868 0 0 0 -0.651311 0.594316 -0.68059 
406 2.09112 2.16897 0.430837 0.611265 0 0 0 -1.06551 -1.43414 0.481051 
386 2.0284 2.99122 0.37105 0.772703 0 0 0 -0.203152 0.499821 -0.469325 
387 2.72329 1.69898 0.609382 0.62061 0 0 0 0.125371 -0.139276 -0.67004 
408 1.85314 2.49566 0.317939 0.670081 0 0 0 -0.440767 -0.943486 0.185393 
389 2.18616 3.05826 0.42831 0.790714 0 0 0 -0.0941007 0.69583 -0.557214 
390 2.98317 1.77901 0.535158 0.70793 0 0 0 0.849902 -0.129283 -0.779542 
391 2.11536 1.83162 0.648478 0.532528 0 0 0 -2.13312 -1.78888 1.75406 
403 2.5459 2.18679 0.119719 0.751348 0 0 0 -0.0754449 -0.411467 -0.815095 
393 2.66093 2.28842 0.183068 0.7642 0 0 0 0.173615 -0.246745 -0.87335 
405 2.78811 3.02173 -0.121108 1.01931 0 0 0 0.448673 0.483318 -0.802752 
395 1.81381 2.31843 0.625904 0.567287 0 0 0 -0.975001 -2.06634 1.31375 
396 2.10804 2.72738 0.663083 0.647387 0 0 0 -0.447567 -0.0233283 -0.398826 
397 2.16783 2.01056 -0.00250667 0.73013 0 0 0 -0.55179 -0.808947 -0.326957 
407 3.03609 2.65996 0.0661403 0.941518 0 0 0 0.752086 0.242106 -0.877941 
399 2.55634 2.07553 0.339483 0.678295 0 0 0 -0.217672 -0.51067 -0.662344 
400 3.03866 3.09633 0.0948084 1.03121 0 0 0 0.703316 0.615635 -0.726266 
404 2.54911 1.82913 0.135103 0.717733 0 0 0 -0.227237 -0.38335 -0.795868 
392 1.64899 1.702 1.3021 0.313734 0 0 0 -4.39384 -24.5582 61.7458 
347 1.74969 2.58561 1.44171 0.482405 0 0 0 -0.442343 0.909043 -1.16967 
470 3.18033 2.73685 1.51285 0.777331 0 0 0 1.36502 0.545225 -0.283492 
412 2.83895 2.70486 0.904633 0.719793 0 0 0 0.791079 0.476937 -0.695036 
413 2.99686 2.31763 1.18363 0.663643 0 0 0 1.32583 -0.0831144 -0.625399 
414 2.35624 1.78558 1.13988 0.461765 0 0 0 -0.742127 -1.47695 0.0407764 
415 2.1873 1.95171 0.959634 0.482596 0 0 0 -2.14006 -2.22295 1.05719 
416 1.76813 2.56766 1.21183 0.503754 0 0 0 -0.959931 -0.469316 -0.755586 
454 1.96176 3.07034 1.40585 0.634752 0 0 0 -0.187833 1.48752 -0.880986 
427 1.90156 2.97811 1.41373 0.600578 0 0 0 -0.275442 1.393 -1.01348 
419 3.09086 2.31628 1.28366 0.685427 0 0 0 1.47356 -0.0908023 -0.502443 
457 2.18048 2.18527 1.39275 0.445661 0 0 0 0.664448 -0.848676 -0.804477 
411 1.77754 1.49711 1.51758 0.279063 0 0 0 -3.50494 -3.86758 0.148498 
422 2.52327 1.82722 0.892716 0.53417 0 0 0 -0.48851 -0.711676 -0.445567 
423 2.22281 3.17064 1.41836 0.692845 0 0 0 0.211834 1.49872 -0.625272 
424 1.98908 2.69972 0.785545 0.609121 0 0 0 -0.64464 -0.213526 -0.311738 
425 2.52502 2.65947 0.978218 0.634301 0 0 0 0.284965 0.379798 -0.819752 
426 2.16556 2.22827 1.02762 0.500696 0 0 0 -1.39628 -1.51879 -0.245677 
446 2.15404 1.47217 1.43061 0.370648 0 0 0 -0.758493 -2.07819 2.30949 
441 3.15008 2.03261 1.39372 0.670916 0 0 0 1.6853 -0.39319 -0.321676 
429 2.28301 3.01718 0.830941 0.710768 0 0 0 -0.0175297 0.880801 -0.6455 
430 3.24665 2.98694 1.29672 0.866166 0 0 0 1.22318 0.801648 -0.328424 
449 2.29124 2.24049 1.41349 0.472485 0 0 0 0.979864 -0.238264 -1.01198 
388 1.59812 2.19685 1.01815 0.46319 0 0 0 -1.12518 -4.52466 4.55068 
433 2.03728 1.73803 1.21702 0.390808 0 0 0 -3.06219 -5.9941 9.07265 
434 1.60082 2.73668 1.06616 0.558628 0 0 0 -0.64678 -0.104369 -0.507376 
432 2.37388 1.88405 1.34991 0.447539 0 0 0 0.87745 -1.55973 -0.547266 
436 3.01036 2.09203 0.843112 0.681812 0 0 0 1.07791 -0.223422 -0.688404 
437 2.84619 1.57156 0.966141 0.587292 0 0 0 0.940974 0.0775086 -0.585481 
438 2.85549 2.16438 1.42914 0.5892 0 0 0 1.62873 -0.368413 -0.503888 
439 3.06984 3.26361 1.23339 0.897854 0 0 0 0.949553 1.11242 -0.325501 
440 2.10109 2.01539 0.939845 0.483861 0 0 0 -2.34454 -2.61685 1.55996 
458 2.1452 2.40779 1.42054 0.480221 0 0 0 0.452089 0.375882 -1.04743 
464 2.20089 2.07552 1.39205 0.431481 0 0 0 0.776332 -1.5751 -0.489595 
443 2.5877 1.94946 2.09056 0.53552 0 0 0 1.2274 -0.883264 1.06617 
444 2.84859 1.46505 1.86655 0.570206 0 0 0 1.47546 -0.495901 0.741027 
445 2.81526 2.21551 2.12929 0.614386 0 0 0 1.2189 -0.376562 0.618596 
310 1.78293 2.08928 1.76574 0.364644 0 0 0 2.92991 1.76756 -0.104242 
372 1.61022 2.19643 1.81033 0.377705 0 0 0 0.390844 3.5285 0.842886 
296 2.37675 1.99588 1.7502 0.454788 0 0 0 2.73149 -0.912955 0.691351 
471 1.98873 1.90614 1.68088 0.358623 0 0 0 3.6832 -2.27066 -0.855848 
450 2.67999 1.85887 1.96779 0.537544 0 0 0 1.5715 -0.979899 0.850281 
182 1.64285 1.88949 1.64867 0.302926 0 0 0 0.632234 1.14 2.03378 
452 2.1188 2.90997 1.68517 0.59222 0 0 0 0.466524 1.44555 -0.398891 
453 1.56027 2.45094 2.19981 0.487032 0 0 0 0.354008 0.827493 2.32811 
469 2.08406 1.70843 2.05621 0.431067 0 0 0 0.0260235 -0.355376 -3.08897 
343 2.09717 1.70348 1.57754 0.360074 0 0 0 0.921809 -3.6065 0.0491681 
481 2.16302 2.25177 1.79843 0.451734 0 0 0 2.75716 0.771772 1.11108 
467 1.86345 2.6493 1.66668 0.495959 0 0 0 0.528557 1.84501 -0.479485 
378 1.78867 2.33534 1.81544 0.420983 0 0 0 1.83526 2.73107 1.37883 
459 3.15663 2.7618 2.17728 0.803688 0 0 0 1.33111 0.599003 0.259743 
277 1.76727 1.99982 1.70694 0.340648 0 0 0 3.00544 0.914983 -1.08512 
461 1.65114 2.97998 1.71221 0.580966 0 0 0 -0.214546 1.91987 -0.769156 
263 1.87893 1.99472 1.72044 0.355843 0 0 0 3.87643 -0.294745 -0.870127 
261 1.68404 1.99278 1.69119 0.3293 0 0 0 1.71231 1.80497 -0.604219 
176 1.90639 1.54435 1.53657 0.311144 0 0 0 -2.19479 -3.76128 0.588742 
465 1.96042 2.96193 1.89533 0.59778 0 0 0 0.441379 1.5593 0.0162214 
466 2.24247 3.2713 1.79524 0.726833 0 0 0 0.41927 1.62691 -0.194175 
319 2.24974 1.91454 1.63878 0.41173 0 0 0 2.91678 -1.83139 0.106582 
478 2.18733 3.04935 2.25826 0.683235 0 0 0 0.539367 1.21413 0.572481 
484 1.90492 2.64751 2.31714 0.56231 0 0 0 0.647538 0.489757 1.45393 
187 2.1303 2.09995 1.70539 0.413707 0 0 0 3.45121 -0.361971 0.630694 
509 3.29296 2.84291 2.26144 0.875193 0 0 0 1.37373 0.65391 0.329601 
488 2.31765 1.87768 1.72535 0.429169 0 0 0 2.78259 -1.52851 0.405956 
492 2.70859 2.30871 2.28735 0.620861 0 0 0 0.893966 -0.213805 0.823927 
494 2.94686 2.34984 2.28063 0.684458 0 0 0 1.18417 -0.127248 0.575893 
504 2.87671 1.94561 2.27657 0.631951 0 0 0 1.10361 -0.739902 0.756489 
199 1.89314 1.96045 1.70229 0.351185 0 0 0 3.89571 -0.926794 -1.12834 
120 1.67258 1.96379 1.67438 0.321486 0 0 0 1.45943 1.53514 -0.00790276 
442 2.28183 1.67739 1.7112 0.410209 0 0 0 1.684 -1.59524 -0.505232 
498 2.04613 1.55965 1.97781 0.409445 0 0 0 -0.910777 1.08476 -7.14655 
487 1.91916 2.03369 2.33112 0.488955 0 0 0 0.0326521 -0.698239 0.224917 
209 2.03145 1.7059 1.5911 0.345967 0 0 0 0.866261 -3.8493 -0.484658 
36 2.10177 2.14084 1.7225 0.416342 0 0 0 3.40677 0.0971001 0.774098 
191 1.67811 1.96818 1.67706 0.323023 0 0 0 1.57684 1.52199 -0.149988 
417 2.33713 2.53507 1.7657 0.533532 0 0 0 1.30014 0.973342 0.259034 
451 2.99113 2.22371 1.53029 0.63345 0 0 0 1.65106 -0.275953 -0.312233 
259 1.58513 1.88707 1.64908 0.297928 0 0 0 -0.81028 2.34856 2.43862 
463 1.58447 1.95968 1.66738 0.313833 0 0 0 -0.643949 2.58972 1.31807 
307 1.54446 1.74374 1.60345 0.263562 0 0 0 -2.46955 3.23968 0.807463 
220 1.54373 1.74204 1.60278 0.263121 0 0 0 -2.49391 3.23982 0.763919 
496 2.03147 2.50601 2.78624 0.657583 0 0 0 0.0310419 -0.181216 1.52991 
472 2.0747 1.79642 2.63684 0.574764 0 0 0 -0.779224 -0.595593 -0.0763629 
473 1.75626 1.5959 2.58877 0.549216 0 0 0 -1.17774 0.121215 -2.34775 
474 2.95854 3.17647 2.68346 0.934251 0 0 0 0.90127 1.04183 0.755759 
497 1.61663 1.94128 2.57965 0.539007 0 0 0 -0.635612 -1.02516 -0.520554 
502 2.22662 2.57159 2.71503 0.667083 0 0 0 0.220398 0.0468209 1.38664 
477 3.17713 2.0138 2.59478 0.781976 0 0 0 1.29712 -0.453759 0.857114 
513 2.63016 3.02979 3.05944 0.919994 0 0 0 0.557671 0.80513 1.277 
479 1.80985 1.75127 2.417 0.498561 0 0 0 -1.15685 -0.356624 -2.63209 
501 1.65361 2.45381 3.00117 0.698248 0 0 0 -0.144868 -0.376347 1.7334 
503 2.03372 3.1535 2.47845 0.734323 0 0 0 0.328413 1.26103 0.849397 
482 1.57532 3.16057 3.12964 0.875846 0 0 0 0.0454253 0.862651 1.49569 
511 3.00814 2.13235 2.41307 0.702009 0 0 0 1.18574 -0.46352 0.754317 
510 2.10249 2.54653 2.61071 0.623519 0 0 0 0.225987 -0.0462919 1.38353 
508 2.62305 1.96044 3.05691 0.772119 0 0 0 0.28278 -0.409099 1.38037 
505 3.15567 2.91939 3.22206 1.06051 0 0 0 0.887147 0.587057 1.13087 
499 1.80691 1.78436 2.91322 0.645104 0 0 0 -0.705551 -0.515536 0.136825 
495 2.94831 1.72933 2.79659 0.758139 0 0 0 0.827131 -0.506832 1.07246 
489 3.12956 1.50361 3.00017 0.868007 0 0 0 0.959263 -0.334794 1.04645 
490 2.37284 2.40854 2.58346 0.629825 0 0 0 0.304748 -0.181173 1.22528 
491 2.27434 1.49882 2.74564 0.629949 0 0 0 -0.618195 -0.160338 0.104058 
506 1.97648 2.06883 3.04671 0.700276 0 0 0 -0.385155 -0.559217 1.21412 
493 3.07267 3.01074 2.79146 0.943091 0 0 0 1.00009 0.817251 0.886017 
480 2.35966 2.25058 2.39424 0.569218 0 0 0 0.406867 -0.387139 1.22441 
ITEM: TIMESTEP
800977
ITEM: NUMBER OF ATOMS
512
ITEM: BOX BOUNDS ss ss ss
-2.2775349561678951e-01 3.2932607586404616e+00
-4.0122540508749138e-01 3.2891132425832117e+00
-1.7039273299291779e-01 3.2223573019164853e+00
ITEM: ATOMS id x y z width_SPH x_COM y_COM z_COM vx vy vz 
23 0.539285 1.16104 0.372783 0.613015 0 0 0 0.63379 -0.097662 -0.569999 
3 -0.140327 -0.124431 0.0939761 1.0357 0 0 0 -1.01066 -0.93414 -0.881358 
4 1.1215 0.71024 0.265512 0.622552 0 0 0 0.00935103 0.209767 -1.02936 
5 0.225459 1.27088 -0.0393989 0.782508 0 0 0 -0.197426 -0.301981 -0.966514 
6 0.0115283 1.14394 0.376961 0.727351 0 0 0 -0.762221 -0.268029 -0.705397 
22 0.128622 1.05029 0.0596025 0.785115 0 0 0 -0.507386 -0.424321 -0.970677 
8 0.686461 0.733456 -0.0391929 0.747512 0 0 0 0.0953252 -0.433159 -1.18306 
9 1.3567 -0.241851 0.263495 0.804203 0 0 0 -0.298903 -1.18641 -1.40898 
10 -0.0863137 -0.263403 0.0260471 1.0737 0 0 0 -0.931979 -0.985739 -0.901918 
11 0.920704 1.15036 -0.0285243 0.696436 0 0 0 0.752232 -0.165356 -0.435122 
12 0.461885 1.343 0.164185 0.674423 0 0 0 0.502728 -0.204183 -0.606962 
13 0.278631 -0.299306 0.200455 0.957905 0 0 0 -0.806313 -1.14364 -1.01853 
14 0.972035 1.22081 0.390067 0.568523 0 0 0 1.27038 0.142465 0.812701 
15 1.08249 0.66997 0.304811 0.617963 0 0 0 -0.067915 0.142875 -1.16073 
16 0.612758 -0.235825 0.244743 0.869623 0 0 0 -0.630671 -1.1666 -1.2039 
17 0.87827 0.25389 0.00523268 0.78318 0 0 0 -0.298619 -0.660972 -1.49786 
18 0.562192 0.565604 0.356096 0.67312 0 0 0 -0.327167 -0.544914 -1.23565 
274 1.4895 1.31442 0.568076 0.508711 0 0 0 -0.206587 -0.28194 4.84886 
20 0.679388 0.94068 0.297783 0.628463 0 0 0 0.463984 -0.143639 -0.766469 
62 1.19143 1.02676 0.635982 0.499498 0 0 0 0.00571371 0.577692 1.37845 
50 0.549989 -0.381027 0.627225 0.850631 0 0 0 -0.738672 -1.36616 -0.856497 
31 -0.0666958 1.19079 0.657987 0.69483 0 0 0 -0.999893 -0.099957 -0.584648 
44 0.384568 0.857338 0.611348 0.611979 0 0 0 -0.317973 -0.373767 -1.12028 
24 1.01877 -0.21378 1.39568 0.679353 0 0 0 -0.124009 -1.69284 0.603264 
353 1.43469 1.07796 1.35086 0.306615 0 0 0 -0.477917 -3.56874 0.636624 
26 -0.135933 1.02548 1.49494 0.658912 0 0 0 -1.52792 0.0880237 0.0612318 
27 0.398739 1.14913 0.832393 0.54623 0 0 0 -0.0929832 0.0261775 -1.24837 
28 0.947158 0.225002 1.38726 0.550772 0 0 0 -0.881561 -1.47364 0.742543 
91 0.800645 1.12867 1.21354 0.410232 0 0 0 -0.998784 -0.848597 -0.341448 
303 1.47401 1.06098 1.34496 0.308977 0 0 0 0.971349 -3.79459 0.771508 
65 0.669837 0.471785 1.33838 0.530128 0 0 0 -1.15565 -1.29716 0.0919458 
32 0.390328 -0.347395 1.28432 0.809108 0 0 0 -0.778114 -1.47595 -0.132813 
33 0.747583 -0.211895 1.15272 0.709652 0 0 0 -0.599506 -1.55106 -0.195165 
173 0.936226 0.960758 1.29479 0.396881 0 0 0 -3.46749 -1.14488 -0.811043 
35 1.49751 0.0185878 0.818715 0.616274 0 0 0 -0.421812 -1.4179 -1.15816 
21 1.50709 1.44184 1.49138 0.220516 0 0 0 0.244459 1.5919 0.625952 
154 1.32469 1.31545 1.43485 0.268891 0 0 0 1.65038 2.35784 -4.96347 
38 0.219853 1.02869 0.800813 0.601114 0 0 0 -0.640083 -0.169678 -1.01707 
39 -0.227454 0.894409 1.43968 0.703331 0 0 0 -1.58736 -0.0297116 -0.084908 
2 1.14968 0.675246 1.21354 0.426024 0 0 0 -4.14303 -2.31413 -1.38042 
351 0.859147 1.19146 1.32514 0.381096 0 0 0 -0.728102 -0.464126 0.443789 
42 0.799967 1.37177 1.32996 0.382827 0 0 0 0.818982 -0.146163 1.05492 
195 1.40658 0.799879 1.18838 0.381447 0 0 0 -2.14151 -3.62159 -0.893494 
318 1.4922 1.06871 1.34922 0.306647 0 0 0 1.80127 -3.8445 0.63365 
45 0.998556 0.224033 1.32982 0.545671 0 0 0 -1.04177 -1.56828 0.537122 
46 0.610449 0.267939 0.790687 0.635116 0 0 0 -0.97497 -0.89411 -1.36008 
47 1.21212 0.915316 0.835746 0.454217 0 0 0 -1.73107 -0.485253 0.987954 
48 0.526622 0.788823 1.37475 0.498782 0 0 0 -1.05292 -1.06539 0.0363222 
250 1.49186 1.08594 1.35641 0.302454 0 0 0 1.96528 -3.83457 0.346033 
79 1.49622 1.36941 1.46082 0.233519 0 0 0 3.64238 0.758414 0.553015 
51 0.476674 1.30496 0.949275 0.506037 0 0 0 0.16911 0.221642 -1.3358 
52 1.29203 0.226359 1.31754 0.525362 0 0 0 -0.907489 -1.91139 0.7849 
53 -0.0398811 0.626634 1.25893 0.678802 0 0 0 -1.45044 -0.441305 -0.414645 
54 1.02301 -0.400926 1.42876 0.747459 0 0 0 0.00503648 -1.74378 0.513748 
385 1.48524 1.28967 1.43147 0.252412 0 0 0 3.42381 -2.10543 0.493167 
56 1.27652 0.103597 1.02254 0.574013 0 0 0 -0.869721 -1.66905 -0.734855 
178 0.99502 1.43603 1.45857 0.329987 0 0 0 2.91034 1.35596 0.624074 
115 1.50525 1.15042 1.37639 0.287016 0 0 0 3.09568 -4.38343 0.778675 
59 0.61822 0.602605 1.24067 0.517389 0 0 0 -1.31684 -1.26838 -0.596068 
124 1.46275 1.03847 1.3335 0.314949 0 0 0 0.308015 -3.79336 1.08168 
306 1.50773 -0.28586 0.765567 0.723844 0 0 0 -0.127734 -1.60429 -0.682448 
64 0.863756 -0.33905 1.3046 0.736467 0 0 0 -0.275688 -1.69422 0.221013 
119 1.46934 1.29804 1.43364 0.251084 0 0 0 3.24164 -1.66904 0.902737 
313 1.06026 1.33633 1.41901 0.322544 0 0 0 1.09838 0.947108 2.21131 
149 1.36226 1.21564 1.35164 0.287127 0 0 0 -1.32912 -1.55335 -0.809985 
179 1.27092 0.655451 1.19794 0.420357 0 0 0 -3.49668 -2.75731 -1.57723 
106 1.48397 1.28129 1.42805 0.25453 0 0 0 3.33213 -2.41611 0.655578 
322 1.48977 1.08077 1.35422 0.303748 0 0 0 1.82428 -3.82896 0.433697 
19 1.48534 0.423853 1.00494 0.484892 0 0 0 -0.852798 -1.86257 -1.91704 
512 1.49418 1.3562 1.4562 0.236442 0 0 0 3.67128 0.312534 0.470131 
301 0.930608 1.30713 1.40803 0.352103 0 0 0 0.8443 0.696045 0.473306 
214 1.39941 0.983964 1.30052 0.332292 0 0 0 -2.34849 -3.66487 1.3273 
77 0.453289 1.43621 1.29507 0.467503 0 0 0 -0.729843 0.322788 -0.756536 
358 0.802634 1.13455 1.1541 0.418094 0 0 0 -0.811682 -0.815724 -0.341114 
81 0.658636 0.59406 1.15419 0.517894 0 0 0 -1.43279 -1.24589 -1.06386 
71 0.654127 1.22741 1.34848 0.421631 0 0 0 -0.472631 -0.274534 -0.366816 
329 0.872553 1.19711 1.34631 0.376297 0 0 0 -0.664124 -0.28439 0.35078 
57 1.51229 0.644711 1.18741 0.412429 0 0 0 -0.122446 -3.05668 -1.62644 
122 1.21657 0.673197 1.20291 0.420711 0 0 0 -3.98108 -2.58504 -1.5254 
74 0.97481 0.845294 1.26176 0.411886 0 0 0 -4.06682 -1.59233 -1.05777 
228 1.1961 1.41563 1.46551 0.285852 0 0 0 3.6615 1.69281 2.54562 
198 0.988598 1.43717 1.45868 0.331367 0 0 0 2.8784 1.25716 0.754314 
165 1.3282 0.926641 1.25837 0.353436 0 0 0 -4.3044 -3.50959 0.956336 
101 1.00028 1.23476 1.37484 0.3457 0 0 0 -1.00834 0.365362 1.16487 
82 0.914219 0.731786 1.19891 0.446421 0 0 0 -3.04138 -1.67027 -1.19383 
229 1.43794 1.01784 1.32157 0.321262 0 0 0 -0.817389 -3.73936 1.25773 
66 0.0779149 -0.209389 2.31731 0.901786 0 0 0 -0.687968 -1.05208 0.580833 
67 0.89659 0.389783 1.98979 0.568992 0 0 0 0.535164 -0.0874091 0.637819 
68 1.03628 0.897856 1.78785 0.431444 0 0 0 0.893007 2.98618 -4.25716 
95 0.398485 -0.0109001 2.10984 0.741993 0 0 0 -0.249943 -0.999985 0.679919 
70 0.43186 1.36488 2.12842 0.534681 0 0 0 0.501956 -0.113963 0.726974 
88 0.0603636 0.335405 2.25425 0.754694 0 0 0 -0.785911 -0.437365 0.780303 
55 0.179155 0.110084 1.56622 0.715515 0 0 0 -0.990374 -1.03049 0.129727 
63 0.0687007 1.42391 1.57716 0.574448 0 0 0 -1.32729 0.122362 0.3336 
87 -0.124822 0.602197 1.97093 0.726214 0 0 0 -1.23338 -0.227813 0.586442 
75 0.134232 1.38274 2.08425 0.597902 0 0 0 -0.600565 -0.111097 0.927912 
86 1.52819 0.49428 1.73489 0.483928 0 0 0 0.0889314 0.601421 0.00437906 
90 0.77249 1.18916 2.00601 0.46751 0 0 0 2.16493 1.0864 -1.69307 
78 0.397217 -0.00262791 2.21456 0.75524 0 0 0 -0.216506 -0.931591 0.705686 
113 0.977997 1.35999 2.061 0.439923 0 0 0 2.96964 2.54504 -6.7341 
93 0.811337 0.80486 2.0233 0.511044 0 0 0 1.24664 0.892038 -0.290549 
92 0.38802 0.389795 1.87057 0.619934 0 0 0 -0.311905 -0.6302 0.888682 
108 1.18119 0.815739 2.12937 0.500498 0 0 0 1.03673 2.73469 -3.26131 
83 0.71776 1.15514 1.91969 0.462905 0 0 0 1.76405 0.737015 -0.786656 
84 0.247415 0.0622381 2.16075 0.758664 0 0 0 -0.490207 -0.857552 0.680792 
96 1.42755 0.839294 1.89151 0.437828 0 0 0 0.310953 5.2411 -7.87286 
127 1.45838 0.64288 2.04465 0.504506 0 0 0 0.179303 2.32784 -2.51009 
34 -0.00994784 0.530523 1.66397 0.680596 0 0 0 -1.25689 -0.447014 0.292407 
60 0.616718 0.958431 1.89368 0.496539 0 0 0 0.906054 0.186399 0.694858 
25 1.06932 0.282781 1.6188 0.537637 0 0 0 -0.332373 -0.973986 1.42412 
76 0.569501 0.905028 1.57236 0.476952 0 0 0 -0.410874 -0.726924 0.959427 
94 0.548015 0.812212 1.57409 0.494659 0 0 0 -0.474164 -0.799157 1.01573 
37 0.451648 1.06436 1.55401 0.483797 0 0 0 -0.71519 -0.372695 0.80157 
49 -0.225091 0.992379 1.53528 0.693611 0 0 0 -1.56994 0.0719874 0.0721455 
125 1.09267 1.35856 2.31578 0.494749 0 0 0 1.87393 1.87916 -4.76159 
370 1.52837 0.876182 2.34622 0.53546 0 0 0 -0.114118 2.66179 -3.73593 
121 1.2299 0.0557186 2.56175 0.739895 0 0 0 0.42061 -0.46342 0.18891 
97 0.741253 0.963633 2.6719 0.641807 0 0 0 0.791075 0.769509 -0.0276285 
98 0.311902 1.033 2.82434 0.738883 0 0 0 -0.0618709 0.189119 0.942224 
99 0.716605 0.0242852 2.58279 0.779044 0 0 0 0.23813 -0.650581 0.651582 
100 0.647803 0.403616 2.84607 0.77345 0 0 0 0.218132 0.0516036 0.748552 
128 0.383362 1.44118 2.49723 0.615765 0 0 0 0.291514 -0.114644 0.746943 
131 0.549717 1.23793 2.93584 0.721722 0 0 0 0.375433 0.23888 0.767585 
103 1.03332 0.516066 2.74005 0.695681 0 0 0 0.557461 0.579626 -0.00872575 
130 1.37066 0.465208 2.56845 0.65114 0 0 0 0.363667 0.736515 -0.68232 
114 1.06693 0.880374 2.58087 0.60421 0 0 0 0.894337 1.47519 -1.26367 
129 0.50815 0.050381 3.07878 0.938566 0 0 0 -0.0944015 -0.452566 0.926438 
116 -0.0918024 0.828692 2.48471 0.768906 0 0 0 -0.926292 -0.00656186 0.912694 
117 -0.112806 0.373907 2.52757 0.849197 0 0 0 -0.963991 -0.312897 0.858362 
109 0.427185 0.944433 3.03849 0.793867 0 0 0 0.0459899 0.256791 0.963261 
110 0.486302 -0.255055 2.78202 0.93817 0 0 0 -0.121557 -0.936636 0.764154 
123 1.28798 1.23655 2.37886 0.511357 0 0 0 0.834452 2.6414 -5.3259 
112 1.16532 0.424951 2.80165 0.724466 0 0 0 0.467815 0.431173 0.0413314 
162 0.457142 2.5951 0.566884 0.691736 0 0 0 -0.198973 0.795869 -0.433684 
132 0.66222 2.53027 0.217891 0.732798 0 0 0 0.175171 0.271931 -0.33546 
133 0.0922413 1.78605 0.558716 0.665836 0 0 0 -0.455897 0.139869 -0.50416 
134 0.162153 2.01557 0.242431 0.736258 0 0 0 -0.340425 0.197163 -0.58983 
135 1.32373 2.40949 0.446198 0.616066 0 0 0 0.357554 -1.41328 1.05041 
136 1.10481 2.57107 0.555833 0.622616 0 0 0 0.397438 -0.469665 0.464804 
137 0.0490386 2.5059 0.614628 0.758153 0 0 0 -0.885986 0.864005 -0.49477 
138 0.513595 2.21214 0.0647122 0.74566 0 0 0 0.264216 0.00926627 -0.511835 
139 0.291598 2.24804 0.292717 0.722671 0 0 0 -0.186679 0.334724 -0.52609 
140 0.883334 2.73443 0.162878 0.770975 0 0 0 0.129502 0.361198 -0.290006 
141 -0.0439139 2.3866 0.160642 0.863759 0 0 0 -0.835625 0.588499 -0.612646 
142 1.45321 2.54109 0.575777 0.605432 0 0 0 -0.0152713 -1.15817 0.848435 
143 1.27571 2.91643 0.597735 0.687648 0 0 0 -0.0928349 0.533051 -0.0019631 
160 0.794612 3.07601 0.428215 0.804012 0 0 0 -0.207688 1.16476 -0.290245 
145 0.49542 2.00223 0.0139407 0.74095 0 0 0 0.384898 -0.140997 -0.551358 
146 1.33715 2.00137 0.341047 0.601082 0 0 0 0.654432 -2.10931 2.10551 
147 0.766194 1.82077 0.226306 0.636295 0 0 0 1.1953 -0.680028 0.317591 
148 1.26681 3.02295 0.252031 0.79905 0 0 0 -0.0618129 0.640634 -0.233337 
156 0.0923362 1.95726 0.419737 0.705677 0 0 0 -0.503512 0.219996 -0.514308 
150 1.0832 1.84154 0.514007 0.549523 0 0 0 1.65375 -2.03898 2.64023 
155 0.802647 1.62672 0.139302 0.650624 0 0 0 1.20365 -0.523902 0.23211 
161 1.3747 2.00684 0.411124 0.582787 0 0 0 0.554475 -2.40397 2.53741 
159 0.0392305 1.48546 -0.0352872 0.821636 0 0 0 -0.532878 -0.159726 -0.891086 
170 1.13968 2.09624 1.09395 0.440553 0 0 0 1.4661 -3.77863 4.57847 
163 0.51282 2.85754 0.715428 0.721362 0 0 0 -0.362547 1.26008 -0.43412 
202 0.614149 2.0095 1.00203 0.503112 0 0 0 1.10005 -0.139532 -1.05799 
167 0.867397 1.79174 1.05682 0.436404 0 0 0 2.56089 -1.83455 2.56763 
225 1.49735 1.51636 1.51443 0.21752 0 0 0 -0.854946 -0.817992 -0.88512 
169 0.925708 1.73867 1.4307 0.356739 0 0 0 1.84698 -1.94828 4.92857 
201 -0.0238944 2.74169 0.921929 0.787358 0 0 0 -1.1016 1.15803 -0.49364 
171 0.344801 1.88397 1.315 0.51087 0 0 0 -0.752029 0.282541 -1.14343 
183 1.05568 1.45292 1.46249 0.315993 0 0 0 3.41774 1.60693 1.20712 
30 0.792087 1.64482 1.51741 0.376354 0 0 0 1.02652 0.081396 0.162139 
174 0.206881 1.77876 1.03604 0.567113 0 0 0 -0.47647 0.230798 -1.02288 
210 1.50148 1.47892 1.50125 0.21735 0 0 0 0.56509 0.986721 0.146031 
157 1.18863 2.27084 1.02741 0.478472 0 0 0 0.927592 -2.54604 1.97863 
152 1.07996 2.08942 0.712459 0.523345 0 0 0 1.53882 -2.43133 2.3759 
314 1.50113 1.48138 1.50212 0.217251 0 0 0 0.470291 0.862713 0.0420477 
197 0.0748442 2.23525 1.08021 0.643442 0 0 0 -1.00235 0.595563 -0.809887 
180 0.421878 2.02562 1.49853 0.493812 0 0 0 -1.13638 0.33941 -0.727704 
181 0.627688 2.08579 1.41777 0.456516 0 0 0 -0.466696 0.710666 -1.41779 
428 1.18669 2.56475 1.42784 0.483301 0 0 0 -0.598224 1.18328 -1.622 
410 1.4991 1.48774 1.50438 0.217079 0 0 0 0.802549 0.609691 -0.0289965 
184 0.816889 2.82806 1.23689 0.603669 0 0 0 -0.226954 1.57109 -1.11907 
460 1.49413 1.50152 1.50837 0.217104 0 0 0 -0.273636 -0.0797094 -0.506137 
186 0.975643 2.81774 1.04021 0.60602 0 0 0 -0.0236886 1.00236 -0.639691 
196 0.570966 1.70122 1.47318 0.43214 0 0 0 -0.553523 0.191706 -0.178825 
188 0.309627 2.5385 1.32084 0.613258 0 0 0 -0.883856 1.28404 -1.1173 
200 0.952341 2.70818 1.14964 0.565976 0 0 0 0.0652702 0.959632 -1.03808 
190 0.811562 1.85976 1.03819 0.453608 0 0 0 2.21285 -1.24133 0.978857 
166 0.57832 1.64115 0.820064 0.51415 0 0 0 1.37962 -0.126788 -0.491449 
192 0.613365 2.06273 1.28737 0.468807 0 0 0 0.152344 0.522614 -1.66707 
193 1.11512 2.50091 1.38662 0.476141 0 0 0 -0.418175 0.868602 -1.5248 
203 1.49709 1.53529 1.52114 0.218904 0 0 0 -1.53151 -1.18468 -1.05298 
208 1.50103 1.48233 1.50246 0.217218 0 0 0 0.444062 0.810484 0.00867731 
41 1.49969 1.49087 1.50544 0.217018 0 0 0 0.111421 0.31719 -0.330884 
342 1.4981 1.50466 1.51029 0.217088 0 0 0 -0.412804 -0.392952 -0.696461 
164 1.49914 1.49496 1.50687 0.216988 0 0 0 -0.0432885 0.0840228 -0.460906 
40 1.49907 1.4955 1.50707 0.216988 0 0 0 -0.0640083 0.0541514 -0.476695 
219 1.49839 1.50152 1.50919 0.21703 0 0 0 -0.293128 -0.251307 -0.629805 
73 1.49777 1.50903 1.51184 0.21721 0 0 0 -0.578759 -0.570171 -0.776778 
43 0.805599 1.44796 1.3708 0.376499 0 0 0 1.30561 -0.024421 1.27891 
418 1.50719 1.47294 1.49917 0.217693 0 0 0 -0.374747 0.847415 0.029098 
158 1.23226 1.80441 1.1131 0.389205 0 0 0 1.38759 -9.68816 21.2846 
394 1.50446 1.48699 1.49865 0.21713 0 0 0 -0.306908 0.643978 -1.04261 
107 1.49843 1.45725 1.49536 0.218852 0 0 0 1.73308 1.28059 2.59195 
215 0.540875 2.16283 1.63005 0.479713 0 0 0 -1.42839 0.603952 -0.340438 
447 1.39749 2.80307 2.23838 0.567393 0 0 0 -0.109976 1.2307 1.24136 
205 0.0357135 1.958 2.06486 0.630638 0 0 0 -1.35399 -0.385488 0.701841 
206 1.02526 2.47209 2.29805 0.52608 0 0 0 -0.784676 0.0757929 2.24096 
207 0.438849 2.84841 1.72196 0.64868 0 0 0 -0.970142 1.70347 -0.719289 
257 1.1462 1.73854 1.5693 0.308094 0 0 0 0.151526 1.3663 0.791277 
194 0.555397 1.94539 1.63956 0.452293 0 0 0 -1.32443 0.0737944 0.24898 
235 1.21548 2.18612 2.35238 0.49366 0 0 0 -0.515822 -1.03701 1.78992 
211 0.956352 2.92221 2.05614 0.605034 0 0 0 -0.719809 1.80984 0.0663343 
212 0.453134 2.60915 1.67387 0.582913 0 0 0 -1.16157 1.49543 -0.741528 
213 0.821559 1.77282 1.80143 0.397828 0 0 0 -0.215143 0.0120882 -1.2519 
242 0.400463 2.35909 2.29194 0.595598 0 0 0 -1.03597 -0.272329 1.1963 
231 0.848346 2.32006 2.12815 0.491556 0 0 0 -1.46654 0.000740789 2.18595 
216 1.16683 2.94849 2.0896 0.599367 0 0 0 -0.547791 1.81478 0.245518 
217 0.343205 2.85138 1.83538 0.671171 0 0 0 -1.07811 1.48816 -0.520565 
218 0.188137 2.60236 1.94756 0.653436 0 0 0 -1.42612 0.765565 -0.0978892 
468 0.852825 2.30966 1.85529 0.453563 0 0 0 -2.19994 1.12478 0.887589 
204 0.98245 2.13674 1.79705 0.400179 0 0 0 -3.11407 1.07103 0.489751 
221 0.781368 2.16855 1.99554 0.461677 0 0 0 -1.81785 -0.142149 1.89159 
222 0.874654 2.13024 1.82114 0.418687 0 0 0 -2.52254 0.607943 0.876329 
223 0.648263 1.75377 1.7334 0.42543 0 0 0 -0.647164 -0.24432 0.582373 
246 1.14636 1.78049 1.58 0.313138 0 0 0 -0.96489 1.31955 0.383238 
104 0.233992 1.55829 2.31381 0.6057 0 0 0 -0.273952 -0.332353 0.943843 
226 1.33009 3.06354 2.06162 0.626229 0 0 0 -0.383272 1.88234 0.0383672 
227 0.147304 1.58649 2.08044 0.590155 0 0 0 -0.73898 -0.333806 0.957716 
234 1.08919 1.775 1.65729 0.327881 0 0 0 -0.110683 5.13805 -13.7894 
238 1.01265 1.72344 1.58265 0.333682 0 0 0 1.23773 1.3774 -3.74707 
321 1.32126 2.33261 1.84131 0.409752 0 0 0 -2.19726 3.09489 1.05828 
475 0.852232 2.20785 1.83083 0.434528 0 0 0 -2.39337 0.831083 0.93605 
476 1.236 2.27059 2.3039 0.488502 0 0 0 -0.670177 -0.591763 2.29739 
189 0.782459 2.23929 1.56137 0.444168 0 0 0 -1.22517 1.24318 -1.12477 
239 1.34952 1.8979 1.62615 0.304185 0 0 0 -5.24235 3.48677 3.25047 
328 1.23901 2.61188 1.80516 0.480288 0 0 0 -1.13673 2.5566 -0.289689 
185 0.0296419 2.45809 1.54539 0.667551 0 0 0 -1.48893 0.759403 -0.529466 
337 1.08118 2.12646 1.79494 0.384858 0 0 0 -3.71965 1.54264 0.134526 
462 1.49401 3.28881 1.96819 0.696854 0 0 0 -0.327531 1.9614 -0.252645 
168 1.33187 1.8586 1.63154 0.298783 0 0 0 -4.91542 3.88044 2.86767 
247 1.21228 2.26016 1.82707 0.399112 0 0 0 -3.19428 2.6009 0.841944 
177 1.34233 2.09072 1.75653 0.350179 0 0 0 -4.10425 3.77391 -1.22958 
485 1.5067 2.80876 2.33205 0.583719 0 0 0 0.0957027 0.929009 1.3801 
264 1.37211 2.2453 1.827 0.387486 0 0 0 -2.45635 3.42762 0.951707 
69 1.40451 2.22361 1.82304 0.381678 0 0 0 -2.28881 3.58823 0.832512 
483 1.42128 2.31224 1.83497 0.40212 0 0 0 -1.57752 3.46079 1.19432 
350 1.439 2.29198 1.83174 0.397127 0 0 0 -1.51893 3.54182 1.19905 
249 0.81074 1.71806 2.34598 0.511764 0 0 0 1.12856 -0.642108 -0.1956 
420 1.11137 1.94425 1.68019 0.344427 0 0 0 -3.58164 1.60284 -2.54968 
240 1.42891 1.99381 1.67738 0.320756 0 0 0 -4.04899 3.9581 0.323451 
300 1.51917 1.67207 1.57346 0.245251 0 0 0 -3.20636 2.24027 -0.654327 
398 1.51864 1.67006 1.57264 0.244758 0 0 0 -3.21477 2.18973 -0.696327 
29 0.0998295 1.58839 1.57877 0.564951 0 0 0 -1.34126 0.010449 0.251716 
224 1.11369 1.66991 1.54005 0.307841 0 0 0 2.25736 1.35868 0.488718 
111 0.951802 1.52522 1.75503 0.365738 0 0 0 2.94904 3.99089 -11.4169 
105 1.42239 1.7449 1.56869 0.264087 0 0 0 -3.21146 2.29618 8.88828 
172 1.02343 1.85688 1.56822 0.344259 0 0 0 -0.614692 -1.55418 3.58476 
153 1.36635 1.72333 1.67669 0.280188 0 0 0 -1.66233 12.4672 -21.7808 
341 1.49773 1.55245 1.52725 0.220827 0 0 0 -2.06925 -1.20976 -1.11529 
144 1.49738 1.55544 1.52765 0.221192 0 0 0 -2.02454 -1.23731 -0.917066 
332 1.49424 1.56548 1.53147 0.222691 0 0 0 -0.539434 -0.878754 -0.942137 
486 1.5315 1.94567 2.15281 0.420413 0 0 0 -0.552576 0.80653 -5.18583 
336 1.53234 1.71295 1.59081 0.255617 0 0 0 -2.86158 3.06646 0.056495 
80 1.4976 1.55014 1.52643 0.220534 0 0 0 -2.00202 -1.22173 -1.11031 
232 0.492161 2.02196 2.69548 0.642609 0 0 0 -0.0745563 -0.8048 1.41709 
233 0.819151 1.89518 2.82464 0.638635 0 0 0 0.44048 -0.774791 1.02632 
255 -0.0545534 2.84034 2.49112 0.830805 0 0 0 -1.33128 0.662495 0.395605 
266 0.366654 1.98499 2.58794 0.636921 0 0 0 -0.320954 -0.749402 1.30898 
236 1.10598 2.61864 2.76413 0.651238 0 0 0 -0.0563475 -0.167823 1.86498 
237 0.373433 2.44496 2.4469 0.637517 0 0 0 -0.879454 -0.195095 1.14202 
262 0.719176 1.67966 2.53177 0.568062 0 0 0 0.926248 -0.484223 0.339225 
254 0.214178 2.73861 3.11696 0.891494 0 0 0 -0.712483 0.273397 1.45052 
118 0.0283951 1.48111 2.6882 0.743106 0 0 0 -0.65358 -0.166582 1.01436 
241 0.939423 2.12978 3.11426 0.728296 0 0 0 0.137837 -0.66153 1.54263 
265 0.0329589 3.01139 2.61218 0.868521 0 0 0 -1.12544 0.909761 0.525489 
243 0.55965 3.01397 2.64266 0.760242 0 0 0 -0.508857 1.00279 0.858381 
244 -0.0538428 3.17008 2.96978 1.01469 0 0 0 -0.989227 0.906801 0.853327 
245 1.25688 2.18075 2.86042 0.631951 0 0 0 -0.0454286 -0.976669 1.37672 
256 0.0639248 2.93295 2.98771 0.928309 0 0 0 -0.938701 0.617744 1.10112 
260 -0.0684582 2.86215 2.72928 0.884979 0 0 0 -1.22646 0.592822 0.736888 
248 0.535509 2.66342 2.98131 0.774497 0 0 0 -0.342598 0.0705723 1.64875 
507 1.514 2.78544 2.91086 0.71764 0 0 0 0.00159084 0.241194 1.78 
258 0.563516 2.96535 3.08817 0.86575 0 0 0 -0.344538 0.623048 1.47814 
251 0.511306 2.47669 2.63315 0.654783 0 0 0 -0.499801 -0.285978 1.4739 
252 -0.111919 2.39186 2.39214 0.75658 0 0 0 -1.48801 -0.0397626 0.500076 
253 1.04036 3.18638 2.78128 0.794803 0 0 0 -0.146963 1.14523 1.12598 
267 1.82892 0.385598 0.477784 0.596851 0 0 0 -0.154214 -0.0364137 -2.08402 
268 2.77883 0.405527 0.286066 0.786131 0 0 0 1.25567 -0.459802 -1.24518 
269 2.2067 0.0402886 -0.170094 0.89093 0 0 0 0.374263 -0.769612 -1.63993 
270 2.56706 0.0594604 -0.0701694 0.911769 0 0 0 0.827072 -0.801582 -1.41337 
291 2.17938 0.517071 -0.0151426 0.745445 0 0 0 0.10455 -0.0265071 -1.80516 
272 2.88249 0.826455 0.434378 0.720698 0 0 0 1.24071 0.030977 -1.11999 
273 1.72709 1.05678 0.271323 0.594022 0 0 0 -0.639106 0.752335 0.272386 
295 2.17131 1.36023 0.380862 0.583848 0 0 0 -1.3207 0.225597 0.267924 
275 2.66357 -0.0269304 -0.00181462 0.933266 0 0 0 0.95208 -0.903036 -1.25185 
276 1.80978 0.0752498 0.0483237 0.778947 0 0 0 -0.0838288 -0.687909 -1.77599 
294 1.7398 1.32132 0.468047 0.539317 0 0 0 -1.13499 0.0486344 2.88224 
278 1.84914 0.11894 -0.0193079 0.792007 0 0 0 -0.05373 -0.613858 -1.79871 
279 2.175 0.767302 0.422036 0.586647 0 0 0 -0.127534 0.711332 -1.5724 
290 2.36632 1.24236 0.156962 0.668461 0 0 0 -0.466664 0.307243 -0.928703 
281 2.44926 1.10437 0.37246 0.618621 0 0 0 -0.226707 0.581781 -1.09594 
289 2.44023 0.7443 0.539652 0.597762 0 0 0 0.576956 0.387556 -1.48423 
292 2.33956 0.902121 0.628319 0.547956 0 0 0 0.151969 0.78704 -1.36182 
284 1.63517 0.78828 0.385013 0.570139 0 0 0 -0.509399 0.940154 -0.962251 
285 2.84963 1.17716 0.0625953 0.791308 0 0 0 0.715072 0.0555125 -1.2482 
286 1.78723 0.48572 0.444945 0.587348 0 0 0 -0.294051 0.282619 -2.06148 
287 2.57698 1.17322 0.482565 0.611559 0 0 0 0.0428269 0.539602 -1.02997 
288 2.12027 0.470308 0.103735 0.706465 0 0 0 0.0548259 -0.00959643 -1.83868 
283 2.43673 -0.0381346 0.797335 0.720708 0 0 0 1.11704 -1.28515 -0.558131 
297 2.10952 0.404046 1.31447 0.507879 0 0 0 1.90424 -1.28945 1.10995 
298 2.93 0.378403 1.22614 0.69964 0 0 0 1.80701 -0.768665 0.103674 
299 2.17784 0.794496 1.15773 0.446811 0 0 0 3.04167 -0.0319808 -0.486571 
326 2.16131 0.241585 1.27565 0.557613 0 0 0 1.36204 -1.47802 0.897709 
421 1.83955 1.44085 1.50274 0.295549 0 0 0 -2.29219 -3.41387 -0.0461428 
302 2.20229 0.171773 1.03879 0.593098 0 0 0 1.23414 -1.32815 -0.190313 
409 1.68108 1.13813 1.38277 0.302335 0 0 0 7.62322 -3.47439 0.201942 
304 2.56841 0.907698 0.967206 0.532659 0 0 0 1.36612 0.342864 -0.843688 
327 2.48295 0.0221941 1.06097 0.685998 0 0 0 1.27707 -1.34473 -0.00759077 
271 2.03989 0.860397 1.25086 0.407326 0 0 0 4.83353 -0.126062 -0.0685207 
325 1.98593 0.355556 1.00005 0.521512 0 0 0 1.37392 -1.15534 -1.03989 
308 1.84277 0.353851 1.39548 0.497792 0 0 0 1.14385 -1.67522 1.55097 
309 2.88628 1.00556 1.17505 0.59401 0 0 0 1.74572 0.142737 -0.102375 
352 2.8534 1.20475 1.47988 0.560577 0 0 0 1.76099 0.0542464 0.516959 
311 2.00272 0.716305 0.965153 0.458607 0 0 0 2.42627 -0.00748861 -1.77903 
312 2.53391 1.33844 0.846887 0.525579 0 0 0 -0.117277 0.54843 -0.59708 
293 2.42309 1.11164 0.861819 0.504926 0 0 0 0.210279 0.810986 -0.879103 
324 1.62813 -0.0597919 0.885018 0.633871 0 0 0 -0.114654 -1.61402 -0.685124 
315 2.60039 1.07859 1.23024 0.500886 0 0 0 1.63787 0.261183 -0.0845616 
316 2.72627 0.872234 1.06806 0.566481 0 0 0 1.68883 0.084079 -0.390885 
317 2.17447 0.00896144 1.26039 0.630984 0 0 0 0.833525 -1.67298 0.738086 
345 2.10887 1.08501 1.35917 0.384713 0 0 0 3.15609 0.531438 0.357374 
323 2.38133 0.33123 1.45359 0.569984 0 0 0 1.39884 -1.12537 1.28537 
455 2.55583 1.28173 1.36755 0.472766 0 0 0 1.51325 0.132497 0.181871 
435 2.27638 1.22552 1.31462 0.411362 0 0 0 0.998267 0.0654553 0.56552 
448 2.20141 1.19778 1.32868 0.395788 0 0 0 1.29386 0.0631295 0.913621 
330 2.12818 0.96826 1.33153 0.403423 0 0 0 3.69326 0.317752 0.285003 
333 2.02457 1.08667 1.30522 0.371338 0 0 0 4.55214 0.0176816 1.82278 
320 2.05152 1.24466 1.39438 0.356998 0 0 0 1.45059 -0.21776 1.67603 
85 1.93765 0.688033 1.22732 0.424792 0 0 0 4.19083 -1.03463 -0.384204 
72 1.85276 0.835644 1.34412 0.381421 0 0 0 5.99034 -0.138975 -1.58483 
280 1.92793 1.15719 0.954496 0.418542 0 0 0 0.282149 -0.515639 5.5176 
282 1.82595 1.09003 1.37788 0.331792 0 0 0 7.6816 0.0361807 -2.08914 
58 1.53876 0.410765 0.794842 0.520963 0 0 0 -0.628839 -0.813628 -2.48372 
7 1.78035 0.749637 1.18988 0.399084 0 0 0 4.57965 -1.93003 -1.0729 
175 1.68619 0.702479 1.18442 0.402965 0 0 0 3.05562 -2.53234 -1.39671 
151 1.67336 0.69487 1.1842 0.404022 0 0 0 2.80395 -2.59507 -1.42887 
102 1.68172 0.685806 1.18739 0.406091 0 0 0 2.83256 -2.53392 -1.39639 
401 1.68761 1.21333 1.38461 0.290456 0 0 0 6.15645 -7.39777 9.31002 
431 1.82256 1.38594 1.47812 0.294164 0 0 0 -1.17775 -3.90084 1.50471 
230 1.56872 0.814005 1.19065 0.375187 0 0 0 1.90291 -3.51154 -0.549961 
402 1.95158 1.39057 1.1827 0.365174 0 0 0 -1.92926 -6.34706 17.6049 
61 2.0614 1.43225 1.48035 0.347744 0 0 0 -1.14357 -1.58245 0.680983 
305 2.1485 1.42894 1.51639 0.368186 0 0 0 -0.452807 -0.690371 -0.938642 
89 2.19201 1.4391 1.48267 0.378192 0 0 0 -0.209217 -1.02966 0.257622 
363 1.70563 1.42058 1.51274 0.263072 0 0 0 1.53736 23.0526 -69.0681 
500 2.10569 1.32174 1.88393 0.412451 0 0 0 -1.33956 1.80837 -6.18331 
355 2.35839 0.184456 1.86312 0.634469 0 0 0 0.366735 -1.07693 1.05964 
381 3.11612 1.01979 2.35073 0.739095 0 0 0 1.30336 -0.262191 0.688345 
331 2.87923 0.0788104 2.06589 0.792852 0 0 0 1.08628 -1.1504 0.611433 
364 1.76963 0.735983 2.16029 0.51731 0 0 0 -0.565355 2.08265 -2.76984 
456 2.33967 1.28734 1.85279 0.452111 0 0 0 -0.022018 -0.0187005 -0.568012 
334 2.8487 0.650639 1.56623 0.619734 0 0 0 1.61383 -0.526143 0.796452 
379 2.85971 0.751268 2.16119 0.662738 0 0 0 0.956928 -0.296378 0.716276 
357 2.7917 1.1106 1.69074 0.555739 0 0 0 1.47413 -0.156901 0.974831 
349 2.50806 1.06994 1.68912 0.485856 0 0 0 1.04779 -0.242799 1.07398 
338 2.91328 1.04907 1.57017 0.592007 0 0 0 1.69152 -0.0901275 0.71625 
339 2.60637 0.208209 1.78259 0.663657 0 0 0 0.880222 -1.09935 0.930318 
340 2.03196 0.91907 1.73825 0.427771 0 0 0 0.609868 2.04151 -2.76086 
380 2.25571 1.36196 2.17207 0.492287 0 0 0 -0.922268 0.227029 -1.48848 
356 2.53184 0.904635 2.01939 0.548951 0 0 0 0.229595 -0.0732543 0.595389 
359 2.00327 -0.0960476 2.15981 0.722345 0 0 0 0.00873031 -1.20845 0.524018 
344 2.80142 -0.0437756 2.11852 0.816013 0 0 0 0.909436 -1.2932 0.606323 
348 3.04076 1.33757 1.60003 0.619054 0 0 0 1.74328 -0.105231 0.435825 
346 1.58773 0.374971 1.94495 0.544623 0 0 0 0.0740158 0.361049 0.0551931 
354 2.04635 0.843228 1.58868 0.422712 0 0 0 2.33694 1.0643 -0.593 
368 2.37677 0.682568 2.36623 0.614731 0 0 0 -0.272401 0.0967536 0.0449072 
366 1.71032 1.38228 2.04884 0.405722 0 0 0 -1.48484 7.06252 -20.3547 
371 2.18583 0.971472 2.33558 0.551661 0 0 0 -0.951578 0.813112 -1.29553 
377 1.74602 1.18743 1.97103 0.407234 0 0 0 -1.22698 7.54321 -18.0362 
360 1.90747 0.404477 2.3254 0.616732 0 0 0 -0.290948 0.209366 -0.467831 
361 2.15681 1.26106 2.27567 0.509606 0 0 0 -1.325 0.772354 -2.22138 
335 2.54275 0.223584 1.52696 0.631492 0 0 0 1.20218 -1.16832 0.995495 
384 1.99729 -0.0776343 2.77942 0.849445 0 0 0 0.0754496 -0.817648 0.466719 
376 2.66835 0.594173 2.77916 0.779061 0 0 0 0.370165 -0.267636 0.787277 
375 2.39585 0.989106 2.70504 0.665022 0 0 0 -0.364346 0.253897 0.190177 
362 2.50173 1.42621 2.86667 0.696429 0 0 0 -0.12696 -0.207796 0.71251 
126 1.54709 0.230959 2.44275 0.669908 0 0 0 0.190602 -0.043135 -0.289624 
383 3.11738 1.16306 2.83543 0.835522 0 0 0 1.0359 -0.275953 0.893787 
365 2.9694 -0.0926729 2.52754 0.942724 0 0 0 0.964655 -1.11935 0.625861 
374 2.49303 0.362288 2.5845 0.739403 0 0 0 0.16373 -0.518943 0.603534 
367 2.83512 -0.0952136 2.44692 0.894592 0 0 0 0.828558 -1.20572 0.631797 
382 2.46012 0.611973 2.90139 0.779646 0 0 0 0.00277 -0.096016 0.703882 
369 2.63777 0.58011 2.64824 0.739165 0 0 0 0.331702 -0.275992 0.688794 
373 2.14105 0.726531 2.45078 0.603868 0 0 0 -0.651308 0.594314 -0.680589 
406 2.09112 2.16897 0.430837 0.611265 0 0 0 -1.06551 -1.43414 0.481055 
386 2.0284 2.99122 0.37105 0.772703 0 0 0 -0.203152 0.499822 -0.469324 
387 2.72329 1.69898 0.609382 0.62061 0 0 0 0.125373 -0.139272 -0.670041 
408 1.85314 2.49566 0.317939 0.670081 0 0 0 -0.440768 -0.943485 0.185395 
389 2.18616 3.05826 0.42831 0.790714 0 0 0 -0.0941007 0.695831 -0.557213 
390 2.98317 1.77901 0.535158 0.70793 0 0 0 0.849905 -0.12928 -0.779543 
391 2.11536 1.83162 0.648478 0.532528 0 0 0 -2.13312 -1.78887 1.75407 
403 2.5459 2.18679 0.119719 0.751348 0 0 0 -0.0754448 -0.411465 -0.815093 
393 2.66093 2.28842 0.183068 0.7642 0 0 0 0.173615 -0.246743 -0.873349 
405 2.78811 3.02173 -0.121108 1.01931 0 0 0 0.448673 0.483319 -0.802752 
395 1.81381 2.31843 0.625904 0.567287 0 0 0 -0.975004 -2.06635 1.31376 
396 2.10804 2.72738 0.663083 0.647387 0 0 0 -0.447567 -0.0233277 -0.398825 
397 2.16783 2.01056 -0.00250675 0.73013 0 0 0 -0.551791 -0.808944 -0.326954 
407 3.03609 2.65996 0.0661401 0.941518 0 0 0 0.752087 0.242108 -0.877941 
399 2.55634 2.07553 0.339483 0.678295 0 0 0 -0.217672 -0.510667 -0.662343 
400 3.03866 3.09633 0.0948083 1.03121 0 0 0 0.703317 0.615636 -0.726266 
404 2.54911 1.82913 0.135103 0.717733 0 0 0 -0.227236 -0.383348 -0.795866 
392 1.64899 1.702 1.30211 0.313728 0 0 0 -4.39399 -24.5592 61.7487 
347 1.74969 2.58561 1.44171 0.482405 0 0 0 -0.442346 0.909042 -1.16967 
470 3.18033 2.73685 1.51285 0.777331 0 0 0 1.36502 0.545226 -0.283493 
412 2.83895 2.70486 0.904633 0.719794 0 0 0 0.791078 0.476939 -0.695037 
413 2.99686 2.31763 1.18363 0.663643 0 0 0 1.32583 -0.0831108 -0.6254 
414 2.35624 1.78558 1.13988 0.461764 0 0 0 -0.742124 -1.47694 0.0407815 
415 2.1873 1.95171 0.959634 0.482596 0 0 0 -2.14007 -2.22295 1.05721 
416 1.76813 2.56766 1.21183 0.503755 0 0 0 -0.959933 -0.469317 -0.755582 
454 1.96176 3.07034 1.40585 0.634752 0 0 0 -0.187832 1.48752 -0.880987 
427 1.90156 2.97811 1.41373 0.600578 0 0 0 -0.275442 1.393 -1.01348 
419 3.09087 2.31628 1.28366 0.685428 0 0 0 1.47357 -0.0907991 -0.502444 
457 2.18048 2.18527 1.39274 0.445661 0 0 0 0.664436 -0.848664 -0.804472 
411 1.77754 1.49711 1.51758 0.279063 0 0 0 -3.50487 -3.8676 0.148406 
422 2.52327 1.82722 0.892716 0.53417 0 0 0 -0.488509 -0.711668 -0.445568 
423 2.22281 3.17064 1.41836 0.692845 0 0 0 0.211834 1.49872 -0.625272 
424 1.98908 2.69972 0.785545 0.609121 0 0 0 -0.64464 -0.213526 -0.311737 
425 2.52502 2.65947 0.978218 0.634301 0 0 0 0.284964 0.3798 -0.819752 
426 2.16556 2.22827 1.02762 0.500696 0 0 0 -1.39628 -1.51879 -0.245672 
446 2.15404 1.47217 1.43061 0.370648 0 0 0 -0.758455 -2.07818 2.30951 
441 3.15008 2.03261 1.39372 0.670917 0 0 0 1.6853 -0.393187 -0.321676 
429 2.28301 3.01718 0.830941 0.710768 0 0 0 -0.0175297 0.880801 -0.6455 
430 3.24665 2.98694 1.29672 0.866166 0 0 0 1.22318 0.801649 -0.328424 
449 2.29124 2.24049 1.41349 0.472486 0 0 0 0.979856 -0.238254 -1.01198 
388 1.59812 2.19685 1.01815 0.46319 0 0 0 -1.12518 -4.52467 4.55073 
433 2.03728 1.73803 1.21703 0.390807 0 0 0 -3.06219 -5.99412 9.07279 
434 1.60082 2.73668 1.06616 0.558628 0 0 0 -0.646779 -0.10437 -0.507376 
432 2.37388 1.88404 1.34991 0.447539 0 0 0 0.877454 -1.55971 -0.547262 
436 3.01036 2.09203 0.843111 0.681813 0 0 0 1.07791 -0.223418 -0.688405 
437 2.84619 1.57156 0.966141 0.587292 0 0 0 0.940979 0.0775132 -0.585484 
438 2.85549 2.16438 1.42914 0.5892 0 0 0 1.62873 -0.368407 -0.503889 
439 3.06984 3.26361 1.23339 0.897855 0 0 0 0.949553 1.11242 -0.325501 
440 2.10109 2.01539 0.939846 0.48386 0 0 0 -2.34455 -2.61685 1.55998 
458 2.1452 2.40779 1.42054 0.480221 0 0 0 0.45208 0.375888 -1.04743 
464 2.20089 2.07552 1.39205 0.431481 0 0 0 0.776321 -1.57509 -0.489589 
443 2.5877 1.94946 2.09056 0.53552 0 0 0 1.2274 -0.88326 1.06618 
444 2.84859 1.46505 1.86655 0.570206 0 0 0 1.47547 -0.495901 0.741034 
445 2.81526 2.21551 2.12929 0.614386 0 0 0 1.2189 -0.37656 0.618598 
310 1.78293 2.08928 1.76574 0.364644 0 0 0 2.92989 1.76755 -0.104242 
372 1.61022 2.19643 1.81033 0.377705 0 0 0 0.390846 3.5285 0.842876 
296 2.37675 1.99588 1.7502 0.454788 0 0 0 2.73149 -0.912941 0.691357 
471 1.98873 1.90614 1.68087 0.358624 0 0 0 3.68315 -2.27065 -0.855839 
450 2.67999 1.85887 1.96779 0.537545 0 0 0 1.5715 -0.979895 0.850288 
182 1.64285 1.88949 1.64867 0.302926 0 0 0 0.632188 1.14002 2.03377 
452 2.1188 2.90997 1.68517 0.59222 0 0 0 0.466523 1.44555 -0.398892 
453 1.56027 2.45094 2.19981 0.487032 0 0 0 0.354015 0.827486 2.3281 
469 2.08406 1.70843 2.05621 0.431067 0 0 0 0.026026 -0.355365 -3.08897 
343 2.09717 1.70348 1.57754 0.360074 0 0 0 0.921802 -3.60646 0.0491812 
481 2.16302 2.25177 1.79843 0.451734 0 0 0 2.75714 0.771779 1.11108 
467 1.86345 2.6493 1.66668 0.495959 0 0 0 0.528553 1.84501 -0.479486 
378 1.78867 2.33534 1.81544 0.420983 0 0 0 1.83524 2.73106 1.37883 
459 3.15663 2.7618 2.17728 0.803688 0 0 0 1.33111 0.599004 0.259743 
277 1.76727 1.99982 1.70694 0.340648 0 0 0 3.0054 0.914971 -1.08509 
461 1.65114 2.97998 1.71221 0.580966 0 0 0 -0.214544 1.91987 -0.769157 
263 1.87893 1.99472 1.72044 0.355843 0 0 0 3.87639 -0.294746 -0.870119 
261 1.68404 1.99278 1.69119 0.3293 0 0 0 1.71228 1.80496 -0.604174 
176 1.90639 1.54435 1.53657 0.311144 0 0 0 -2.19475 -3.76125 0.588701 
465 1.96042 2.96193 1.89533 0.59778 0 0 0 0.44138 1.5593 0.0162202 
466 2.24247 3.2713 1.79524 0.726833 0 0 0 0.419269 1.62691 -0.194176 
319 2.24974 1.91454 1.63878 0.41173 0 0 0 2.91677 -1.83137 0.10659 
478 2.18733 3.04935 2.25826 0.683235 0 0 0 0.539366 1.21413 0.57248 
484 1.90492 2.64751 2.31714 0.56231 0 0 0 0.647538 0.489756 1.45393 
187 2.1303 2.09995 1.70539 0.413707 0 0 0 3.45119 -0.361956 0.630698 
509 3.29296 2.84291 2.26144 0.875194 0 0 0 1.37373 0.65391 0.329601 
488 2.31765 1.87768 1.72535 0.42917 0 0 0 2.78259 -1.52849 0.405966 
492 2.70859 2.30871 2.28735 0.620861 0 0 0 0.893965 -0.213803 0.823929 
494 2.94686 2.34984 2.28063 0.684458 0 0 0 1.18417 -0.127247 0.575895 
504 2.87671 1.9456 2.27657 0.631951 0 0 0 1.10361 -0.739901 0.756493 
199 1.89314 1.96045 1.70229 0.351185 0 0 0 3.89567 -0.926794 -1.12833 
120 1.67258 1.96379 1.67438 0.321486 0 0 0 1.4594 1.53513 -0.00784861 
442 2.28183 1.67739 1.7112 0.410209 0 0 0 1.68401 -1.59522 -0.505217 
498 2.04613 1.55965 1.97781 0.409444 0 0 0 -0.910763 1.08478 -7.1466 
487 1.91916 2.03369 2.33112 0.488955 0 0 0 0.0326495 -0.698237 0.224911 
209 2.03145 1.7059 1.5911 0.345966 0 0 0 0.866244 -3.84926 -0.484644 
36 2.10177 2.14084 1.7225 0.416342 0 0 0 3.40674 0.0971121 0.7741 
191 1.67811 1.96818 1.67706 0.323023 0 0 0 1.57681 1.52198 -0.149935 
417 2.33713 2.53507 1.7657 0.533532 0 0 0 1.30013 0.973346 0.259033 
451 2.99113 2.22371 1.53029 0.63345 0 0 0 1.65106 -0.275949 -0.312234 
259 1.58513 1.88707 1.64908 0.297928 0 0 0 -0.810331 2.34861 2.43859 
463 1.58447 1.95968 1.66739 0.313833 0 0 0 -0.643983 2.58972 1.31811 
307 1.54446 1.74374 1.60345 0.263562 0 0 0 -2.46964 3.23988 0.807286 
220 1.54373 1.74204 1.60278 0.263122 0 0 0 -2.49401 3.24002 0.763742 
496 2.03147 2.50601 2.78624 0.657583 0 0 0 0.0310428 -0.181216 1.5299 
472 2.0747 1.79642 2.63684 0.574764 0 0 0 -0.779222 -0.595594 -0.076366 
473 1.75626 1.5959 2.58877 0.549216 0 0 0 -1.17773 0.121215 -2.34777 
474 2.95854 3.17647 2.68346 0.934252 0 0 0 0.90127 1.04183 0.755758 
497 1.61663 1.94128 2.57965 0.539007 0 0 0 -0.635607 -1.02516 -0.520565 
502 2.22662 2.57159 2.71503 0.667083 0 0 0 0.220398 0.0468206 1.38664 
477 3.17713 2.0138 2.59478 0.781976 0 0 0 1.29712 -0.453759 0.857116 
513 2.63016 3.02979 3.05944 0.919994 0 0 0 0.557671 0.805129 1.277 
479 1.80985 1.75127 2.417 0.498561 0 0 0 -1.15684 -0.356621 -2.63211 
501 1.65361 2.45381 3.00117 0.698248 0 0 0 -0.144865 -0.376348 1.7334 
503 2.03372 3.1535 2.47845 0.734323 0 0 0 0.328414 1.26103 0.849396 
482 1.57532 3.16057 3.12964 0.875846 0 0 0 0.0454269 0.862651 1.49569 
511 3.00814 2.13235 2.41307 0.702009 0 0 0 1.18574 -0.46352 0.754319 
510 2.10249 2.54653 2.61071 0.623519 0 0 0 0.225987 -0.0462921 1.38353 
508 2.62305 1.96044 3.05692 0.772119 0 0 0 0.282781 -0.4091 1.38037 
505 3.15567 2.91939 3.22206 1.06051 0 0 0 0.887147 0.587057 1.13087 
499 1.80691 1.78436 2.91322 0.645105 0 0 0 -0.705547 -0.515537 0.13682 
495 2.94831 1.72933 2.79659 0.75814 0 0 0 0.827132 -0.506833 1.07247 
489 3.12957 1.50361 3.00017 0.868007 0 0 0 0.959265 -0.334795 1.04645 
490 2.37284 2.40854 2.58346 0.629825 0 0 0 0.304747 -0.181173 1.22528 
491 2.27434 1.49882 2.74564 0.629949 0 0 0 -0.618194 -0.16034 0.104058 
506 1.97648 2.06883 3.04671 0.700276 0 0 0 -0.385153 -0.559218 1.21411 
493 3.07267 3.01074 2.79147 0.943091 0 0 0 1.00009 0.817251 0.886016 
480 2.35966 2.25058 2.39424 0.569218 0 0 0 0.406865 -0.387137 1.22441 
ITEM: TIMESTEP
800978
ITEM: NUMBER OF ATOMS
512
ITEM: BOX BOUNDS ss ss ss
-2.2775349561678951e-01 3.2932607586404616e+00
-4.0122540508749138e-01 3.2891132425832117e+00
-1.7039273299291779e-01 3.2223573019164853e+00
ITEM: ATOMS id x y z width_SPH x_COM y_COM z_COM vx vy vz 
23 0.539286 1.16104 0.372782 0.613015 0 0 0 0.633791 -0.0976601 -0.569997 
3 -0.140327 -0.124431 0.0939758 1.0357 0 0 0 -1.01066 -0.934139 -0.881357 
4 1.1215 0.71024 0.265512 0.622552 0 0 0 0.0093526 0.209769 -1.02936 
5 0.225459 1.27088 -0.0393992 0.782508 0 0 0 -0.197426 -0.301979 -0.966512 
6 0.0115281 1.14394 0.37696 0.727351 0 0 0 -0.762221 -0.268027 -0.705396 
22 0.128622 1.05029 0.0596023 0.785115 0 0 0 -0.507386 -0.424319 -0.970675 
8 0.686461 0.733456 -0.0391932 0.747512 0 0 0 0.095326 -0.433158 -1.18306 
9 1.3567 -0.241851 0.263495 0.804204 0 0 0 -0.298902 -1.18641 -1.40897 
10 -0.0863139 -0.263403 0.0260469 1.0737 0 0 0 -0.931978 -0.985738 -0.901917 
11 0.920704 1.15036 -0.0285244 0.696436 0 0 0 0.752232 -0.165354 -0.435119 
12 0.461885 1.343 0.164185 0.674423 0 0 0 0.502728 -0.204181 -0.606959 
13 0.27863 -0.299306 0.200454 0.957905 0 0 0 -0.806312 -1.14364 -1.01853 
14 0.972036 1.22081 0.390068 0.568523 0 0 0 1.27038 0.142467 0.812707 
15 1.08249 0.66997 0.304811 0.617963 0 0 0 -0.0679131 0.142877 -1.16073 
16 0.612758 -0.235825 0.244743 0.869624 0 0 0 -0.630669 -1.1666 -1.2039 
17 0.87827 0.253889 0.00523231 0.78318 0 0 0 -0.298618 -0.660971 -1.49785 
18 0.562192 0.565604 0.356096 0.67312 0 0 0 -0.327165 -0.544912 -1.23564 
274 1.4895 1.31442 0.568077 0.508711 0 0 0 -0.20659 -0.281938 4.84889 
20 0.679388 0.94068 0.297782 0.628463 0 0 0 0.463984 -0.143637 -0.766467 
62 1.19143 1.02676 0.635982 0.499498 0 0 0 0.00571629 0.577696 1.37846 
50 0.549989 -0.381027 0.627225 0.850631 0 0 0 -0.73867 -1.36616 -0.856496 
31 -0.066696 1.19079 0.657986 0.69483 0 0 0 -0.999895 -0.0999559 -0.584647 
44 0.384568 0.857337 0.611348 0.611979 0 0 0 -0.317973 -0.373765 -1.12027 
24 1.01877 -0.21378 1.39568 0.679353 0 0 0 -0.124005 -1.69284 0.603266 
353 1.43469 1.07796 1.35086 0.306616 0 0 0 -0.477922 -3.56878 0.636531 
26 -0.135934 1.02548 1.49494 0.658912 0 0 0 -1.52792 0.0880245 0.0612316 
27 0.398738 1.14913 0.832393 0.54623 0 0 0 -0.0929837 0.0261794 -1.24837 
28 0.947157 0.225002 1.38726 0.550773 0 0 0 -0.881553 -1.47364 0.742546 
91 0.800644 1.12867 1.21354 0.410232 0 0 0 -0.998775 -0.848604 -0.34145 
303 1.47401 1.06097 1.34497 0.308977 0 0 0 0.971349 -3.79462 0.771417 
65 0.669836 0.471785 1.33838 0.530128 0 0 0 -1.15564 -1.29716 0.0919481 
32 0.390328 -0.347395 1.28432 0.809109 0 0 0 -0.778111 -1.47595 -0.132811 
33 0.747583 -0.211895 1.15272 0.709653 0 0 0 -0.599503 -1.55106 -0.195163 
173 0.936225 0.960758 1.29479 0.396882 0 0 0 -3.46746 -1.14488 -0.811037 
35 1.49751 0.0185875 0.818715 0.616274 0 0 0 -0.421811 -1.4179 -1.15816 
21 1.50709 1.44184 1.49138 0.220516 0 0 0 0.244509 1.59208 0.625387 
154 1.32469 1.31545 1.43485 0.268891 0 0 0 1.65039 2.35775 -4.96334 
38 0.219853 1.02869 0.800813 0.601114 0 0 0 -0.640084 -0.169676 -1.01706 
39 -0.227455 0.894409 1.43968 0.703331 0 0 0 -1.58736 -0.0297105 -0.0849079 
2 1.14968 0.675246 1.21354 0.426024 0 0 0 -4.14301 -2.31412 -1.38041 
351 0.859147 1.19146 1.32514 0.381096 0 0 0 -0.728091 -0.464142 0.443782 
42 0.799967 1.37177 1.32996 0.382827 0 0 0 0.818974 -0.146184 1.05492 
195 1.40658 0.799878 1.18838 0.381447 0 0 0 -2.14153 -3.62159 -0.893482 
318 1.4922 1.06871 1.34922 0.306648 0 0 0 1.80127 -3.84455 0.633555 
45 0.998556 0.224033 1.32982 0.545671 0 0 0 -1.04176 -1.56828 0.537125 
46 0.610449 0.267939 0.790687 0.635116 0 0 0 -0.974967 -0.894108 -1.36007 
47 1.21212 0.915316 0.835747 0.454217 0 0 0 -1.73107 -0.485245 0.987958 
48 0.526622 0.788823 1.37475 0.498782 0 0 0 -1.05292 -1.06538 0.0363235 
250 1.49187 1.08594 1.35641 0.302455 0 0 0 1.96529 -3.83462 0.345937 
79 1.49622 1.36941 1.46082 0.233519 0 0 0 3.64241 0.758357 0.552843 
51 0.476674 1.30496 0.949275 0.506037 0 0 0 0.169109 0.221642 -1.33579 
52 1.29203 0.226358 1.31754 0.525362 0 0 0 -0.907482 -1.91139 0.784903 
53 -0.0398815 0.626634 1.25892 0.678802 0 0 0 -1.45044 -0.441303 -0.414644 
54 1.02301 -0.400927 1.42876 0.747459 0 0 0 0.00503929 -1.74378 0.513749 
385 1.48525 1.28967 1.43147 0.252412 0 0 0 3.42388 -2.10554 0.49299 
56 1.27652 0.103596 1.02254 0.574013 0 0 0 -0.869716 -1.66904 -0.734852 
178 0.995021 1.43603 1.45857 0.329986 0 0 0 2.91033 1.35595 0.624072 
115 1.50525 1.15042 1.37639 0.287016 0 0 0 3.09572 -4.38354 0.778616 
59 0.61822 0.602605 1.24067 0.517389 0 0 0 -1.31684 -1.26837 -0.596066 
124 1.46275 1.03847 1.3335 0.314949 0 0 0 0.308008 -3.79339 1.0816 
306 1.50773 -0.28586 0.765567 0.723844 0 0 0 -0.127732 -1.60429 -0.682446 
64 0.863756 -0.339051 1.3046 0.736467 0 0 0 -0.275685 -1.69422 0.221015 
119 1.46934 1.29804 1.43364 0.251084 0 0 0 3.2417 -1.66913 0.902562 
313 1.06026 1.33633 1.41901 0.322544 0 0 0 1.0984 0.947091 2.2113 
149 1.36226 1.21564 1.35164 0.287127 0 0 0 -1.32916 -1.55376 -0.80903 
179 1.27092 0.655451 1.19794 0.420358 0 0 0 -3.49667 -2.75731 -1.57722 
106 1.48397 1.28129 1.42805 0.25453 0 0 0 3.33219 -2.41622 0.655409 
322 1.48977 1.08077 1.35422 0.303749 0 0 0 1.82429 -3.82901 0.433601 
19 1.48534 0.423852 1.00494 0.484893 0 0 0 -0.852801 -1.86257 -1.91703 
512 1.49418 1.3562 1.4562 0.236441 0 0 0 3.67133 0.31247 0.469944 
301 0.930609 1.30713 1.40803 0.352103 0 0 0 0.844306 0.696019 0.473299 
214 1.39941 0.983963 1.30052 0.332292 0 0 0 -2.34851 -3.66488 1.32726 
77 0.453289 1.43621 1.29507 0.467503 0 0 0 -0.729853 0.322783 -0.756539 
358 0.802634 1.13455 1.1541 0.418094 0 0 0 -0.811673 -0.81573 -0.341113 
81 0.658635 0.59406 1.15419 0.517894 0 0 0 -1.43278 -1.24588 -1.06386 
71 0.654127 1.22741 1.34848 0.421631 0 0 0 -0.472635 -0.274544 -0.366821 
329 0.872552 1.19711 1.34631 0.376297 0 0 0 -0.664113 -0.284409 0.350773 
57 1.51229 0.64471 1.18741 0.412429 0 0 0 -0.122459 -3.05669 -1.62643 
122 1.21657 0.673197 1.20291 0.420711 0 0 0 -3.98107 -2.58503 -1.52539 
74 0.974809 0.845293 1.26176 0.411886 0 0 0 -4.06678 -1.59233 -1.05776 
228 1.1961 1.41563 1.46551 0.285852 0 0 0 3.66149 1.69289 2.54549 
198 0.988598 1.43717 1.45868 0.331367 0 0 0 2.87839 1.25715 0.754305 
165 1.3282 0.92664 1.25837 0.353436 0 0 0 -4.30441 -3.50958 0.956323 
101 1.00028 1.23476 1.37484 0.3457 0 0 0 -1.00831 0.365337 1.16488 
82 0.914218 0.731785 1.19891 0.446422 0 0 0 -3.04136 -1.67027 -1.19382 
229 1.43794 1.01784 1.32157 0.321262 0 0 0 -0.817403 -3.73938 1.25767 
66 0.0779147 -0.20939 2.31731 0.901786 0 0 0 -0.687967 -1.05208 0.580833 
67 0.896591 0.389783 1.98979 0.568992 0 0 0 0.535166 -0.0874115 0.637817 
68 1.03628 0.897857 1.78785 0.431443 0 0 0 0.893006 2.98619 -4.2572 
95 0.398485 -0.0109004 2.10984 0.741993 0 0 0 -0.249942 -0.999985 0.679919 
70 0.43186 1.36488 2.12842 0.534681 0 0 0 0.501953 -0.113962 0.726969 
88 0.0603634 0.335405 2.25425 0.754694 0 0 0 -0.785911 -0.437365 0.780302 
55 0.179155 0.110084 1.56622 0.715515 0 0 0 -0.990373 -1.03049 0.129729 
63 0.0687004 1.42391 1.57716 0.574448 0 0 0 -1.32729 0.122361 0.333598 
87 -0.124823 0.602197 1.97093 0.726214 0 0 0 -1.23338 -0.227812 0.586442 
75 0.134232 1.38274 2.08425 0.597902 0 0 0 -0.600568 -0.111098 0.927909 
86 1.52819 0.49428 1.73489 0.483928 0 0 0 0.0889352 0.601409 0.00436737 
90 0.772491 1.18916 2.00601 0.46751 0 0 0 2.16493 1.08641 -1.69309 
78 0.397217 -0.00262814 2.21456 0.75524 0 0 0 -0.216505 -0.931591 0.705686 
113 0.977998 1.36 2.061 0.439922 0 0 0 2.96964 2.54507 -6.73418 
93 0.811338 0.80486 2.0233 0.511044 0 0 0 1.24664 0.892038 -0.290557 
92 0.38802 0.389795 1.87057 0.619934 0 0 0 -0.311904 -0.630199 0.888683 
108 1.18119 0.815739 2.12937 0.500498 0 0 0 1.03674 2.7347 -3.26133 
83 0.71776 1.15514 1.91969 0.462905 0 0 0 1.76405 0.737017 -0.786675 
84 0.247415 0.0622379 2.16075 0.758664 0 0 0 -0.490206 -0.857552 0.680792 
96 1.42755 0.839295 1.89151 0.437827 0 0 0 0.310962 5.24112 -7.87296 
127 1.45838 0.642881 2.04465 0.504506 0 0 0 0.179309 2.32784 -2.5101 
34 -0.00994815 0.530523 1.66397 0.680596 0 0 0 -1.25689 -0.447012 0.292408 
60 0.616719 0.958431 1.89369 0.496539 0 0 0 0.906052 0.186399 0.694851 
25 1.06932 0.282781 1.6188 0.537637 0 0 0 -0.332366 -0.973989 1.42412 
76 0.569501 0.905028 1.57236 0.476952 0 0 0 -0.410874 -0.726924 0.959425 
94 0.548015 0.812212 1.57409 0.49466 0 0 0 -0.474163 -0.799156 1.01573 
37 0.451648 1.06436 1.55401 0.483797 0 0 0 -0.715193 -0.372696 0.801567 
49 -0.225092 0.992379 1.53528 0.693611 0 0 0 -1.56994 0.0719881 0.0721453 
125 1.09267 1.35856 2.31578 0.494748 0 0 0 1.87393 1.87917 -4.76163 
370 1.52837 0.876183 2.34622 0.53546 0 0 0 -0.11411 2.66179 -3.73595 
121 1.2299 0.0557185 2.56175 0.739896 0 0 0 0.420613 -0.463422 0.18891 
97 0.741253 0.963634 2.6719 0.641807 0 0 0 0.791077 0.769509 -0.0276338 
98 0.311902 1.033 2.82434 0.738883 0 0 0 -0.0618706 0.189119 0.942221 
99 0.716605 0.024285 2.58279 0.779045 0 0 0 0.238132 -0.650582 0.651582 
100 0.647803 0.403616 2.84607 0.77345 0 0 0 0.218134 0.0516031 0.74855 
128 0.383362 1.44118 2.49723 0.615765 0 0 0 0.291513 -0.114644 0.746938 
131 0.549717 1.23793 2.93584 0.721722 0 0 0 0.375434 0.23888 0.767581 
103 1.03332 0.516066 2.74005 0.695682 0 0 0 0.557464 0.579625 -0.00872851 
130 1.37066 0.465209 2.56845 0.65114 0 0 0 0.363671 0.736513 -0.682322 
114 1.06693 0.880374 2.58087 0.60421 0 0 0 0.894341 1.47519 -1.26368 
129 0.508149 0.0503808 3.07878 0.938566 0 0 0 -0.0944001 -0.452566 0.926437 
116 -0.0918026 0.828692 2.48471 0.768906 0 0 0 -0.926293 -0.00656174 0.912693 
117 -0.112807 0.373907 2.52757 0.849197 0 0 0 -0.963991 -0.312896 0.858362 
109 0.427185 0.944433 3.03849 0.793867 0 0 0 0.0459909 0.25679 0.963259 
110 0.486302 -0.255055 2.78202 0.938171 0 0 0 -0.121556 -0.936637 0.764154 
123 1.28799 1.23655 2.37886 0.511356 0 0 0 0.834461 2.64141 -5.32594 
112 1.16532 0.424951 2.80165 0.724466 0 0 0 0.467818 0.431172 0.0413294 
162 0.457142 2.5951 0.566884 0.691736 0 0 0 -0.198974 0.795871 -0.433687 
132 0.66222 2.53027 0.217891 0.732798 0 0 0 0.175169 0.271933 -0.335461 
133 0.0922412 1.78605 0.558716 0.665836 0 0 0 -0.455899 0.139871 -0.50416 
134 0.162153 2.01557 0.242431 0.736258 0 0 0 -0.340426 0.197165 -0.58983 
135 1.32373 2.40948 0.446198 0.616066 0 0 0 0.357553 -1.41328 1.05041 
136 1.10481 2.57107 0.555833 0.622616 0 0 0 0.397437 -0.469663 0.464802 
137 0.0490384 2.5059 0.614628 0.758153 0 0 0 -0.885988 0.864007 -0.494772 
138 0.513595 2.21214 0.064712 0.745661 0 0 0 0.264215 0.00926843 -0.511834 
139 0.291598 2.24804 0.292717 0.722671 0 0 0 -0.18668 0.334726 -0.52609 
140 0.883334 2.73443 0.162878 0.770975 0 0 0 0.129501 0.3612 -0.290006 
141 -0.0439141 2.3866 0.160642 0.863759 0 0 0 -0.835626 0.588501 -0.612647 
142 1.45321 2.54109 0.575777 0.605432 0 0 0 -0.015272 -1.15817 0.848435 
143 1.27571 2.91643 0.597735 0.687648 0 0 0 -0.0928354 0.533053 -0.00196505 
160 0.794612 3.07601 0.428215 0.804012 0 0 0 -0.207689 1.16476 -0.290247 
145 0.495421 2.00223 0.0139406 0.74095 0 0 0 0.384897 -0.140995 -0.551357 
146 1.33715 2.00137 0.341048 0.601082 0 0 0 0.654431 -2.10931 2.10552 
147 0.766195 1.82077 0.226306 0.636295 0 0 0 1.1953 -0.680026 0.317594 
148 1.26681 3.02295 0.252031 0.79905 0 0 0 -0.0618136 0.640635 -0.233338 
156 0.0923361 1.95726 0.419737 0.705677 0 0 0 -0.503514 0.219997 -0.514309 
150 1.0832 1.84154 0.514008 0.549523 0 0 0 1.65375 -2.03897 2.64024 
155 0.802648 1.62672 0.139302 0.650624 0 0 0 1.20365 -0.523899 0.232114 
161 1.3747 2.00684 0.411125 0.582787 0 0 0 0.554474 -2.40397 2.53741 
159 0.0392304 1.48546 -0.0352874 0.821636 0 0 0 -0.532878 -0.159725 -0.891085 
170 1.13968 2.09624 1.09395 0.440552 0 0 0 1.46609 -3.77864 4.57852 
163 0.51282 2.85754 0.715428 0.721362 0 0 0 -0.362548 1.26008 -0.434123 
202 0.61415 2.0095 1.00203 0.503112 0 0 0 1.10004 -0.139531 -1.05798 
167 0.867398 1.79174 1.05682 0.436404 0 0 0 2.56088 -1.83456 2.56766 
225 1.49735 1.51636 1.51443 0.21752 0 0 0 -0.854968 -0.817818 -0.885307 
169 0.925709 1.73867 1.4307 0.356738 0 0 0 1.84694 -1.94827 4.92857 
201 -0.0238947 2.74169 0.921929 0.787358 0 0 0 -1.10161 1.15803 -0.493642 
171 0.344801 1.88397 1.315 0.51087 0 0 0 -0.75204 0.282541 -1.14344 
183 1.05568 1.45292 1.46249 0.315993 0 0 0 3.41772 1.60692 1.20715 
30 0.792087 1.64482 1.51741 0.376353 0 0 0 1.02649 0.0813914 0.162126 
174 0.206881 1.77876 1.03604 0.567113 0 0 0 -0.476475 0.230798 -1.02288 
210 1.50148 1.47892 1.50125 0.217349 0 0 0 0.565065 0.986836 0.14579 
157 1.18863 2.27084 1.02742 0.478472 0 0 0 0.927591 -2.54604 1.97865 
152 1.07996 2.08942 0.712459 0.523345 0 0 0 1.53882 -2.43134 2.37591 
314 1.50113 1.48138 1.50212 0.217251 0 0 0 0.470267 0.862834 0.0418097 
197 0.074844 2.23525 1.08021 0.643442 0 0 0 -1.00235 0.595563 -0.809889 
180 0.421878 2.02562 1.49853 0.493812 0 0 0 -1.1364 0.339412 -0.727709 
181 0.627687 2.08579 1.41777 0.456516 0 0 0 -0.466711 0.710674 -1.41779 
428 1.18669 2.56475 1.42784 0.483301 0 0 0 -0.598218 1.18328 -1.622 
410 1.4991 1.48774 1.50438 0.217079 0 0 0 0.80251 0.609826 -0.0292368 
184 0.816889 2.82806 1.23689 0.603669 0 0 0 -0.226955 1.57109 -1.11907 
460 1.49413 1.50152 1.50837 0.217104 0 0 0 -0.273627 -0.07957 -0.506273 
186 0.975643 2.81774 1.04021 0.60602 0 0 0 -0.0236891 1.00237 -0.639694 
196 0.570966 1.70122 1.47318 0.43214 0 0 0 -0.553546 0.191702 -0.178832 
188 0.309627 2.5385 1.32084 0.613258 0 0 0 -0.883859 1.28404 -1.1173 
200 0.952341 2.70818 1.14964 0.565976 0 0 0 0.0652698 0.959634 -1.03808 
190 0.811562 1.85976 1.03819 0.453608 0 0 0 2.21284 -1.24133 0.978873 
166 0.578321 1.64115 0.820063 0.51415 0 0 0 1.37962 -0.126789 -0.491445 
192 0.613365 2.06273 1.28737 0.468807 0 0 0 0.15233 0.522619 -1.66707 
193 1.11512 2.50091 1.38662 0.476141 0 0 0 -0.41817 0.868609 -1.5248 
203 1.49709 1.53529 1.52114 0.218903 0 0 0 -1.53154 -1.1845 -1.05314 
208 1.50103 1.48233 1.50246 0.217217 0 0 0 0.444038 0.810607 0.00844021 
41 1.49969 1.49087 1.50544 0.217018 0 0 0 0.111401 0.317331 -0.331104 
342 1.4981 1.50466 1.51029 0.217088 0 0 0 -0.412823 -0.392788 -0.696661 
164 1.49914 1.49496 1.50687 0.216988 0 0 0 -0.0433078 0.0841722 -0.46112 
40 1.49907 1.4955 1.50707 0.216988 0 0 0 -0.0640276 0.0543018 -0.476907 
219 1.49839 1.50152 1.50919 0.21703 0 0 0 -0.293147 -0.251147 -0.630009 
73 1.49777 1.50903 1.51184 0.21721 0 0 0 -0.578778 -0.570002 -0.776973 
43 0.8056 1.44796 1.37081 0.376499 0 0 0 1.30559 -0.0244422 1.27891 
418 1.50719 1.47294 1.49917 0.217693 0 0 0 -0.374757 0.847517 0.0288737 
158 1.23226 1.80441 1.11311 0.389203 0 0 0 1.38754 -9.68832 21.2852 
394 1.50446 1.487 1.49865 0.21713 0 0 0 -0.306956 0.643887 -1.04222 
107 1.49843 1.45725 1.49536 0.218851 0 0 0 1.73308 1.28077 2.59141 
215 0.540874 2.16283 1.63005 0.479713 0 0 0 -1.4284 0.603958 -0.340442 
447 1.39749 2.80307 2.23838 0.567393 0 0 0 -0.109969 1.2307 1.24136 
205 0.0357132 1.958 2.06486 0.630638 0 0 0 -1.354 -0.385489 0.701839 
206 1.02526 2.47209 2.29805 0.52608 0 0 0 -0.784666 0.0757915 2.24095 
207 0.438849 2.84841 1.72196 0.64868 0 0 0 -0.970142 1.70348 -0.719291 
257 1.1462 1.73854 1.5693 0.308093 0 0 0 0.151466 1.36637 0.791343 
194 0.555396 1.94539 1.63956 0.452293 0 0 0 -1.32445 0.0737987 0.248975 
235 1.21548 2.18612 2.35238 0.49366 0 0 0 -0.515808 -1.03701 1.78991 
211 0.956352 2.92221 2.05614 0.605034 0 0 0 -0.719805 1.80984 0.0663328 
212 0.453134 2.60916 1.67387 0.582914 0 0 0 -1.16157 1.49543 -0.741531 
213 0.821559 1.77282 1.80143 0.397828 0 0 0 -0.215156 0.0121035 -1.25192 
242 0.400463 2.35909 2.29194 0.595598 0 0 0 -1.03597 -0.27233 1.1963 
231 0.848346 2.32006 2.12815 0.491556 0 0 0 -1.46653 0.000740802 2.18595 
216 1.16683 2.94849 2.0896 0.599367 0 0 0 -0.547785 1.81478 0.245517 
217 0.343205 2.85138 1.83538 0.671171 0 0 0 -1.07811 1.48816 -0.520566 
218 0.188137 2.60236 1.94756 0.653436 0 0 0 -1.42612 0.765566 -0.0978907 
468 0.852825 2.30966 1.85529 0.453563 0 0 0 -2.19993 1.12478 0.887587 
204 0.982449 2.13674 1.79705 0.40018 0 0 0 -3.11405 1.07105 0.489748 
221 0.781367 2.16855 1.99554 0.461677 0 0 0 -1.81785 -0.142145 1.89159 
222 0.874653 2.13024 1.82114 0.418687 0 0 0 -2.52253 0.607958 0.876326 
223 0.648263 1.75377 1.7334 0.42543 0 0 0 -0.647182 -0.244316 0.582362 
246 1.14636 1.78049 1.58 0.313137 0 0 0 -0.964936 1.31959 0.38334 
104 0.233992 1.55829 2.31381 0.6057 0 0 0 -0.273954 -0.332353 0.943839 
226 1.33009 3.06354 2.06162 0.626229 0 0 0 -0.383268 1.88234 0.0383658 
227 0.147304 1.58649 2.08044 0.590156 0 0 0 -0.738984 -0.333807 0.957713 
234 1.08919 1.77501 1.65729 0.327881 0 0 0 -0.110722 5.13802 -13.7892 
238 1.01266 1.72344 1.58265 0.333682 0 0 0 1.2377 1.3774 -3.74699 
321 1.32126 2.33261 1.84131 0.409752 0 0 0 -2.19723 3.09489 1.05827 
475 0.852231 2.20785 1.83083 0.434528 0 0 0 -2.39337 0.831095 0.936048 
476 1.236 2.27059 2.3039 0.488502 0 0 0 -0.670162 -0.591766 2.29738 
189 0.782459 2.23929 1.56137 0.444168 0 0 0 -1.22517 1.2432 -1.12478 
239 1.34951 1.89791 1.62615 0.304185 0 0 0 -5.24239 3.48678 3.25059 
328 1.239 2.61188 1.80516 0.480288 0 0 0 -1.13672 2.5566 -0.289694 
185 0.0296415 2.45809 1.54539 0.667551 0 0 0 -1.48894 0.759404 -0.529468 
337 1.08117 2.12646 1.79494 0.384858 0 0 0 -3.71962 1.54266 0.134521 
462 1.49401 3.28881 1.96819 0.696854 0 0 0 -0.327529 1.9614 -0.252646 
168 1.33187 1.8586 1.63154 0.298783 0 0 0 -4.91547 3.88054 2.86759 
247 1.21227 2.26016 1.82707 0.399112 0 0 0 -3.19424 2.60091 0.841936 
177 1.34233 2.09072 1.75653 0.35018 0 0 0 -4.10423 3.77391 -1.22956 
485 1.5067 2.80876 2.33205 0.583719 0 0 0 0.0957076 0.929008 1.3801 
264 1.37211 2.2453 1.827 0.387487 0 0 0 -2.45633 3.42763 0.951695 
69 1.4045 2.22361 1.82304 0.381678 0 0 0 -2.28878 3.58823 0.8325 
483 1.42128 2.31224 1.83497 0.40212 0 0 0 -1.5775 3.46078 1.19431 
350 1.439 2.29198 1.83174 0.397127 0 0 0 -1.51891 3.54182 1.19904 
249 0.81074 1.71806 2.34598 0.511764 0 0 0 1.12856 -0.642105 -0.195611 
420 1.11137 1.94425 1.68019 0.344427 0 0 0 -3.58162 1.60286 -2.54964 
240 1.4289 1.99381 1.67738 0.320756 0 0 0 -4.049 3.9581 0.323513 
300 1.51917 1.67207 1.57346 0.245251 0 0 0 -3.20647 2.24048 -0.654435 
398 1.51864 1.67006 1.57264 0.244758 0 0 0 -3.21488 2.18993 -0.696433 
29 0.0998292 1.58839 1.57877 0.564951 0 0 0 -1.34127 0.0104475 0.251713 
224 1.11369 1.66991 1.54005 0.307841 0 0 0 2.2573 1.35872 0.488829 
111 0.951803 1.52522 1.75503 0.365737 0 0 0 2.94902 3.99094 -11.4171 
105 1.42239 1.7449 1.5687 0.264088 0 0 0 -3.21163 2.29617 8.88881 
172 1.02343 1.85688 1.56822 0.344258 0 0 0 -0.614719 -1.55411 3.5847 
153 1.36635 1.72334 1.67668 0.280188 0 0 0 -1.66239 12.4678 -21.7821 
341 1.49773 1.55245 1.52725 0.220827 0 0 0 -2.0693 -1.20958 -1.11542 
144 1.49738 1.55544 1.52765 0.221192 0 0 0 -2.0246 -1.23716 -0.917148 
332 1.49424 1.56548 1.53147 0.22269 0 0 0 -0.539556 -0.878589 -0.942236 
486 1.5315 1.94567 2.15281 0.420413 0 0 0 -0.552562 0.806551 -5.18588 
336 1.53234 1.71295 1.59081 0.255617 0 0 0 -2.86169 3.06667 0.0563373 
80 1.4976 1.55014 1.52643 0.220534 0 0 0 -2.00206 -1.22155 -1.11046 
232 0.492161 2.02196 2.69548 0.64261 0 0 0 -0.0745556 -0.804799 1.41709 
233 0.819152 1.89518 2.82464 0.638635 0 0 0 0.440483 -0.77479 1.02631 
255 -0.0545537 2.84034 2.49112 0.830805 0 0 0 -1.33128 0.662496 0.395604 
266 0.366654 1.98499 2.58794 0.636921 0 0 0 -0.320954 -0.749401 1.30898 
236 1.10598 2.61864 2.76414 0.651238 0 0 0 -0.0563437 -0.167823 1.86497 
237 0.373432 2.44496 2.4469 0.637517 0 0 0 -0.879453 -0.195095 1.14202 
262 0.719177 1.67966 2.53177 0.568062 0 0 0 0.92625 -0.484222 0.339218 
254 0.214177 2.73861 3.11696 0.891494 0 0 0 -0.712482 0.273397 1.45052 
118 0.0283949 1.48111 2.6882 0.743106 0 0 0 -0.653582 -0.166582 1.01436 
241 0.939423 2.12978 3.11426 0.728296 0 0 0 0.13784 -0.661529 1.54262 
265 0.0329586 3.01139 2.61218 0.868521 0 0 0 -1.12544 0.909762 0.525488 
243 0.55965 3.01397 2.64266 0.760242 0 0 0 -0.508855 1.00279 0.85838 
244 -0.0538431 3.17008 2.96979 1.01469 0 0 0 -0.989227 0.906802 0.853326 
245 1.25688 2.18075 2.86042 0.631951 0 0 0 -0.0454241 -0.976668 1.37672 
256 0.0639245 2.93295 2.98771 0.928309 0 0 0 -0.938701 0.617744 1.10112 
260 -0.0684585 2.86215 2.72928 0.884979 0 0 0 -1.22646 0.592822 0.736886 
248 0.535508 2.66342 2.98131 0.774498 0 0 0 -0.342597 0.0705725 1.64875 
507 1.514 2.78544 2.91086 0.71764 0 0 0 0.00159344 0.241193 1.78 
258 0.563516 2.96535 3.08817 0.865751 0 0 0 -0.344537 0.623048 1.47814 
251 0.511306 2.47669 2.63315 0.654783 0 0 0 -0.499799 -0.285978 1.47389 
252 -0.11192 2.39186 2.39214 0.75658 0 0 0 -1.48801 -0.0397624 0.500075 
253 1.04036 3.18638 2.78128 0.794804 0 0 0 -0.146961 1.14523 1.12597 
267 1.82892 0.385598 0.477783 0.596851 0 0 0 -0.154217 -0.0364149 -2.08402 
268 2.77883 0.405527 0.286066 0.786131 0 0 0 1.25567 -0.459804 -1.24518 
269 2.2067 0.0402884 -0.170094 0.89093 0 0 0 0.374263 -0.769613 -1.63993 
270 2.56706 0.0594602 -0.0701697 0.911769 0 0 0 0.827072 -0.801583 -1.41336 
291 2.17938 0.517071 -0.015143 0.745446 0 0 0 0.104549 -0.0265079 -1.80516 
272 2.88249 0.826455 0.434378 0.720698 0 0 0 1.24071 0.0309754 -1.11999 
273 1.72709 1.05678 0.271323 0.594022 0 0 0 -0.639108 0.752337 0.272391 
295 2.17131 1.36023 0.380862 0.583848 0 0 0 -1.3207 0.225599 0.267927 
275 2.66357 -0.0269306 -0.00181493 0.933267 0 0 0 0.95208 -0.903038 -1.25185 
276 1.80978 0.0752497 0.0483233 0.778947 0 0 0 -0.0838288 -0.68791 -1.77599 
294 1.7398 1.32132 0.468048 0.539317 0 0 0 -1.13499 0.0486381 2.88225 
278 1.84914 0.11894 -0.0193084 0.792007 0 0 0 -0.0537301 -0.613858 -1.79871 
279 2.175 0.767302 0.422036 0.586647 0 0 0 -0.127538 0.71133 -1.57241 
290 2.36632 1.24236 0.156962 0.668461 0 0 0 -0.466665 0.307244 -0.928702 
281 2.44926 1.10437 0.372459 0.618621 0 0 0 -0.226708 0.581782 -1.09595 
289 2.44023 0.7443 0.539651 0.597763 0 0 0 0.576954 0.387553 -1.48424 
292 2.33956 0.902121 0.628318 0.547956 0 0 0 0.151966 0.787038 -1.36183 
284 1.63517 0.78828 0.385013 0.570139 0 0 0 -0.509401 0.940155 -0.962246 
285 2.84963 1.17716 0.062595 0.791308 0 0 0 0.715074 0.0555127 -1.2482 
286 1.78723 0.48572 0.444944 0.587348 0 0 0 -0.294054 0.282618 -2.06148 
287 2.57698 1.17322 0.482565 0.611559 0 0 0 0.042827 0.539603 -1.02998 
288 2.12027 0.470308 0.103734 0.706465 0 0 0 0.0548246 -0.00959743 -1.83868 
283 2.43673 -0.0381349 0.797335 0.720708 0 0 0 1.11704 -1.28516 -0.558131 
297 2.10952 0.404046 1.31447 0.50788 0 0 0 1.90423 -1.28947 1.10995 
298 2.93 0.378403 1.22614 0.69964 0 0 0 1.80701 -0.76867 0.103674 
299 2.17784 0.794496 1.15773 0.446811 0 0 0 3.04166 -0.0320056 -0.486576 
326 2.16131 0.241585 1.27565 0.557613 0 0 0 1.36203 -1.47804 0.897711 
421 1.83955 1.44085 1.50274 0.295549 0 0 0 -2.2921 -3.41389 -0.0462737 
302 2.20229 0.171773 1.03879 0.593098 0 0 0 1.23414 -1.32816 -0.190313 
409 1.68108 1.13813 1.38277 0.302335 0 0 0 7.62325 -3.47448 0.201855 
304 2.56841 0.907698 0.967206 0.532659 0 0 0 1.36613 0.342859 -0.843693 
327 2.48296 0.0221938 1.06097 0.685998 0 0 0 1.27707 -1.34473 -0.00759065 
271 2.03989 0.860397 1.25086 0.407326 0 0 0 4.8335 -0.126099 -0.0685211 
325 1.98593 0.355556 1.00005 0.521512 0 0 0 1.37391 -1.15535 -1.03989 
308 1.84277 0.353851 1.39548 0.497792 0 0 0 1.14384 -1.67523 1.55097 
309 2.88628 1.00556 1.17505 0.59401 0 0 0 1.74573 0.142735 -0.102376 
352 2.8534 1.20475 1.47988 0.560577 0 0 0 1.761 0.0542451 0.516962 
311 2.00273 0.716305 0.965153 0.458607 0 0 0 2.42625 -0.00750121 -1.77903 
312 2.53391 1.33844 0.846887 0.525579 0 0 0 -0.117273 0.548433 -0.597083 
293 2.42309 1.11164 0.861818 0.504926 0 0 0 0.210281 0.810984 -0.879109 
324 1.62813 -0.0597923 0.885018 0.633871 0 0 0 -0.114654 -1.61402 -0.685122 
315 2.60039 1.07859 1.23024 0.500886 0 0 0 1.63788 0.261178 -0.0845636 
316 2.72627 0.872234 1.06806 0.566481 0 0 0 1.68884 0.084074 -0.390888 
317 2.17447 0.00896102 1.26039 0.630984 0 0 0 0.833522 -1.67298 0.738087 
345 2.10887 1.08501 1.35917 0.384713 0 0 0 3.15609 0.531388 0.357378 
323 2.38133 0.33123 1.45359 0.569984 0 0 0 1.39884 -1.12538 1.28537 
455 2.55583 1.28173 1.36755 0.472766 0 0 0 1.51328 0.132497 0.181873 
435 2.27638 1.22552 1.31462 0.411362 0 0 0 0.998295 0.0654413 0.565521 
448 2.20141 1.19778 1.32868 0.395788 0 0 0 1.29388 0.063105 0.913622 
330 2.12818 0.96826 1.33153 0.403423 0 0 0 3.69325 0.317708 0.285002 
333 2.02457 1.08667 1.30522 0.371338 0 0 0 4.55212 0.0176299 1.82277 
320 2.05153 1.24466 1.39438 0.356998 0 0 0 1.45062 -0.217811 1.67605 
85 1.93765 0.688033 1.22732 0.424792 0 0 0 4.1908 -1.03465 -0.384202 
72 1.85276 0.835644 1.34412 0.381421 0 0 0 5.99032 -0.13903 -1.58481 
280 1.92793 1.15719 0.954498 0.418542 0 0 0 0.282138 -0.515665 5.51763 
282 1.82595 1.09003 1.37788 0.331792 0 0 0 7.68157 0.0360947 -2.08911 
58 1.53876 0.410765 0.794841 0.520963 0 0 0 -0.628842 -0.813626 -2.48371 
7 1.78035 0.749636 1.18988 0.399084 0 0 0 4.57961 -1.93005 -1.07289 
175 1.68619 0.702479 1.18442 0.402965 0 0 0 3.0556 -2.53235 -1.3967 
151 1.67337 0.694869 1.1842 0.404022 0 0 0 2.80393 -2.59508 -1.42886 
102 1.68172 0.685805 1.18739 0.406091 0 0 0 2.83253 -2.53393 -1.39638 
401 1.68761 1.21332 1.38461 0.290456 0 0 0 6.15651 -7.39791 9.30999 
431 1.82256 1.38594 1.47812 0.294164 0 0 0 -1.17764 -3.90089 1.50457 
230 1.56872 0.814004 1.19065 0.375187 0 0 0 1.90288 -3.51155 -0.549951 
402 1.95158 1.39056 1.1827 0.365172 0 0 0 -1.92922 -6.34717 17.6051 
61 2.0614 1.43225 1.48035 0.347744 0 0 0 -1.14352 -1.58246 0.681016 
305 2.1485 1.42894 1.51639 0.368186 0 0 0 -0.452763 -0.690371 -0.938619 
89 2.19201 1.4391 1.48267 0.378192 0 0 0 -0.209177 -1.02965 0.257639 
363 1.70563 1.42058 1.51272 0.263071 0 0 0 1.53731 23.0517 -69.0662 
500 2.10569 1.32174 1.88393 0.412451 0 0 0 -1.33954 1.80838 -6.18336 
355 2.35839 0.184456 1.86312 0.634469 0 0 0 0.366735 -1.07694 1.05964 
381 3.11612 1.01979 2.35073 0.739095 0 0 0 1.30336 -0.262193 0.68835 
331 2.87923 0.0788101 2.06589 0.792852 0 0 0 1.08628 -1.15041 0.611436 
364 1.76963 0.735984 2.16029 0.51731 0 0 0 -0.565349 2.08265 -2.76985 
456 2.33967 1.28734 1.85279 0.452111 0 0 0 -0.0219964 -0.0187045 -0.568004 
334 2.8487 0.650639 1.56623 0.619734 0 0 0 1.61384 -0.52615 0.796456 
379 2.85971 0.751268 2.16119 0.662738 0 0 0 0.956932 -0.296382 0.716282 
357 2.7917 1.1106 1.69074 0.555739 0 0 0 1.47415 -0.156905 0.974838 
349 2.50806 1.06994 1.68912 0.485856 0 0 0 1.04781 -0.242809 1.07399 
338 2.91328 1.04907 1.57017 0.592007 0 0 0 1.69153 -0.0901308 0.716254 
339 2.60637 0.208209 1.78259 0.663657 0 0 0 0.880223 -1.09935 0.930321 
340 2.03196 0.919071 1.73825 0.427771 0 0 0 0.609884 2.04148 -2.76088 
380 2.25571 1.36196 2.17207 0.492287 0 0 0 -0.922261 0.227028 -1.48847 
356 2.53184 0.904635 2.01939 0.548951 0 0 0 0.229602 -0.0732615 0.595398 
359 2.00327 -0.0960479 2.15981 0.722345 0 0 0 0.00873179 -1.20845 0.52402 
344 2.80142 -0.0437759 2.11852 0.816013 0 0 0 0.909438 -1.29321 0.606326 
348 3.04076 1.33757 1.60003 0.619054 0 0 0 1.74329 -0.105231 0.435828 
346 1.58773 0.374971 1.94495 0.544623 0 0 0 0.0740194 0.361041 0.0551896 
354 2.04635 0.843228 1.58868 0.422712 0 0 0 2.33694 1.06426 -0.593005 
368 2.37677 0.682568 2.36623 0.614731 0 0 0 -0.272399 0.0967498 0.0449115 
366 1.71032 1.38228 2.04884 0.40572 0 0 0 -1.4848 7.0627 -20.3553 
371 2.18583 0.971472 2.33558 0.551661 0 0 0 -0.951575 0.813109 -1.29553 
377 1.74602 1.18743 1.97103 0.407233 0 0 0 -1.22694 7.54335 -18.0366 
360 1.90747 0.404477 2.3254 0.616732 0 0 0 -0.290945 0.209363 -0.46783 
361 2.15681 1.26106 2.27567 0.509606 0 0 0 -1.32499 0.772352 -2.22138 
335 2.54275 0.223583 1.52696 0.631492 0 0 0 1.20218 -1.16833 0.995498 
384 1.99729 -0.0776346 2.77942 0.849445 0 0 0 0.0754519 -0.817651 0.46672 
376 2.66835 0.594173 2.77916 0.779061 0 0 0 0.370168 -0.267639 0.78728 
375 2.39585 0.989106 2.70504 0.665022 0 0 0 -0.364344 0.253895 0.190179 
362 2.50173 1.42621 2.86667 0.696429 0 0 0 -0.126958 -0.207798 0.712512 
126 1.54709 0.230959 2.44275 0.669908 0 0 0 0.190605 -0.0431381 -0.289624 
383 3.11738 1.16306 2.83543 0.835522 0 0 0 1.0359 -0.275955 0.89379 
365 2.9694 -0.0926732 2.52754 0.942724 0 0 0 0.964658 -1.11935 0.625863 
374 2.49303 0.362288 2.5845 0.739403 0 0 0 0.163732 -0.518947 0.603538 
367 2.83512 -0.0952139 2.44692 0.894592 0 0 0 0.828561 -1.20572 0.631799 
382 2.46012 0.611973 2.90139 0.779646 0 0 0 0.00277248 -0.0960184 0.703884 
369 2.63777 0.58011 2.64824 0.739165 0 0 0 0.331705 -0.275995 0.688797 
373 2.14105 0.726531 2.45078 0.603868 0 0 0 -0.651306 0.594312 -0.680588 
406 2.09112 2.16897 0.430837 0.611265 0 0 0 -1.06551 -1.43414 0.481059 
386 2.0284 2.99122 0.37105 0.772704 0 0 0 -0.203152 0.499823 -0.469324 
387 2.72329 1.69898 0.609382 0.62061 0 0 0 0.125374 -0.139267 -0.670042 
408 1.85314 2.49566 0.317939 0.670082 0 0 0 -0.440769 -0.943484 0.185398 
389 2.18616 3.05826 0.428309 0.790714 0 0 0 -0.0941007 0.695832 -0.557213 
390 2.98317 1.77901 0.535158 0.70793 0 0 0 0.849907 -0.129277 -0.779544 
391 2.11535 1.83161 0.648478 0.532528 0 0 0 -2.13313 -1.78887 1.75408 
403 2.5459 2.18679 0.119719 0.751348 0 0 0 -0.0754446 -0.411463 -0.815091 
393 2.66093 2.28842 0.183068 0.764201 0 0 0 0.173616 -0.246741 -0.873347 
405 2.78811 3.02173 -0.121109 1.01931 0 0 0 0.448673 0.48332 -0.802751 
395 1.81381 2.31843 0.625905 0.567287 0 0 0 -0.975006 -2.06635 1.31376 
396 2.10804 2.72738 0.663083 0.647387 0 0 0 -0.447567 -0.0233271 -0.398825 
397 2.16783 2.01056 -0.00250683 0.730131 0 0 0 -0.551791 -0.808942 -0.32695 
407 3.03609 2.65996 0.0661399 0.941519 0 0 0 0.752087 0.242109 -0.87794 
399 2.55634 2.07553 0.339483 0.678295 0 0 0 -0.217672 -0.510664 -0.662341 
400 3.03866 3.09633 0.0948081 1.03121 0 0 0 0.703317 0.615637 -0.726265 
404 2.54911 1.82913 0.135103 0.717733 0 0 0 -0.227236 -0.383345 -0.795864 
392 1.64899 1.70199 1.30213 0.313722 0 0 0 -4.39414 -24.5601 61.7517 
347 1.74969 2.58561 1.44171 0.482405 0 0 0 -0.44235 0.909041 -1.16967 
470 3.18033 2.73685 1.51285 0.777331 0 0 0 1.36502 0.545228 -0.283493 
412 2.83895 2.70486 0.904632 0.719794 0 0 0 0.791078 0.476941 -0.695037 
413 2.99686 2.31763 1.18363 0.663643 0 0 0 1.32583 -0.0831073 -0.625401 
414 2.35624 1.78558 1.13988 0.461764 0 0 0 -0.742121 -1.47692 0.0407865 
415 2.1873 1.95171 0.959634 0.482596 0 0 0 -2.14007 -2.22294 1.05722 
416 1.76813 2.56766 1.21183 0.503755 0 0 0 -0.959935 -0.469318 -0.755578 
454 1.96176 3.07034 1.40585 0.634752 0 0 0 -0.187832 1.48751 -0.880987 
427 1.90156 2.97811 1.41373 0.600578 0 0 0 -0.275441 1.393 -1.01348 
419 3.09087 2.31628 1.28366 0.685428 0 0 0 1.47357 -0.0907959 -0.502445 
457 2.18048 2.18526 1.39274 0.445661 0 0 0 0.664423 -0.848653 -0.804468 
411 1.77754 1.4971 1.51758 0.279063 0 0 0 -3.5048 -3.86762 0.148314 
422 2.52327 1.82722 0.892716 0.53417 0 0 0 -0.488509 -0.711661 -0.445569 
423 2.22281 3.17064 1.41836 0.692845 0 0 0 0.211833 1.49872 -0.625272 
424 1.98908 2.69972 0.785545 0.609121 0 0 0 -0.644641 -0.213526 -0.311737 
425 2.52502 2.65947 0.978218 0.634302 0 0 0 0.284963 0.379802 -0.819753 
426 2.16556 2.22827 1.02762 0.500696 0 0 0 -1.39629 -1.51879 -0.245666 
446 2.15404 1.47217 1.43061 0.370648 0 0 0 -0.758416 -2.07817 2.30952 
441 3.15008 2.03261 1.39372 0.670917 0 0 0 1.68531 -0.393183 -0.321677 
429 2.28301 3.01718 0.830941 0.710768 0 0 0 -0.0175297 0.880802 -0.6455 
430 3.24665 2.98694 1.29672 0.866166 0 0 0 1.22318 0.80165 -0.328425 
449 2.29124 2.24049 1.41349 0.472486 0 0 0 0.979848 -0.238243 -1.01198 
388 1.59812 2.19685 1.01815 0.46319 0 0 0 -1.12519 -4.52468 4.55077 
433 2.03728 1.73803 1.21703 0.390806 0 0 0 -3.06219 -5.99415 9.07293 
434 1.60082 2.73668 1.06615 0.558628 0 0 0 -0.646778 -0.10437 -0.507377 
432 2.37388 1.88404 1.34991 0.447539 0 0 0 0.877457 -1.55969 -0.547259 
436 3.01036 2.09203 0.843111 0.681813 0 0 0 1.07791 -0.223415 -0.688407 
437 2.84619 1.57156 0.966141 0.587292 0 0 0 0.940985 0.0775178 -0.585487 
438 2.85549 2.16438 1.42914 0.5892 0 0 0 1.62873 -0.368402 -0.50389 
439 3.06984 3.26361 1.23339 0.897855 0 0 0 0.949553 1.11242 -0.325501 
440 2.10109 2.01539 0.939846 0.48386 0 0 0 -2.34456 -2.61685 1.56 
458 2.1452 2.40779 1.42054 0.480221 0 0 0 0.45207 0.375893 -1.04743 
464 2.20089 2.07552 1.39205 0.431481 0 0 0 0.776311 -1.57507 -0.489583 
443 2.5877 1.94946 2.09056 0.53552 0 0 0 1.2274 -0.883257 1.06618 
444 2.84859 1.46505 1.86655 0.570206 0 0 0 1.47548 -0.495901 0.741041 
445 2.81526 2.21551 2.12929 0.614386 0 0 0 1.2189 -0.376557 0.618601 
310 1.78293 2.08928 1.76574 0.364644 0 0 0 2.92986 1.76755 -0.104242 
372 1.61022 2.19643 1.81033 0.377705 0 0 0 0.390849 3.5285 0.842867 
296 2.37675 1.99588 1.7502 0.454788 0 0 0 2.73148 -0.912928 0.691364 
471 1.98873 1.90614 1.68087 0.358624 0 0 0 3.68311 -2.27063 -0.855831 
450 2.67999 1.85887 1.96779 0.537545 0 0 0 1.5715 -0.979891 0.850294 
182 1.64285 1.88949 1.64867 0.302926 0 0 0 0.632143 1.14005 2.03376 
452 2.1188 2.90997 1.68517 0.59222 0 0 0 0.466521 1.44555 -0.398893 
453 1.56027 2.45094 2.19981 0.487032 0 0 0 0.354023 0.827479 2.3281 
469 2.08406 1.70843 2.05621 0.431067 0 0 0 0.0260286 -0.355354 -3.08898 
343 2.09717 1.70348 1.57754 0.360074 0 0 0 0.921795 -3.60641 0.0491943 
481 2.16302 2.25177 1.79843 0.451735 0 0 0 2.75712 0.771786 1.11108 
467 1.86345 2.6493 1.66668 0.495959 0 0 0 0.528548 1.84501 -0.479487 
378 1.78867 2.33534 1.81544 0.420983 0 0 0 1.83523 2.73106 1.37882 
459 3.15663 2.7618 2.17728 0.803689 0 0 0 1.33111 0.599005 0.259744 
277 1.76727 1.99982 1.70694 0.340648 0 0 0 3.00537 0.914959 -1.08506 
461 1.65114 2.97998 1.71221 0.580966 0 0 0 -0.214541 1.91986 -0.769158 
263 1.87894 1.99472 1.72044 0.355843 0 0 0 3.87635 -0.294746 -0.87011 
261 1.68404 1.99278 1.69119 0.3293 0 0 0 1.71225 1.80494 -0.604128 
176 1.90639 1.54435 1.53657 0.311144 0 0 0 -2.19471 -3.76122 0.58866 
465 1.96042 2.96193 1.89533 0.59778 0 0 0 0.44138 1.55929 0.016219 
466 2.24247 3.2713 1.79524 0.726833 0 0 0 0.419269 1.62691 -0.194176 
319 2.24974 1.91454 1.63878 0.41173 0 0 0 2.91676 -1.83134 0.106599 
478 2.18733 3.04935 2.25826 0.683235 0 0 0 0.539366 1.21413 0.572479 
484 1.90492 2.64751 2.31714 0.56231 0 0 0 0.647538 0.489755 1.45392 
187 2.1303 2.09995 1.70539 0.413707 0 0 0 3.45116 -0.361941 0.630701 
509 3.29296 2.84291 2.26144 0.875194 0 0 0 1.37373 0.653911 0.329601 
488 2.31765 1.87768 1.72535 0.42917 0 0 0 2.78258 -1.52847 0.405976 
492 2.70859 2.30871 2.28735 0.620861 0 0 0 0.893963 -0.213802 0.823931 
494 2.94686 2.34984 2.28063 0.684458 0 0 0 1.18417 -0.127246 0.575896 
504 2.87671 1.9456 2.27657 0.631951 0 0 0 1.10361 -0.7399 0.756497 
199 1.89314 1.96045 1.70229 0.351185 0 0 0 3.89562 -0.926794 -1.12831 
120 1.67258 1.96379 1.67438 0.321487 0 0 0 1.45936 1.53511 -0.00779446 
442 2.28183 1.67739 1.7112 0.410209 0 0 0 1.68402 -1.5952 -0.505202 
498 2.04613 1.55965 1.97781 0.409444 0 0 0 -0.910749 1.0848 -7.14666 
487 1.91916 2.03369 2.33112 0.488955 0 0 0 0.032647 -0.698235 0.224905 
209 2.03145 1.7059 1.5911 0.345966 0 0 0 0.866226 -3.84922 -0.48463 
36 2.10178 2.14084 1.72251 0.416343 0 0 0 3.40672 0.0971242 0.774103 
191 1.67811 1.96818 1.67706 0.323023 0 0 0 1.57678 1.52197 -0.149883 
417 2.33714 2.53507 1.7657 0.533532 0 0 0 1.30012 0.97335 0.259032 
451 2.99113 2.22371 1.53029 0.63345 0 0 0 1.65106 -0.275945 -0.312234 
259 1.58513 1.88707 1.64908 0.297928 0 0 0 -0.810381 2.34866 2.43855 
463 1.58447 1.95968 1.66739 0.313833 0 0 0 -0.644017 2.58972 1.31816 
307 1.54446 1.74374 1.60345 0.263562 0 0 0 -2.46974 3.24008 0.807109 
220 1.54373 1.74204 1.60278 0.263122 0 0 0 -2.4941 3.24022 0.763565 
496 2.03147 2.50601 2.78624 0.657583 0 0 0 0.0310437 -0.181216 1.5299 
472 2.0747 1.79642 2.63684 0.574764 0 0 0 -0.77922 -0.595594 -0.0763692 
473 1.75625 1.5959 2.58877 0.549216 0 0 0 -1.17773 0.121216 -2.34778 
474 2.95854 3.17647 2.68346 0.934252 0 0 0 0.901269 1.04183 0.755758 
497 1.61663 1.94128 2.57965 0.539007 0 0 0 -0.635601 -1.02515 -0.520576 
502 2.22662 2.57159 2.71503 0.667083 0 0 0 0.220398 0.0468202 1.38664 
477 3.17713 2.0138 2.59478 0.781976 0 0 0 1.29712 -0.453759 0.857119 
513 2.63016 3.02979 3.05944 0.919995 0 0 0 0.557671 0.805129 1.277 
479 1.80985 1.75127 2.417 0.498561 0 0 0 -1.15684 -0.356617 -2.63213 
501 1.65361 2.45381 3.00117 0.698248 0 0 0 -0.144862 -0.376348 1.7334 
503 2.03372 3.1535 2.47845 0.734323 0 0 0 0.328414 1.26103 0.849394 
482 1.57532 3.16057 3.12964 0.875846 0 0 0 0.0454284 0.86265 1.49569 
511 3.00814 2.13234 2.41307 0.702009 0 0 0 1.18574 -0.463519 0.754322 
510 2.10249 2.54653 2.61071 0.623519 0 0 0 0.225987 -0.0462924 1.38353 
508 2.62305 1.96044 3.05692 0.772119 0 0 0 0.282782 -0.409101 1.38037 
505 3.15567 2.91939 3.22206 1.06051 0 0 0 0.887147 0.587057 1.13087 
499 1.80691 1.78436 2.91322 0.645105 0 0 0 -0.705543 -0.515538 0.136815 
495 2.94831 1.72933 2.79659 0.75814 0 0 0 0.827133 -0.506834 1.07247 
489 3.12957 1.50361 3.00017 0.868007 0 0 0 0.959267 -0.334796 1.04646 
490 2.37284 2.40854 2.58346 0.629825 0 0 0 0.304746 -0.181173 1.22528 
491 2.27434 1.49882 2.74564 0.629949 0 0 0 -0.618192 -0.160343 0.104057 
506 1.97648 2.06883 3.04671 0.700277 0 0 0 -0.38515 -0.559219 1.21411 
493 3.07267 3.01074 2.79147 0.943092 0 0 0 1.00009 0.817251 0.886016 
480 2.35966 2.25058 2.39424 0.569218 0 0 0 0.406862 -0.387136 1.22441 
ITEM: TIMESTEP
800979
ITEM: NUMBER OF ATOMS
512
ITEM: BOX BOUNDS ss ss ss
-2.2775349561678951e-01 3.2932607586404616e+00
-4.0122540508749138e-01 3.2891132425832117e+00
-1.7039273299291779e-01 3.2223573019164853e+00
ITEM: ATOMS id x y z width_SPH x_COM y_COM z_COM vx vy vz 
23 0.539286 1.16104 0.372782 0.613015 0 0 0 0.633791 -0.0976582 -0.569995 
3 -0.140328 -0.124431 0.0939756 1.0357 0 0 0 -1.01066 -0.934138 -0.881355 
4 1.1215 0.71024 0.265511 0.622552 0 0 0 0.00935417 0.20977 -1.02936 
5 0.225459 1.27088 -0.0393994 0.782509 0 0 0 -0.197426 -0.301978 -0.966511 
6 0.0115279 1.14394 0.37696 0.727351 0 0 0 -0.762222 -0.268026 -0.705394 
22 0.128622 1.05029 0.059602 0.785115 0 0 0 -0.507386 -0.424318 -0.970674 
8 0.686461 0.733455 -0.0391935 0.747512 0 0 0 0.0953268 -0.433156 -1.18305 
9 1.3567 -0.241851 0.263494 0.804204 0 0 0 -0.298901 -1.18641 -1.40897 
10 -0.0863141 -0.263403 0.0260467 1.0737 0 0 0 -0.931977 -0.985737 -0.901915 
11 0.920704 1.15036 -0.0285245 0.696436 0 0 0 0.752232 -0.165353 -0.435116 
12 0.461885 1.343 0.164185 0.674423 0 0 0 0.502728 -0.204179 -0.606957 
13 0.27863 -0.299307 0.200454 0.957905 0 0 0 -0.80631 -1.14364 -1.01853 
14 0.972036 1.22081 0.390068 0.568523 0 0 0 1.27038 0.142469 0.812713 
15 1.08249 0.66997 0.30481 0.617963 0 0 0 -0.0679112 0.142878 -1.16073 
16 0.612758 -0.235825 0.244743 0.869624 0 0 0 -0.630668 -1.1666 -1.2039 
17 0.87827 0.253889 0.00523193 0.78318 0 0 0 -0.298616 -0.660969 -1.49785 
18 0.562192 0.565604 0.356095 0.67312 0 0 0 -0.327164 -0.54491 -1.23564 
274 1.4895 1.31441 0.568079 0.50871 0 0 0 -0.206593 -0.281937 4.84891 
20 0.679389 0.94068 0.297782 0.628463 0 0 0 0.463985 -0.143635 -0.766465 
62 1.19143 1.02676 0.635983 0.499498 0 0 0 0.00571888 0.577699 1.37847 
50 0.549989 -0.381028 0.627225 0.850631 0 0 0 -0.738667 -1.36616 -0.856494 
31 -0.0666963 1.19079 0.657986 0.69483 0 0 0 -0.999896 -0.0999547 -0.584646 
44 0.384568 0.857337 0.611347 0.611979 0 0 0 -0.317972 -0.373762 -1.12027 
24 1.01877 -0.213781 1.39568 0.679354 0 0 0 -0.124001 -1.69284 0.603268 
353 1.43469 1.07795 1.35086 0.306616 0 0 0 -0.477926 -3.56881 0.636439 
26 -0.135934 1.02548 1.49494 0.658912 0 0 0 -1.52792 0.0880253 0.0612314 
27 0.398738 1.14913 0.832392 0.54623 0 0 0 -0.0929843 0.0261812 -1.24836 
28 0.947157 0.225001 1.38726 0.550773 0 0 0 -0.881546 -1.47364 0.742548 
91 0.800644 1.12867 1.21354 0.410232 0 0 0 -0.998766 -0.848612 -0.341451 
303 1.47401 1.06097 1.34497 0.308977 0 0 0 0.97135 -3.79466 0.771327 
65 0.669836 0.471784 1.33838 0.530128 0 0 0 -1.15564 -1.29715 0.0919505 
32 0.390328 -0.347395 1.28432 0.809109 0 0 0 -0.778109 -1.47595 -0.13281 
33 0.747583 -0.211896 1.15272 0.709653 0 0 0 -0.5995 -1.55106 -0.195161 
173 0.936224 0.960758 1.29479 0.396882 0 0 0 -3.46742 -1.14489 -0.81103 
35 1.49751 0.0185871 0.818715 0.616275 0 0 0 -0.42181 -1.4179 -1.15816 
21 1.50709 1.44184 1.49138 0.220516 0 0 0 0.244559 1.59225 0.624822 
154 1.32469 1.31545 1.43484 0.268891 0 0 0 1.6504 2.35767 -4.96321 
38 0.219853 1.02869 0.800812 0.601114 0 0 0 -0.640085 -0.169674 -1.01706 
39 -0.227455 0.894409 1.43968 0.703332 0 0 0 -1.58736 -0.0297095 -0.0849077 
2 1.14968 0.675245 1.21354 0.426025 0 0 0 -4.14299 -2.31411 -1.3804 
351 0.859147 1.19146 1.32514 0.381096 0 0 0 -0.728081 -0.464158 0.443776 
42 0.799968 1.37177 1.32996 0.382827 0 0 0 0.818966 -0.146205 1.05491 
195 1.40658 0.799877 1.18838 0.381447 0 0 0 -2.14154 -3.62159 -0.893469 
318 1.4922 1.06871 1.34922 0.306648 0 0 0 1.80128 -3.84459 0.633461 
45 0.998556 0.224032 1.32982 0.545671 0 0 0 -1.04175 -1.56828 0.537127 
46 0.610449 0.267938 0.790687 0.635116 0 0 0 -0.974964 -0.894106 -1.36007 
47 1.21212 0.915316 0.835747 0.454217 0 0 0 -1.73106 -0.485238 0.987962 
48 0.526622 0.788823 1.37475 0.498782 0 0 0 -1.05292 -1.06538 0.0363248 
250 1.49187 1.08594 1.35641 0.302455 0 0 0 1.9653 -3.83468 0.34584 
79 1.49622 1.36941 1.46082 0.233519 0 0 0 3.64245 0.758301 0.552672 
51 0.476674 1.30496 0.949275 0.506037 0 0 0 0.169107 0.221641 -1.33579 
52 1.29203 0.226358 1.31754 0.525362 0 0 0 -0.907475 -1.91139 0.784905 
53 -0.0398818 0.626633 1.25892 0.678803 0 0 0 -1.45044 -0.441302 -0.414642 
54 1.02301 -0.400927 1.42876 0.747459 0 0 0 0.0050421 -1.74378 0.51375 
385 1.48525 1.28967 1.43147 0.252412 0 0 0 3.42394 -2.10565 0.492813 
56 1.27652 0.103596 1.02254 0.574014 0 0 0 -0.869711 -1.66904 -0.73485 
178 0.995021 1.43603 1.45857 0.329986 0 0 0 2.91032 1.35593 0.62407 
115 1.50525 1.15042 1.37639 0.287016 0 0 0 3.09576 -4.38365 0.778557 
59 0.61822 0.602605 1.24067 0.517389 0 0 0 -1.31683 -1.26837 -0.596064 
124 1.46275 1.03847 1.3335 0.314949 0 0 0 0.308001 -3.79342 1.08152 
306 1.50773 -0.285861 0.765567 0.723845 0 0 0 -0.127731 -1.60429 -0.682444 
64 0.863756 -0.339051 1.3046 0.736467 0 0 0 -0.275682 -1.69422 0.221016 
119 1.46934 1.29804 1.43364 0.251084 0 0 0 3.24176 -1.66923 0.902388 
313 1.06026 1.33633 1.41901 0.322544 0 0 0 1.09841 0.947074 2.21129 
149 1.36226 1.21564 1.35164 0.287127 0 0 0 -1.3292 -1.55418 -0.808075 
179 1.27092 0.65545 1.19794 0.420358 0 0 0 -3.49666 -2.7573 -1.57721 
106 1.48397 1.28129 1.42805 0.25453 0 0 0 3.33225 -2.41634 0.655239 
322 1.48977 1.08077 1.35422 0.303749 0 0 0 1.8243 -3.82906 0.433505 
19 1.48534 0.423852 1.00494 0.484893 0 0 0 -0.852803 -1.86257 -1.91703 
512 1.49418 1.3562 1.4562 0.236441 0 0 0 3.67138 0.312406 0.469758 
301 0.930609 1.30713 1.40803 0.352103 0 0 0 0.844313 0.695994 0.473293 
214 1.39941 0.983962 1.30052 0.332292 0 0 0 -2.34853 -3.66488 1.32722 
77 0.453289 1.43621 1.29507 0.467503 0 0 0 -0.729862 0.322777 -0.756542 
358 0.802634 1.13455 1.1541 0.418094 0 0 0 -0.811665 -0.815735 -0.341112 
81 0.658635 0.59406 1.15419 0.517894 0 0 0 -1.43278 -1.24588 -1.06386 
71 0.654127 1.22741 1.34848 0.421631 0 0 0 -0.472639 -0.274554 -0.366826 
329 0.872552 1.19711 1.34631 0.376297 0 0 0 -0.664101 -0.284427 0.350767 
57 1.51229 0.64471 1.1874 0.412429 0 0 0 -0.122472 -3.05669 -1.62642 
122 1.21657 0.673196 1.20291 0.420712 0 0 0 -3.98105 -2.58503 -1.52538 
74 0.974808 0.845293 1.26176 0.411886 0 0 0 -4.06675 -1.59233 -1.05776 
228 1.1961 1.41563 1.46551 0.285851 0 0 0 3.66148 1.69297 2.54536 
198 0.988599 1.43717 1.45868 0.331367 0 0 0 2.87838 1.25714 0.754295 
165 1.3282 0.926639 1.25837 0.353436 0 0 0 -4.30442 -3.50957 0.95631 
101 1.00028 1.23476 1.37484 0.345701 0 0 0 -1.00828 0.365311 1.16488 
82 0.914217 0.731785 1.19891 0.446422 0 0 0 -3.04133 -1.67026 -1.19382 
229 1.43794 1.01784 1.32157 0.321262 0 0 0 -0.817418 -3.7394 1.25761 
66 0.0779145 -0.20939 2.31731 0.901786 0 0 0 -0.687966 -1.05208 0.580833 
67 0.896591 0.389783 1.98979 0.568992 0 0 0 0.535169 -0.0874139 0.637816 
68 1.03628 0.897857 1.78785 0.431443 0 0 0 0.893005 2.98619 -4.25724 
95 0.398485 -0.0109006 2.10984 0.741993 0 0 0 -0.249941 -0.999985 0.67992 
70 0.43186 1.36488 2.12842 0.534681 0 0 0 0.501951 -0.113962 0.726963 
88 0.0603632 0.335405 2.25425 0.754694 0 0 0 -0.78591 -0.437364 0.780302 
55 0.179154 0.110084 1.56622 0.715515 0 0 0 -0.990371 -1.03049 0.12973 
63 0.0687001 1.42391 1.57716 0.574448 0 0 0 -1.3273 0.12236 0.333596 
87 -0.124823 0.602197 1.97093 0.726214 0 0 0 -1.23338 -0.227811 0.586442 
75 0.134232 1.38274 2.08425 0.597902 0 0 0 -0.600571 -0.111098 0.927906 
86 1.52819 0.49428 1.73489 0.483928 0 0 0 0.0889391 0.601398 0.00435569 
90 0.772491 1.18916 2.00601 0.46751 0 0 0 2.16493 1.08641 -1.69311 
78 0.397217 -0.00262837 2.21456 0.75524 0 0 0 -0.216503 -0.931591 0.705686 
113 0.977999 1.36 2.061 0.439922 0 0 0 2.96965 2.54509 -6.73426 
93 0.811338 0.80486 2.0233 0.511044 0 0 0 1.24664 0.892038 -0.290565 
92 0.38802 0.389795 1.87057 0.619934 0 0 0 -0.311904 -0.630199 0.888683 
108 1.18119 0.81574 2.12937 0.500498 0 0 0 1.03674 2.7347 -3.26135 
83 0.71776 1.15514 1.91969 0.462905 0 0 0 1.76405 0.737019 -0.786694 
84 0.247414 0.0622376 2.16075 0.758664 0 0 0 -0.490205 -0.857551 0.680793 
96 1.42755 0.839296 1.8915 0.437826 0 0 0 0.310972 5.24115 -7.87307 
127 1.45838 0.642882 2.04465 0.504506 0 0 0 0.179315 2.32783 -2.51012 
34 -0.00994847 0.530522 1.66397 0.680597 0 0 0 -1.25689 -0.447011 0.292408 
60 0.616719 0.958431 1.89369 0.496539 0 0 0 0.906051 0.1864 0.694844 
25 1.06932 0.28278 1.6188 0.537637 0 0 0 -0.332359 -0.973991 1.42412 
76 0.569501 0.905028 1.57236 0.476952 0 0 0 -0.410874 -0.726924 0.959423 
94 0.548015 0.812212 1.57409 0.49466 0 0 0 -0.474162 -0.799155 1.01573 
37 0.451648 1.06436 1.55401 0.483797 0 0 0 -0.715196 -0.372697 0.801565 
49 -0.225092 0.992379 1.53528 0.693612 0 0 0 -1.56994 0.0719888 0.072145 
125 1.09267 1.35856 2.31578 0.494748 0 0 0 1.87394 1.87918 -4.76166 
370 1.52837 0.876184 2.34622 0.535459 0 0 0 -0.114103 2.6618 -3.73596 
121 1.2299 0.0557184 2.56175 0.739896 0 0 0 0.420615 -0.463425 0.18891 
97 0.741254 0.963634 2.6719 0.641807 0 0 0 0.791078 0.769509 -0.0276391 
98 0.311902 1.033 2.82434 0.738883 0 0 0 -0.0618704 0.189119 0.942218 
99 0.716605 0.0242848 2.58279 0.779045 0 0 0 0.238134 -0.650583 0.651581 
100 0.647803 0.403616 2.84607 0.77345 0 0 0 0.218136 0.0516026 0.748549 
128 0.383362 1.44118 2.49723 0.615765 0 0 0 0.291512 -0.114643 0.746934 
131 0.549717 1.23793 2.93584 0.721722 0 0 0 0.375435 0.23888 0.767577 
103 1.03332 0.516066 2.74005 0.695682 0 0 0 0.557467 0.579624 -0.00873126 
130 1.37066 0.465209 2.56845 0.65114 0 0 0 0.363675 0.736512 -0.682325 
114 1.06694 0.880374 2.58087 0.60421 0 0 0 0.894346 1.4752 -1.26369 
129 0.508149 0.0503807 3.07878 0.938567 0 0 0 -0.0943988 -0.452567 0.926436 
116 -0.0918029 0.828692 2.48471 0.768906 0 0 0 -0.926294 -0.00656163 0.912691 
117 -0.112807 0.373907 2.52757 0.849197 0 0 0 -0.96399 -0.312896 0.858361 
109 0.427185 0.944433 3.03849 0.793867 0 0 0 0.0459918 0.25679 0.963256 
110 0.486302 -0.255055 2.78202 0.938171 0 0 0 -0.121554 -0.936638 0.764153 
123 1.28799 1.23656 2.37885 0.511356 0 0 0 0.83447 2.64142 -5.32598 
112 1.16532 0.424951 2.80165 0.724466 0 0 0 0.467821 0.431171 0.0413274 
162 0.457142 2.5951 0.566884 0.691736 0 0 0 -0.198976 0.795873 -0.433689 
132 0.66222 2.53027 0.217891 0.732798 0 0 0 0.175168 0.271935 -0.335461 
133 0.0922411 1.78605 0.558716 0.665837 0 0 0 -0.455902 0.139872 -0.504161 
134 0.162153 2.01557 0.242431 0.736258 0 0 0 -0.340428 0.197167 -0.58983 
135 1.32373 2.40948 0.446198 0.616066 0 0 0 0.357552 -1.41328 1.05041 
136 1.10481 2.57107 0.555833 0.622616 0 0 0 0.397436 -0.469662 0.464801 
137 0.0490382 2.5059 0.614628 0.758154 0 0 0 -0.885991 0.864008 -0.494774 
138 0.513595 2.21214 0.0647119 0.745661 0 0 0 0.264215 0.0092706 -0.511834 
139 0.291598 2.24804 0.292717 0.722671 0 0 0 -0.186681 0.334728 -0.526091 
140 0.883334 2.73443 0.162878 0.770975 0 0 0 0.1295 0.361202 -0.290007 
141 -0.0439143 2.3866 0.160642 0.863759 0 0 0 -0.835628 0.588502 -0.612647 
142 1.45321 2.54109 0.575778 0.605432 0 0 0 -0.0152728 -1.15817 0.848436 
143 1.27571 2.91643 0.597735 0.687648 0 0 0 -0.092836 0.533054 -0.001967 
160 0.794612 3.07601 0.428215 0.804012 0 0 0 -0.207689 1.16477 -0.290249 
145 0.495421 2.00223 0.0139405 0.74095 0 0 0 0.384896 -0.140993 -0.551356 
146 1.33715 2.00137 0.341048 0.601082 0 0 0 0.654431 -2.10931 2.10553 
147 0.766195 1.82077 0.226306 0.636295 0 0 0 1.1953 -0.680023 0.317598 
148 1.26681 3.02295 0.252031 0.79905 0 0 0 -0.0618143 0.640637 -0.233339 
156 0.092336 1.95726 0.419737 0.705677 0 0 0 -0.503516 0.219999 -0.514309 
150 1.0832 1.84154 0.514008 0.549523 0 0 0 1.65375 -2.03897 2.64025 
155 0.802648 1.62672 0.139302 0.650624 0 0 0 1.20365 -0.523897 0.232118 
161 1.3747 2.00684 0.411125 0.582787 0 0 0 0.554474 -2.40397 2.53742 
159 0.0392302 1.48546 -0.0352876 0.821636 0 0 0 -0.532879 -0.159723 -0.891084 
170 1.13968 2.09624 1.09395 0.440552 0 0 0 1.46608 -3.77864 4.57856 
163 0.51282 2.85754 0.715428 0.721363 0 0 0 -0.36255 1.26008 -0.434126 
202 0.61415 2.0095 1.00203 0.503112 0 0 0 1.10004 -0.139529 -1.05798 
167 0.867399 1.79174 1.05682 0.436404 0 0 0 2.56087 -1.83456 2.56769 
225 1.49735 1.51636 1.51443 0.21752 0 0 0 -0.854989 -0.817644 -0.885493 
169 0.925709 1.73867 1.4307 0.356738 0 0 0 1.84691 -1.94826 4.92857 
201 -0.023895 2.74169 0.921928 0.787359 0 0 0 -1.10161 1.15804 -0.493644 
171 0.3448 1.88397 1.315 0.51087 0 0 0 -0.752051 0.28254 -1.14344 
183 1.05568 1.45292 1.46249 0.315992 0 0 0 3.41771 1.60691 1.20719 
30 0.792087 1.64482 1.51741 0.376353 0 0 0 1.02646 0.0813868 0.162113 
174 0.206881 1.77876 1.03604 0.567113 0 0 0 -0.476481 0.230798 -1.02288 
210 1.50148 1.47892 1.50125 0.217349 0 0 0 0.56504 0.986952 0.145548 
157 1.18863 2.27084 1.02742 0.478472 0 0 0 0.927589 -2.54604 1.97866 
152 1.07997 2.08942 0.71246 0.523345 0 0 0 1.53882 -2.43134 2.37592 
314 1.50113 1.48138 1.50212 0.217251 0 0 0 0.470243 0.862955 0.0415718 
197 0.0748437 2.23525 1.08021 0.643442 0 0 0 -1.00236 0.595564 -0.809892 
180 0.421877 2.02562 1.49853 0.493812 0 0 0 -1.13641 0.339414 -0.727714 
181 0.627687 2.08579 1.41777 0.456516 0 0 0 -0.466726 0.710683 -1.4178 
428 1.18669 2.56475 1.42784 0.483301 0 0 0 -0.598212 1.18329 -1.622 
410 1.4991 1.48774 1.50438 0.217079 0 0 0 0.802471 0.609962 -0.0294772 
184 0.816889 2.82806 1.23689 0.60367 0 0 0 -0.226955 1.57109 -1.11907 
460 1.49413 1.50152 1.50837 0.217104 0 0 0 -0.273617 -0.0794306 -0.50641 
186 0.975643 2.81774 1.04021 0.60602 0 0 0 -0.0236895 1.00237 -0.639697 
196 0.570966 1.70122 1.47318 0.43214 0 0 0 -0.55357 0.191699 -0.178839 
188 0.309627 2.5385 1.32084 0.613258 0 0 0 -0.883863 1.28404 -1.1173 
200 0.952341 2.70818 1.14964 0.565976 0 0 0 0.0652694 0.959637 -1.03808 
190 0.811563 1.85976 1.03819 0.453608 0 0 0 2.21283 -1.24133 0.978888 
166 0.578321 1.64115 0.820063 0.51415 0 0 0 1.37961 -0.12679 -0.49144 
192 0.613365 2.06273 1.28737 0.468807 0 0 0 0.152317 0.522624 -1.66708 
193 1.11512 2.50091 1.38662 0.476141 0 0 0 -0.418166 0.868616 -1.5248 
203 1.49709 1.53529 1.52114 0.218903 0 0 0 -1.53158 -1.18432 -1.05331 
208 1.50103 1.48233 1.50246 0.217217 0 0 0 0.444013 0.81073 0.00820308 
41 1.49969 1.49087 1.50544 0.217017 0 0 0 0.11138 0.317473 -0.331324 
342 1.4981 1.50466 1.51029 0.217088 0 0 0 -0.412841 -0.392624 -0.696861 
164 1.49914 1.49496 1.50687 0.216988 0 0 0 -0.0433272 0.0843216 -0.461333 
40 1.49907 1.4955 1.50707 0.216987 0 0 0 -0.0640468 0.0544522 -0.477119 
219 1.49839 1.50152 1.50919 0.21703 0 0 0 -0.293165 -0.250987 -0.630213 
73 1.49777 1.50903 1.51184 0.21721 0 0 0 -0.578798 -0.569833 -0.777168 
43 0.8056 1.44796 1.37081 0.376499 0 0 0 1.30558 -0.0244634 1.27891 
418 1.50719 1.47294 1.49917 0.217692 0 0 0 -0.374767 0.847619 0.0286493 
158 1.23226 1.8044 1.11311 0.389201 0 0 0 1.38749 -9.68849 21.2857 
394 1.50446 1.487 1.49865 0.21713 0 0 0 -0.307005 0.643796 -1.04182 
107 1.49843 1.45725 1.49536 0.218851 0 0 0 1.73308 1.28096 2.59087 
215 0.540874 2.16283 1.63005 0.479713 0 0 0 -1.42841 0.603963 -0.340447 
447 1.39749 2.80307 2.23838 0.567393 0 0 0 -0.109963 1.2307 1.24135 
205 0.0357128 1.958 2.06486 0.630638 0 0 0 -1.354 -0.38549 0.701836 
206 1.02526 2.47209 2.29805 0.52608 0 0 0 -0.784656 0.0757902 2.24095 
207 0.438848 2.84841 1.72196 0.64868 0 0 0 -0.970142 1.70348 -0.719292 
257 1.1462 1.73854 1.5693 0.308093 0 0 0 0.151405 1.36643 0.791409 
194 0.555396 1.94539 1.63956 0.452293 0 0 0 -1.32446 0.073803 0.24897 
235 1.21548 2.18612 2.35238 0.49366 0 0 0 -0.515794 -1.03701 1.78989 
211 0.956351 2.92221 2.05614 0.605034 0 0 0 -0.719801 1.80984 0.0663313 
212 0.453133 2.60916 1.67387 0.582914 0 0 0 -1.16157 1.49543 -0.741534 
213 0.821559 1.77282 1.80143 0.397828 0 0 0 -0.215168 0.0121188 -1.25194 
242 0.400462 2.35909 2.29194 0.595598 0 0 0 -1.03597 -0.27233 1.1963 
231 0.848345 2.32006 2.12815 0.491556 0 0 0 -1.46652 0.000740816 2.18595 
216 1.16683 2.94849 2.0896 0.599368 0 0 0 -0.54778 1.81478 0.245515 
217 0.343205 2.85138 1.83538 0.671171 0 0 0 -1.07811 1.48816 -0.520567 
218 0.188136 2.60236 1.94756 0.653437 0 0 0 -1.42613 0.765567 -0.0978922 
468 0.852824 2.30966 1.85529 0.453563 0 0 0 -2.19992 1.12479 0.887584 
204 0.982448 2.13674 1.79705 0.40018 0 0 0 -3.11403 1.07107 0.489744 
221 0.781367 2.16855 1.99554 0.461677 0 0 0 -1.81784 -0.142141 1.89158 
222 0.874652 2.13024 1.82114 0.418687 0 0 0 -2.52252 0.607974 0.876323 
223 0.648263 1.75377 1.7334 0.42543 0 0 0 -0.6472 -0.244312 0.582351 
246 1.14636 1.78049 1.58 0.313137 0 0 0 -0.964982 1.31963 0.383442 
104 0.233991 1.55829 2.31381 0.6057 0 0 0 -0.273956 -0.332353 0.943836 
226 1.33009 3.06354 2.06162 0.626229 0 0 0 -0.383264 1.88234 0.0383644 
227 0.147304 1.58649 2.08044 0.590156 0 0 0 -0.738988 -0.333808 0.95771 
234 1.08919 1.77501 1.65729 0.327881 0 0 0 -0.110761 5.13799 -13.7889 
238 1.01266 1.72345 1.58265 0.333682 0 0 0 1.23767 1.37741 -3.74691 
321 1.32126 2.33261 1.84131 0.409752 0 0 0 -2.1972 3.09489 1.05826 
475 0.85223 2.20785 1.83084 0.434528 0 0 0 -2.39336 0.831106 0.936045 
476 1.236 2.27059 2.3039 0.488503 0 0 0 -0.670146 -0.59177 2.29737 
189 0.782458 2.23929 1.56137 0.444168 0 0 0 -1.22518 1.24321 -1.12478 
239 1.34951 1.89791 1.62615 0.304186 0 0 0 -5.24244 3.48679 3.2507 
328 1.239 2.61188 1.80516 0.480288 0 0 0 -1.13671 2.5566 -0.2897 
185 0.0296411 2.45809 1.54539 0.667552 0 0 0 -1.48894 0.759404 -0.52947 
337 1.08117 2.12646 1.79494 0.384858 0 0 0 -3.71959 1.54268 0.134516 
462 1.49401 3.28882 1.96819 0.696854 0 0 0 -0.327526 1.9614 -0.252647 
168 1.33187 1.8586 1.63154 0.298783 0 0 0 -4.91552 3.88063 2.8675 
247 1.21227 2.26016 1.82707 0.399113 0 0 0 -3.19421 2.60092 0.841927 
177 1.34233 2.09072 1.75653 0.35018 0 0 0 -4.1042 3.77391 -1.22954 
485 1.5067 2.80876 2.33205 0.583719 0 0 0 0.0957124 0.929006 1.38009 
264 1.37211 2.2453 1.827 0.387487 0 0 0 -2.4563 3.42763 0.951684 
69 1.4045 2.22361 1.82304 0.381679 0 0 0 -2.28876 3.58823 0.832489 
483 1.42128 2.31224 1.83497 0.40212 0 0 0 -1.57748 3.46078 1.19429 
350 1.439 2.29198 1.83174 0.397128 0 0 0 -1.51889 3.54181 1.19902 
249 0.81074 1.71806 2.34598 0.511764 0 0 0 1.12856 -0.642103 -0.195623 
420 1.11137 1.94425 1.68019 0.344427 0 0 0 -3.5816 1.60288 -2.5496 
240 1.4289 1.99381 1.67738 0.320756 0 0 0 -4.04901 3.95809 0.323575 
300 1.51917 1.67207 1.57346 0.245251 0 0 0 -3.20659 2.24068 -0.654542 
398 1.51864 1.67006 1.57264 0.244757 0 0 0 -3.21499 2.19014 -0.696538 
29 0.0998288 1.58839 1.57877 0.564951 0 0 0 -1.34127 0.010446 0.25171 
224 1.11369 1.66991 1.54005 0.30784 0 0 0 2.25723 1.35875 0.48894 
111 0.951804 1.52522 1.75502 0.365737 0 0 0 2.94901 3.99098 -11.4172 
105 1.42239 1.7449 1.5687 0.264088 0 0 0 -3.2118 2.29616 8.88934 
172 1.02343 1.85688 1.56822 0.344258 0 0 0 -0.614746 -1.55405 3.58463 
153 1.36635 1.72334 1.67668 0.280187 0 0 0 -1.66245 12.4685 -21.7835 
341 1.49773 1.55245 1.52725 0.220827 0 0 0 -2.06935 -1.20941 -1.11556 
144 1.49737 1.55544 1.52765 0.221192 0 0 0 -2.02465 -1.237 -0.91723 
332 1.49424 1.56548 1.53147 0.22269 0 0 0 -0.539678 -0.878423 -0.942335 
486 1.5315 1.94567 2.15281 0.420412 0 0 0 -0.552548 0.806572 -5.18593 
336 1.53234 1.71295 1.59081 0.255617 0 0 0 -2.86179 3.06688 0.0561797 
80 1.4976 1.55014 1.52643 0.220533 0 0 0 -2.00211 -1.22137 -1.1106 
232 0.492161 2.02196 2.69548 0.64261 0 0 0 -0.0745548 -0.804799 1.41708 
233 0.819152 1.89518 2.82464 0.638635 0 0 0 0.440485 -0.77479 1.02631 
255 -0.0545541 2.84034 2.49112 0.830805 0 0 0 -1.33128 0.662496 0.395603 
266 0.366654 1.98499 2.58794 0.636921 0 0 0 -0.320954 -0.749401 1.30897 
236 1.10598 2.61864 2.76414 0.651238 0 0 0 -0.0563399 -0.167823 1.86497 
237 0.373432 2.44496 2.4469 0.637517 0 0 0 -0.879453 -0.195094 1.14202 
262 0.719177 1.67966 2.53177 0.568062 0 0 0 0.926251 -0.484221 0.339211 
254 0.214177 2.73861 3.11696 0.891494 0 0 0 -0.712481 0.273397 1.45051 
118 0.0283948 1.48111 2.6882 0.743106 0 0 0 -0.653583 -0.166582 1.01435 
241 0.939423 2.12978 3.11426 0.728297 0 0 0 0.137842 -0.661528 1.54262 
265 0.0329584 3.01139 2.61218 0.868521 0 0 0 -1.12544 0.909762 0.525487 
243 0.55965 3.01397 2.64266 0.760242 0 0 0 -0.508853 1.00279 0.858379 
244 -0.0538433 3.17008 2.96979 1.01469 0 0 0 -0.989227 0.906802 0.853324 
245 1.25688 2.18075 2.86042 0.631951 0 0 0 -0.0454196 -0.976667 1.37671 
256 0.0639243 2.93295 2.98771 0.92831 0 0 0 -0.9387 0.617744 1.10111 
260 -0.0684588 2.86215 2.72928 0.884979 0 0 0 -1.22646 0.592822 0.736885 
248 0.535508 2.66342 2.98131 0.774498 0 0 0 -0.342595 0.0705728 1.64875 
507 1.514 2.78544 2.91086 0.71764 0 0 0 0.00159605 0.241193 1.78 
258 0.563516 2.96535 3.08817 0.865751 0 0 0 -0.344535 0.623048 1.47814 
251 0.511305 2.47669 2.63315 0.654783 0 0 0 -0.499798 -0.285978 1.47389 
252 -0.11192 2.39186 2.39214 0.75658 0 0 0 -1.48801 -0.0397622 0.500074 
253 1.04036 3.18638 2.78128 0.794804 0 0 0 -0.146959 1.14523 1.12597 
267 1.82892 0.385598 0.477783 0.596852 0 0 0 -0.15422 -0.036416 -2.08402 
268 2.77883 0.405527 0.286066 0.786131 0 0 0 1.25567 -0.459806 -1.24518 
269 2.2067 0.0402882 -0.170094 0.89093 0 0 0 0.374262 -0.769613 -1.63993 
270 2.56706 0.05946 -0.0701701 0.911769 0 0 0 0.827072 -0.801584 -1.41336 
291 2.17938 0.517071 -0.0151435 0.745446 0 0 0 0.104548 -0.0265087 -1.80516 
272 2.88249 0.826455 0.434378 0.720698 0 0 0 1.24071 0.0309738 -1.11999 
273 1.72709 1.05678 0.271323 0.594022 0 0 0 -0.63911 0.752338 0.272396 
295 2.1713 1.36023 0.380862 0.583848 0 0 0 -1.3207 0.225602 0.267931 
275 2.66357 -0.0269308 -0.00181525 0.933267 0 0 0 0.95208 -0.903039 -1.25185 
276 1.80978 0.0752495 0.0483228 0.778947 0 0 0 -0.0838288 -0.68791 -1.77598 
294 1.7398 1.32132 0.468048 0.539317 0 0 0 -1.13499 0.0486417 2.88226 
278 1.84914 0.11894 -0.0193088 0.792007 0 0 0 -0.0537302 -0.613858 -1.79871 
279 2.175 0.767302 0.422036 0.586647 0 0 0 -0.127542 0.711329 -1.57241 
290 2.36632 1.24236 0.156962 0.668461 0 0 0 -0.466666 0.307245 -0.9287 
281 2.44926 1.10437 0.372459 0.618621 0 0 0 -0.226709 0.581782 -1.09595 
289 2.44023 0.7443 0.539651 0.597763 0 0 0 0.576952 0.38755 -1.48424 
292 2.33956 0.902122 0.628318 0.547956 0 0 0 0.151962 0.787036 -1.36183 
284 1.63517 0.78828 0.385013 0.570139 0 0 0 -0.509404 0.940156 -0.962242 
285 2.84963 1.17716 0.0625947 0.791308 0 0 0 0.715075 0.0555128 -1.2482 
286 1.78723 0.48572 0.444944 0.587348 0 0 0 -0.294057 0.282618 -2.06148 
287 2.57698 1.17322 0.482565 0.61156 0 0 0 0.0428271 0.539604 -1.02998 
288 2.12027 0.470308 0.103734 0.706466 0 0 0 0.0548232 -0.00959842 -1.83868 
283 2.43673 -0.0381352 0.797335 0.720709 0 0 0 1.11703 -1.28516 -0.55813 
297 2.10952 0.404046 1.31447 0.50788 0 0 0 1.90422 -1.28949 1.10996 
298 2.93 0.378402 1.22614 0.69964 0 0 0 1.80702 -0.768676 0.103674 
299 2.17784 0.794496 1.15773 0.446811 0 0 0 3.04164 -0.0320304 -0.486581 
326 2.16131 0.241584 1.27565 0.557614 0 0 0 1.36203 -1.47805 0.897713 
421 1.83955 1.44085 1.50274 0.295548 0 0 0 -2.29201 -3.41391 -0.0464046 
302 2.20229 0.171773 1.03879 0.593098 0 0 0 1.23413 -1.32817 -0.190313 
409 1.68109 1.13813 1.38277 0.302336 0 0 0 7.62327 -3.47456 0.201767 
304 2.56841 0.907698 0.967206 0.532659 0 0 0 1.36613 0.342853 -0.843698 
327 2.48296 0.0221934 1.06097 0.685998 0 0 0 1.27707 -1.34474 -0.00759053 
271 2.03989 0.860397 1.25086 0.407326 0 0 0 4.83346 -0.126136 -0.0685214 
325 1.98593 0.355556 1.00005 0.521512 0 0 0 1.3739 -1.15536 -1.03989 
308 1.84277 0.35385 1.39548 0.497792 0 0 0 1.14383 -1.67525 1.55098 
309 2.88628 1.00556 1.17505 0.59401 0 0 0 1.74574 0.142732 -0.102377 
352 2.8534 1.20475 1.47988 0.560577 0 0 0 1.76102 0.0542439 0.516965 
311 2.00273 0.716305 0.965153 0.458607 0 0 0 2.42622 -0.00751381 -1.77903 
312 2.53391 1.33844 0.846887 0.525579 0 0 0 -0.117269 0.548436 -0.597087 
293 2.42309 1.11164 0.861818 0.504926 0 0 0 0.210283 0.810982 -0.879115 
324 1.62813 -0.0597927 0.885018 0.633872 0 0 0 -0.114654 -1.61402 -0.68512 
315 2.60039 1.07859 1.23024 0.500886 0 0 0 1.6379 0.261173 -0.0845655 
316 2.72627 0.872234 1.06806 0.566481 0 0 0 1.68885 0.0840689 -0.39089 
317 2.17447 0.0089606 1.26039 0.630984 0 0 0 0.83352 -1.67299 0.738089 
345 2.10887 1.08501 1.35917 0.384713 0 0 0 3.15609 0.531339 0.357381 
323 2.38133 0.331229 1.45359 0.569984 0 0 0 1.39884 -1.12539 1.28538 
455 2.55583 1.28173 1.36755 0.472766 0 0 0 1.5133 0.132497 0.181874 
435 2.27638 1.22552 1.31462 0.411362 0 0 0 0.998322 0.0654274 0.565523 
448 2.20141 1.19778 1.32868 0.395788 0 0 0 1.29391 0.0630805 0.913624 
330 2.12818 0.96826 1.33153 0.403423 0 0 0 3.69324 0.317665 0.285001 
333 2.02457 1.08667 1.30522 0.371338 0 0 0 4.55209 0.0175783 1.82277 
320 2.05153 1.24466 1.39438 0.356997 0 0 0 1.45064 -0.217862 1.67606 
85 1.93765 0.688032 1.22732 0.424792 0 0 0 4.19077 -1.03468 -0.3842 
72 1.85276 0.835644 1.34412 0.381421 0 0 0 5.99029 -0.139085 -1.58479 
280 1.92793 1.15719 0.954499 0.418541 0 0 0 0.282127 -0.515691 5.51766 
282 1.82595 1.09003 1.37788 0.331793 0 0 0 7.68154 0.0360086 -2.08908 
58 1.53876 0.410765 0.79484 0.520963 0 0 0 -0.628846 -0.813624 -2.48371 
7 1.78035 0.749636 1.18988 0.399085 0 0 0 4.57957 -1.93007 -1.07288 
175 1.68619 0.702478 1.18442 0.402965 0 0 0 3.05557 -2.53236 -1.39669 
151 1.67337 0.694869 1.1842 0.404022 0 0 0 2.8039 -2.59509 -1.42885 
102 1.68172 0.685804 1.18739 0.406092 0 0 0 2.83251 -2.53395 -1.39637 
401 1.68761 1.21332 1.38461 0.290456 0 0 0 6.15658 -7.39806 9.30997 
431 1.82256 1.38594 1.47812 0.294163 0 0 0 -1.17754 -3.90095 1.50444 
230 1.56872 0.814003 1.19065 0.375187 0 0 0 1.90286 -3.51156 -0.549941 
402 1.95157 1.39056 1.18271 0.365171 0 0 0 -1.92919 -6.34727 17.6054 
61 2.0614 1.43225 1.48035 0.347744 0 0 0 -1.14347 -1.58247 0.681049 
305 2.1485 1.42894 1.51639 0.368186 0 0 0 -0.45272 -0.690371 -0.938596 
89 2.19201 1.4391 1.48267 0.378192 0 0 0 -0.209136 -1.02964 0.257655 
363 1.70563 1.42059 1.51271 0.263069 0 0 0 1.53725 23.0508 -69.0644 
500 2.10569 1.32174 1.88393 0.41245 0 0 0 -1.33951 1.8084 -6.18341 
355 2.35839 0.184455 1.86312 0.634469 0 0 0 0.366736 -1.07695 1.05964 
381 3.11612 1.01979 2.35073 0.739095 0 0 0 1.30337 -0.262196 0.688354 
331 2.87923 0.0788098 2.06589 0.792852 0 0 0 1.08628 -1.15041 0.611439 
364 1.76963 0.735984 2.16029 0.51731 0 0 0 -0.565343 2.08265 -2.76986 
456 2.33967 1.28734 1.85279 0.452111 0 0 0 -0.0219747 -0.0187085 -0.567995 
334 2.8487 0.650639 1.56623 0.619734 0 0 0 1.61385 -0.526157 0.796459 
379 2.85971 0.751268 2.16119 0.662738 0 0 0 0.956936 -0.296386 0.716288 
357 2.7917 1.1106 1.69074 0.555739 0 0 0 1.47416 -0.156909 0.974845 
349 2.50806 1.06994 1.68912 0.485856 0 0 0 1.04783 -0.24282 1.074 
338 2.91328 1.04907 1.57017 0.592007 0 0 0 1.69154 -0.0901342 0.716258 
339 2.60637 0.208208 1.78259 0.663657 0 0 0 0.880225 -1.09936 0.930324 
340 2.03196 0.919071 1.73825 0.427771 0 0 0 0.609901 2.04146 -2.7609 
380 2.25571 1.36196 2.17207 0.492287 0 0 0 -0.922254 0.227026 -1.48847 
356 2.53184 0.904635 2.0194 0.548951 0 0 0 0.229609 -0.0732687 0.595406 
359 2.00327 -0.0960482 2.15981 0.722345 0 0 0 0.00873327 -1.20846 0.524022 
344 2.80142 -0.0437762 2.11852 0.816013 0 0 0 0.90944 -1.29321 0.606328 
348 3.04076 1.33757 1.60003 0.619054 0 0 0 1.7433 -0.105231 0.435831 
346 1.58773 0.374971 1.94495 0.544623 0 0 0 0.074023 0.361034 0.0551861 
354 2.04635 0.843228 1.58868 0.422712 0 0 0 2.33694 1.06422 -0.59301 
368 2.37677 0.682568 2.36623 0.614731 0 0 0 -0.272397 0.0967461 0.0449158 
366 1.71032 1.38229 2.04883 0.405719 0 0 0 -1.48477 7.06288 -20.3558 
371 2.18583 0.971472 2.33558 0.551661 0 0 0 -0.951572 0.813106 -1.29553 
377 1.74601 1.18743 1.97103 0.407231 0 0 0 -1.2269 7.54349 -18.0371 
360 1.90747 0.404477 2.3254 0.616732 0 0 0 -0.290942 0.209359 -0.467829 
361 2.15681 1.26106 2.27567 0.509606 0 0 0 -1.32499 0.772351 -2.22138 
335 2.54275 0.223583 1.52696 0.631492 0 0 0 1.20218 -1.16834 0.9955 
384 1.99729 -0.0776348 2.77942 0.849446 0 0 0 0.0754541 -0.817654 0.466721 
376 2.66835 0.594173 2.77916 0.779061 0 0 0 0.37017 -0.267642 0.787283 
375 2.39585 0.989106 2.70504 0.665022 0 0 0 -0.364342 0.253893 0.190181 
362 2.50173 1.42621 2.86667 0.696429 0 0 0 -0.126957 -0.2078 0.712514 
126 1.54709 0.230959 2.44275 0.669908 0 0 0 0.190608 -0.0431411 -0.289624 
383 3.11738 1.16306 2.83543 0.835522 0 0 0 1.0359 -0.275957 0.893793 
365 2.9694 -0.0926735 2.52754 0.942724 0 0 0 0.96466 -1.11936 0.625865 
374 2.49303 0.362288 2.5845 0.739404 0 0 0 0.163735 -0.518951 0.603541 
367 2.83512 -0.0952142 2.44692 0.894592 0 0 0 0.828563 -1.20573 0.631801 
382 2.46012 0.611973 2.90139 0.779646 0 0 0 0.00277496 -0.0960209 0.703886 
369 2.63777 0.58011 2.64824 0.739165 0 0 0 0.331707 -0.275999 0.688801 
373 2.14105 0.726532 2.45078 0.603868 0 0 0 -0.651303 0.59431 -0.680587 
406 2.09112 2.16897 0.430837 0.611265 0 0 0 -1.06551 -1.43414 0.481063 
386 2.0284 2.99122 0.37105 0.772704 0 0 0 -0.203152 0.499824 -0.469324 
387 2.72329 1.69898 0.609381 0.62061 0 0 0 0.125376 -0.139263 -0.670043 
408 1.85314 2.49566 0.317939 0.670082 0 0 0 -0.440769 -0.943482 0.1854 
389 2.18616 3.05826 0.428309 0.790715 0 0 0 -0.0941006 0.695833 -0.557213 
390 2.98317 1.77901 0.535158 0.70793 0 0 0 0.84991 -0.129274 -0.779545 
391 2.11535 1.83161 0.648479 0.532528 0 0 0 -2.13313 -1.78887 1.75409 
403 2.5459 2.18679 0.119719 0.751348 0 0 0 -0.0754445 -0.411461 -0.815089 
393 2.66093 2.28842 0.183067 0.764201 0 0 0 0.173616 -0.246738 -0.873346 
405 2.78811 3.02173 -0.121109 1.01931 0 0 0 0.448673 0.483321 -0.80275 
395 1.81381 2.31843 0.625905 0.567287 0 0 0 -0.975008 -2.06635 1.31377 
396 2.10804 2.72738 0.663083 0.647387 0 0 0 -0.447568 -0.0233265 -0.398825 
397 2.16783 2.01056 -0.00250691 0.730131 0 0 0 -0.551792 -0.808939 -0.326947 
407 3.03609 2.65996 0.0661397 0.941519 0 0 0 0.752087 0.24211 -0.877939 
399 2.55634 2.07553 0.339482 0.678295 0 0 0 -0.217672 -0.510661 -0.66234 
400 3.03867 3.09633 0.0948079 1.03121 0 0 0 0.703317 0.615638 -0.726264 
404 2.54911 1.82913 0.135102 0.717733 0 0 0 -0.227236 -0.383343 -0.795863 
392 1.64899 1.70198 1.30214 0.313716 0 0 0 -4.39429 -24.5611 61.7547 
347 1.74969 2.58561 1.44171 0.482406 0 0 0 -0.442353 0.909039 -1.16966 
470 3.18033 2.73685 1.51285 0.777331 0 0 0 1.36502 0.545229 -0.283493 
412 2.83895 2.70486 0.904632 0.719794 0 0 0 0.791078 0.476943 -0.695038 
413 2.99686 2.31763 1.18363 0.663644 0 0 0 1.32583 -0.0831037 -0.625403 
414 2.35624 1.78558 1.13988 0.461764 0 0 0 -0.742118 -1.47691 0.0407916 
415 2.1873 1.95171 0.959635 0.482596 0 0 0 -2.14008 -2.22294 1.05724 
416 1.76813 2.56766 1.21183 0.503755 0 0 0 -0.959937 -0.469319 -0.755575 
454 1.96176 3.07035 1.40585 0.634753 0 0 0 -0.187831 1.48751 -0.880987 
427 1.90156 2.97811 1.41373 0.600579 0 0 0 -0.275441 1.393 -1.01348 
419 3.09087 2.31628 1.28366 0.685428 0 0 0 1.47357 -0.0907927 -0.502446 
457 2.18048 2.18526 1.39274 0.445661 0 0 0 0.664411 -0.848641 -0.804464 
411 1.77754 1.4971 1.51758 0.279062 0 0 0 -3.50473 -3.86764 0.148221 
422 2.52327 1.82722 0.892716 0.53417 0 0 0 -0.488509 -0.711654 -0.44557 
423 2.22281 3.17064 1.41836 0.692845 0 0 0 0.211833 1.49872 -0.625273 
424 1.98908 2.69972 0.785545 0.609121 0 0 0 -0.644641 -0.213526 -0.311737 
425 2.52502 2.65947 0.978218 0.634302 0 0 0 0.284962 0.379804 -0.819753 
426 2.16556 2.22827 1.02762 0.500696 0 0 0 -1.3963 -1.51878 -0.245661 
446 2.15404 1.47217 1.43061 0.370647 0 0 0 -0.758377 -2.07815 2.30954 
441 3.15008 2.03261 1.39372 0.670917 0 0 0 1.68531 -0.39318 -0.321678 
429 2.28301 3.01718 0.830941 0.710769 0 0 0 -0.0175298 0.880802 -0.645501 
430 3.24666 2.98694 1.29672 0.866166 0 0 0 1.22318 0.801652 -0.328425 
449 2.29124 2.24049 1.41349 0.472486 0 0 0 0.979839 -0.238233 -1.01198 
388 1.59812 2.19684 1.01815 0.463189 0 0 0 -1.12519 -4.5247 4.55082 
433 2.03728 1.73803 1.21703 0.390805 0 0 0 -3.06219 -5.99417 9.07308 
434 1.60082 2.73668 1.06615 0.558629 0 0 0 -0.646777 -0.104371 -0.507377 
432 2.37388 1.88404 1.34991 0.447539 0 0 0 0.87746 -1.55967 -0.547255 
436 3.01036 2.09203 0.843111 0.681813 0 0 0 1.07792 -0.223411 -0.688408 
437 2.84619 1.57156 0.966141 0.587292 0 0 0 0.940991 0.0775224 -0.585489 
438 2.85549 2.16438 1.42914 0.5892 0 0 0 1.62873 -0.368396 -0.503892 
439 3.06984 3.26361 1.23339 0.897855 0 0 0 0.949552 1.11242 -0.325502 
440 2.10109 2.01539 0.939847 0.48386 0 0 0 -2.34456 -2.61685 1.56002 
458 2.1452 2.40779 1.42054 0.480221 0 0 0 0.45206 0.375899 -1.04743 
464 2.20089 2.07552 1.39204 0.431481 0 0 0 0.7763 -1.57506 -0.489576 
443 2.5877 1.94946 2.09056 0.53552 0 0 0 1.2274 -0.883253 1.06619 
444 2.84859 1.46505 1.86655 0.570206 0 0 0 1.47549 -0.495901 0.741047 
445 2.81526 2.21551 2.12929 0.614386 0 0 0 1.2189 -0.376555 0.618603 
310 1.78293 2.08928 1.76574 0.364645 0 0 0 2.92984 1.76755 -0.104242 
372 1.61022 2.19643 1.81033 0.377705 0 0 0 0.390851 3.5285 0.842857 
296 2.37675 1.99588 1.7502 0.454788 0 0 0 2.73147 -0.912914 0.69137 
471 1.98873 1.90614 1.68087 0.358624 0 0 0 3.68306 -2.27061 -0.855822 
450 2.67999 1.85887 1.96779 0.537545 0 0 0 1.57151 -0.979887 0.8503 
182 1.64285 1.88949 1.64867 0.302926 0 0 0 0.632098 1.14007 2.03375 
452 2.1188 2.90997 1.68517 0.59222 0 0 0 0.46652 1.44555 -0.398894 
453 1.56027 2.45095 2.19981 0.487032 0 0 0 0.35403 0.827473 2.32809 
469 2.08406 1.70843 2.05621 0.431067 0 0 0 0.0260312 -0.355342 -3.08899 
343 2.09717 1.70348 1.57754 0.360074 0 0 0 0.921788 -3.60637 0.0492074 
481 2.16302 2.25177 1.79843 0.451735 0 0 0 2.7571 0.771793 1.11108 
467 1.86345 2.6493 1.66668 0.49596 0 0 0 0.528544 1.84501 -0.479488 
378 1.78868 2.33534 1.81544 0.420984 0 0 0 1.83522 2.73105 1.37882 
459 3.15663 2.7618 2.17728 0.803689 0 0 0 1.33111 0.599005 0.259744 
277 1.76727 1.99982 1.70693 0.340648 0 0 0 3.00534 0.914947 -1.08504 
461 1.65114 2.97998 1.71221 0.580966 0 0 0 -0.214538 1.91986 -0.769159 
263 1.87894 1.99472 1.72044 0.355843 0 0 0 3.87631 -0.294747 -0.870101 
261 1.68404 1.99278 1.69119 0.3293 0 0 0 1.71223 1.80493 -0.604083 
176 1.90639 1.54435 1.53657 0.311143 0 0 0 -2.19467 -3.76119 0.588618 
465 1.96042 2.96193 1.89533 0.597781 0 0 0 0.44138 1.55929 0.0162178 
466 2.24247 3.2713 1.79524 0.726833 0 0 0 0.419268 1.62691 -0.194177 
319 2.24974 1.91454 1.63878 0.411731 0 0 0 2.91675 -1.83132 0.106607 
478 2.18733 3.04935 2.25826 0.683235 0 0 0 0.539365 1.21413 0.572478 
484 1.90492 2.64751 2.31714 0.56231 0 0 0 0.647538 0.489754 1.45392 
187 2.1303 2.09995 1.70539 0.413707 0 0 0 3.45113 -0.361926 0.630705 
509 3.29296 2.84291 2.26144 0.875194 0 0 0 1.37373 0.653912 0.329601 
488 2.31765 1.87768 1.72535 0.42917 0 0 0 2.78258 -1.52846 0.405986 
492 2.70859 2.30871 2.28735 0.620861 0 0 0 0.893962 -0.2138 0.823933 
494 2.94686 2.34984 2.28063 0.684459 0 0 0 1.18417 -0.127245 0.575898 
504 2.87671 1.9456 2.27657 0.631951 0 0 0 1.10362 -0.739899 0.756501 
199 1.89314 1.96045 1.70229 0.351185 0 0 0 3.89558 -0.926794 -1.1283 
120 1.67258 1.96379 1.67438 0.321487 0 0 0 1.45933 1.5351 -0.0077403 
442 2.28183 1.67739 1.7112 0.410209 0 0 0 1.68403 -1.59518 -0.505188 
498 2.04613 1.55965 1.9778 0.409444 0 0 0 -0.910735 1.08483 -7.14671 
487 1.91916 2.03369 2.33112 0.488955 0 0 0 0.0326444 -0.698232 0.224899 
209 2.03145 1.7059 1.5911 0.345966 0 0 0 0.866209 -3.84917 -0.484615 
36 2.10178 2.14084 1.72251 0.416343 0 0 0 3.40669 0.0971362 0.774106 
191 1.67811 1.96819 1.67706 0.323023 0 0 0 1.57674 1.52195 -0.149831 
417 2.33714 2.53507 1.7657 0.533532 0 0 0 1.30012 0.973353 0.259032 
451 2.99114 2.22371 1.53029 0.63345 0 0 0 1.65106 -0.275941 -0.312235 
259 1.58513 1.88707 1.64908 0.297928 0 0 0 -0.810432 2.34871 2.43851 
463 1.58447 1.95968 1.66739 0.313833 0 0 0 -0.64405 2.58972 1.31821 
307 1.54446 1.74374 1.60345 0.263562 0 0 0 -2.46983 3.24028 0.806932 
220 1.54373 1.74204 1.60278 0.263122 0 0 0 -2.4942 3.24042 0.763389 
496 2.03147 2.50601 2.78624 0.657584 0 0 0 0.0310445 -0.181217 1.5299 
472 2.0747 1.79642 2.63684 0.574764 0 0 0 -0.779218 -0.595595 -0.0763723 
473 1.75625 1.5959 2.58877 0.549215 0 0 0 -1.17772 0.121216 -2.34779 
474 2.95854 3.17647 2.68346 0.934252 0 0 0 0.901269 1.04183 0.755757 
497 1.61663 1.94128 2.57965 0.539007 0 0 0 -0.635595 -1.02515 -0.520587 
502 2.22662 2.57159 2.71503 0.667083 0 0 0 0.220398 0.0468198 1.38664 
477 3.17713 2.0138 2.59478 0.781976 0 0 0 1.29712 -0.453759 0.857121 
513 2.63016 3.02979 3.05944 0.919995 0 0 0 0.557671 0.805129 1.277 
479 1.80985 1.75127 2.417 0.498561 0 0 0 -1.15683 -0.356614 -2.63214 
501 1.6536 2.45381 3.00117 0.698248 0 0 0 -0.144859 -0.376348 1.73339 
503 2.03372 3.1535 2.47845 0.734323 0 0 0 0.328415 1.26103 0.849393 
482 1.57532 3.16057 3.12964 0.875846 0 0 0 0.04543 0.86265 1.49569 
511 3.00814 2.13234 2.41307 0.70201 0 0 0 1.18574 -0.463518 0.754324 
510 2.10249 2.54653 2.61071 0.62352 0 0 0 0.225987 -0.0462926 1.38353 
508 2.62305 1.96044 3.05692 0.772119 0 0 0 0.282783 -0.409102 1.38037 
505 3.15567 2.91939 3.22206 1.06051 0 0 0 0.887147 0.587057 1.13087 
499 1.80691 1.78436 2.91322 0.645105 0 0 0 -0.705538 -0.515539 0.13681 
495 2.94831 1.72933 2.79659 0.75814 0 0 0 0.827134 -0.506835 1.07247 
489 3.12957 1.50361 3.00017 0.868007 0 0 0 0.959269 -0.334797 1.04646 
490 2.37284 2.40854 2.58346 0.629825 0 0 0 0.304744 -0.181173 1.22528 
491 2.27434 1.49882 2.74564 0.629949 0 0 0 -0.61819 -0.160345 0.104057 
506 1.97648 2.06883 3.04671 0.700277 0 0 0 -0.385148 -0.55922 1.21411 
493 3.07267 3.01074 2.79147 0.943092 0 0 0 1.00008 0.817251 0.886016 
480 2.35966 2.25058 2.39424 0.569218 0 0 0 0.40686 -0.387134 1.22441 
ITEM: TIMESTEP
800980
ITEM: NUMBER OF ATOMS
512
ITEM: BOX BOUNDS ss ss ss
-2.2775349561678951e-01 3.2932607586404616e+00
-4.0122540508749138e-01 3.2891132425832117e+00
-1.7039273299291779e-01 3.2223573019164853e+00
ITEM: ATOMS id x y z width_SPH x_COM y_COM z_COM vx vy vz 
23 0.539286 1.16104 0.372782 0.613015 0 0 0 0.633791 -0.0976562 -0.569993 
3 -0.140328 -0.124432 0.0939754 1.0357 0 0 0 -1.01066 -0.934136 -0.881354 
4 1.1215 0.71024 0.265511 0.622552 0 0 0 0.00935574 0.209771 -1.02936 
5 0.225459 1.27088 -0.0393997 0.782509 0 0 0 -0.197426 -0.301976 -0.966509 
6 0.0115277 1.14394 0.37696 0.727351 0 0 0 -0.762222 -0.268025 -0.705393 
22 0.128622 1.05029 0.0596018 0.785115 0 0 0 -0.507386 -0.424316 -0.970672 
8 0.686461 0.733455 -0.0391938 0.747513 0 0 0 0.0953276 -0.433155 -1.18305 
9 1.3567 -0.241852 0.263494 0.804204 0 0 0 -0.298899 -1.18641 -1.40897 
10 -0.0863144 -0.263404 0.0260465 1.0737 0 0 0 -0.931976 -0.985736 -0.901914 
11 0.920704 1.15036 -0.0285246 0.696436 0 0 0 0.752232 -0.165351 -0.435113 
12 0.461885 1.343 0.164185 0.674423 0 0 0 0.502727 -0.204177 -0.606955 
13 0.27863 -0.299307 0.200454 0.957905 0 0 0 -0.806309 -1.14364 -1.01853 
14 0.972036 1.22081 0.390068 0.568523 0 0 0 1.27038 0.142472 0.812718 
15 1.08249 0.66997 0.30481 0.617963 0 0 0 -0.0679092 0.14288 -1.16073 
16 0.612758 -0.235826 0.244742 0.869624 0 0 0 -0.630666 -1.1666 -1.2039 
17 0.87827 0.253889 0.00523156 0.78318 0 0 0 -0.298615 -0.660968 -1.49785 
18 0.562191 0.565604 0.356095 0.673121 0 0 0 -0.327162 -0.544908 -1.23564 
274 1.4895 1.31441 0.56808 0.50871 0 0 0 -0.206597 -0.281935 4.84894 
20 0.679389 0.94068 0.297782 0.628463 0 0 0 0.463986 -0.143633 -0.766463 
62 1.19143 1.02676 0.635983 0.499498 0 0 0 0.00572147 0.577702 1.37848 
50 0.549988 -0.381028 0.627225 0.850631 0 0 0 -0.738665 -1.36616 -0.856493 
31 -0.0666965 1.19079 0.657986 0.69483 0 0 0 -0.999897 -0.0999536 -0.584645 
44 0.384568 0.857337 0.611347 0.611979 0 0 0 -0.317972 -0.37376 -1.12027 
24 1.01877 -0.213781 1.39568 0.679354 0 0 0 -0.123998 -1.69285 0.603269 
353 1.43469 1.07795 1.35086 0.306616 0 0 0 -0.477931 -3.56884 0.636346 
26 -0.135934 1.02548 1.49494 0.658913 0 0 0 -1.52792 0.0880261 0.0612312 
27 0.398738 1.14913 0.832392 0.54623 0 0 0 -0.0929849 0.0261831 -1.24836 
28 0.947157 0.225001 1.38726 0.550773 0 0 0 -0.881538 -1.47364 0.74255 
91 0.800644 1.12867 1.21354 0.410232 0 0 0 -0.998757 -0.848619 -0.341452 
303 1.47401 1.06097 1.34497 0.308978 0 0 0 0.971351 -3.7947 0.771236 
65 0.669836 0.471784 1.33838 0.530129 0 0 0 -1.15563 -1.29715 0.0919528 
32 0.390328 -0.347396 1.28432 0.809109 0 0 0 -0.778107 -1.47595 -0.132809 
33 0.747583 -0.211896 1.15272 0.709653 0 0 0 -0.599496 -1.55106 -0.19516 
173 0.936223 0.960757 1.29479 0.396882 0 0 0 -3.46739 -1.1449 -0.811023 
35 1.49751 0.0185868 0.818714 0.616275 0 0 0 -0.421808 -1.4179 -1.15816 
21 1.50709 1.44184 1.49138 0.220516 0 0 0 0.24461 1.59243 0.624258 
154 1.32469 1.31545 1.43484 0.268891 0 0 0 1.65041 2.35758 -4.96307 
38 0.219853 1.02869 0.800812 0.601114 0 0 0 -0.640086 -0.169672 -1.01706 
39 -0.227455 0.894409 1.43968 0.703332 0 0 0 -1.58736 -0.0297085 -0.0849076 
2 1.14968 0.675244 1.21354 0.426025 0 0 0 -4.14297 -2.31411 -1.38039 
351 0.859147 1.19146 1.32514 0.381097 0 0 0 -0.72807 -0.464175 0.443769 
42 0.799968 1.37177 1.32996 0.382827 0 0 0 0.818958 -0.146226 1.05491 
195 1.40658 0.799876 1.18838 0.381447 0 0 0 -2.14156 -3.62159 -0.893457 
318 1.4922 1.06871 1.34922 0.306648 0 0 0 1.80129 -3.84464 0.633366 
45 0.998556 0.224032 1.32982 0.545671 0 0 0 -1.04174 -1.56828 0.537129 
46 0.610448 0.267938 0.790686 0.635116 0 0 0 -0.974961 -0.894104 -1.36007 
47 1.21212 0.915316 0.835747 0.454217 0 0 0 -1.73106 -0.48523 0.987965 
48 0.526621 0.788822 1.37475 0.498782 0 0 0 -1.05291 -1.06538 0.036326 
250 1.49187 1.08594 1.35641 0.302455 0 0 0 1.96531 -3.83473 0.345744 
79 1.49622 1.36941 1.46082 0.233519 0 0 0 3.64249 0.758245 0.5525 
51 0.476674 1.30496 0.949274 0.506038 0 0 0 0.169105 0.221641 -1.33579 
52 1.29203 0.226357 1.31754 0.525362 0 0 0 -0.907468 -1.91139 0.784907 
53 -0.0398822 0.626633 1.25892 0.678803 0 0 0 -1.45044 -0.4413 -0.414641 
54 1.02301 -0.400928 1.42876 0.747459 0 0 0 0.00504491 -1.74378 0.513752 
385 1.48525 1.28967 1.43147 0.252412 0 0 0 3.424 -2.10576 0.492636 
56 1.27652 0.103595 1.02254 0.574014 0 0 0 -0.869706 -1.66904 -0.734848 
178 0.995022 1.43603 1.45857 0.329986 0 0 0 2.91031 1.35592 0.624068 
115 1.50525 1.15042 1.37639 0.287017 0 0 0 3.09579 -4.38377 0.778498 
59 0.618219 0.602604 1.24067 0.517389 0 0 0 -1.31683 -1.26837 -0.596062 
124 1.46275 1.03847 1.3335 0.314949 0 0 0 0.307994 -3.79345 1.08144 
306 1.50773 -0.285861 0.765567 0.723845 0 0 0 -0.127729 -1.6043 -0.682442 
64 0.863756 -0.339052 1.3046 0.736467 0 0 0 -0.275679 -1.69422 0.221018 
119 1.46934 1.29804 1.43364 0.251084 0 0 0 3.24181 -1.66932 0.902213 
313 1.06026 1.33633 1.41901 0.322543 0 0 0 1.09842 0.947057 2.21129 
149 1.36226 1.21564 1.35164 0.287127 0 0 0 -1.32924 -1.5546 -0.80712 
179 1.27092 0.655449 1.19794 0.420358 0 0 0 -3.49665 -2.7573 -1.5772 
106 1.48397 1.28129 1.42805 0.25453 0 0 0 3.33231 -2.41646 0.65507 
322 1.48977 1.08076 1.35422 0.303749 0 0 0 1.82431 -3.82911 0.433409 
19 1.48534 0.423851 1.00494 0.484893 0 0 0 -0.852806 -1.86257 -1.91702 
512 1.49418 1.3562 1.4562 0.236441 0 0 0 3.67143 0.312341 0.469572 
301 0.930609 1.30713 1.40803 0.352103 0 0 0 0.844319 0.695968 0.473287 
214 1.39941 0.983961 1.30052 0.332292 0 0 0 -2.34855 -3.66489 1.32718 
77 0.453289 1.43621 1.29507 0.467503 0 0 0 -0.729872 0.322772 -0.756545 
358 0.802634 1.13455 1.1541 0.418094 0 0 0 -0.811657 -0.81574 -0.341111 
81 0.658635 0.59406 1.15419 0.517894 0 0 0 -1.43277 -1.24587 -1.06386 
71 0.654126 1.22741 1.34848 0.421631 0 0 0 -0.472643 -0.274564 -0.366831 
329 0.872552 1.19711 1.34631 0.376297 0 0 0 -0.664089 -0.284445 0.35076 
57 1.51229 0.644709 1.1874 0.41243 0 0 0 -0.122485 -3.0567 -1.62641 
122 1.21657 0.673195 1.20291 0.420712 0 0 0 -3.98104 -2.58502 -1.52537 
74 0.974807 0.845292 1.26176 0.411887 0 0 0 -4.06671 -1.59233 -1.05775 
228 1.1961 1.41563 1.46551 0.285851 0 0 0 3.66147 1.69305 2.54523 
198 0.9886 1.43717 1.45868 0.331366 0 0 0 2.87837 1.25713 0.754286 
165 1.3282 0.926638 1.25837 0.353437 0 0 0 -4.30444 -3.50956 0.956297 
101 1.00028 1.23476 1.37484 0.345701 0 0 0 -1.00826 0.365285 1.16488 
82 0.914217 0.731785 1.19891 0.446422 0 0 0 -3.04131 -1.67025 -1.19381 
229 1.43794 1.01784 1.32157 0.321262 0 0 0 -0.817433 -3.73942 1.25754 
66 0.0779144 -0.20939 2.31731 0.901786 0 0 0 -0.687965 -1.05208 0.580833 
67 0.896591 0.389783 1.98979 0.568993 0 0 0 0.535171 -0.0874163 0.637814 
68 1.03629 0.897858 1.78785 0.431443 0 0 0 0.893005 2.98619 -4.25728 
95 0.398485 -0.0109009 2.10984 0.741994 0 0 0 -0.249939 -0.999985 0.67992 
70 0.43186 1.36488 2.12842 0.534681 0 0 0 0.501948 -0.113961 0.726957 
88 0.060363 0.335405 2.25425 0.754694 0 0 0 -0.78591 -0.437364 0.780302 
55 0.179154 0.110083 1.56622 0.715516 0 0 0 -0.99037 -1.03049 0.129731 
63 0.0686997 1.42391 1.57716 0.574448 0 0 0 -1.3273 0.122359 0.333594 
87 -0.124823 0.602197 1.97093 0.726214 0 0 0 -1.23339 -0.22781 0.586441 
75 0.134231 1.38274 2.08425 0.597902 0 0 0 -0.600575 -0.111098 0.927903 
86 1.52819 0.49428 1.73489 0.483928 0 0 0 0.0889429 0.601386 0.00434401 
90 0.772492 1.18916 2.00601 0.46751 0 0 0 2.16493 1.08642 -1.69314 
78 0.397217 -0.00262861 2.21456 0.75524 0 0 0 -0.216502 -0.931591 0.705687 
113 0.978 1.36 2.061 0.439921 0 0 0 2.96966 2.54512 -6.73434 
93 0.811338 0.80486 2.0233 0.511044 0 0 0 1.24664 0.892038 -0.290573 
92 0.38802 0.389795 1.87057 0.619934 0 0 0 -0.311903 -0.630198 0.888684 
108 1.18119 0.815741 2.12937 0.500498 0 0 0 1.03675 2.73471 -3.26137 
83 0.717761 1.15514 1.91969 0.462905 0 0 0 1.76404 0.737021 -0.786713 
84 0.247414 0.0622374 2.16075 0.758664 0 0 0 -0.490204 -0.857551 0.680793 
96 1.42755 0.839297 1.8915 0.437826 0 0 0 0.310982 5.24117 -7.87317 
127 1.45838 0.642882 2.04465 0.504505 0 0 0 0.179321 2.32783 -2.51013 
34 -0.00994878 0.530522 1.66397 0.680597 0 0 0 -1.25689 -0.447009 0.292409 
60 0.616719 0.958431 1.89369 0.496539 0 0 0 0.906049 0.1864 0.694836 
25 1.06932 0.28278 1.6188 0.537637 0 0 0 -0.332352 -0.973994 1.42412 
76 0.569501 0.905027 1.57236 0.476952 0 0 0 -0.410873 -0.726924 0.959421 
94 0.548015 0.812212 1.57409 0.49466 0 0 0 -0.474162 -0.799154 1.01573 
37 0.451648 1.06436 1.55401 0.483797 0 0 0 -0.715199 -0.372697 0.801562 
49 -0.225092 0.992379 1.53528 0.693612 0 0 0 -1.56994 0.0719895 0.0721448 
125 1.09267 1.35856 2.31577 0.494748 0 0 0 1.87395 1.87919 -4.7617 
370 1.52837 0.876184 2.34622 0.535459 0 0 0 -0.114095 2.6618 -3.73598 
121 1.2299 0.0557183 2.56175 0.739896 0 0 0 0.420618 -0.463427 0.18891 
97 0.741254 0.963634 2.6719 0.641807 0 0 0 0.79108 0.76951 -0.0276444 
98 0.311902 1.033 2.82434 0.738883 0 0 0 -0.0618701 0.189118 0.942215 
99 0.716605 0.0242847 2.58279 0.779045 0 0 0 0.238136 -0.650584 0.651581 
100 0.647803 0.403616 2.84607 0.773451 0 0 0 0.218137 0.0516021 0.748547 
128 0.383362 1.44118 2.49723 0.615765 0 0 0 0.291511 -0.114643 0.74693 
131 0.549717 1.23793 2.93584 0.721722 0 0 0 0.375436 0.238879 0.767573 
103 1.03332 0.516066 2.74005 0.695682 0 0 0 0.55747 0.579624 -0.00873402 
130 1.37066 0.465209 2.56845 0.65114 0 0 0 0.363679 0.736511 -0.682328 
114 1.06694 0.880375 2.58087 0.60421 0 0 0 0.89435 1.4752 -1.26369 
129 0.508149 0.0503806 3.07878 0.938567 0 0 0 -0.0943974 -0.452568 0.926435 
116 -0.0918031 0.828692 2.48471 0.768907 0 0 0 -0.926295 -0.00656151 0.91269 
117 -0.112807 0.373907 2.52757 0.849197 0 0 0 -0.96399 -0.312896 0.85836 
109 0.427185 0.944433 3.03849 0.793867 0 0 0 0.0459927 0.25679 0.963253 
110 0.486302 -0.255056 2.78202 0.938171 0 0 0 -0.121553 -0.936638 0.764153 
123 1.28799 1.23656 2.37885 0.511356 0 0 0 0.834478 2.64143 -5.32601 
112 1.16532 0.424951 2.80165 0.724466 0 0 0 0.467825 0.431169 0.0413253 
162 0.457142 2.5951 0.566884 0.691736 0 0 0 -0.198977 0.795875 -0.433691 
132 0.66222 2.53027 0.217891 0.732798 0 0 0 0.175167 0.271937 -0.335462 
133 0.092241 1.78605 0.558716 0.665837 0 0 0 -0.455904 0.139873 -0.504161 
134 0.162153 2.01557 0.242431 0.736258 0 0 0 -0.340429 0.197168 -0.58983 
135 1.32373 2.40948 0.446199 0.616066 0 0 0 0.357551 -1.41328 1.05042 
136 1.10481 2.57107 0.555833 0.622616 0 0 0 0.397435 -0.469661 0.4648 
137 0.049038 2.5059 0.614627 0.758154 0 0 0 -0.885993 0.864009 -0.494776 
138 0.513595 2.21214 0.0647118 0.745661 0 0 0 0.264214 0.00927276 -0.511833 
139 0.291598 2.24804 0.292716 0.722671 0 0 0 -0.186683 0.33473 -0.526092 
140 0.883335 2.73443 0.162878 0.770975 0 0 0 0.129499 0.361204 -0.290007 
141 -0.0439145 2.3866 0.160642 0.863759 0 0 0 -0.835629 0.588503 -0.612648 
142 1.45321 2.54109 0.575778 0.605432 0 0 0 -0.0152735 -1.15817 0.848436 
143 1.27571 2.91643 0.597735 0.687648 0 0 0 -0.0928365 0.533055 -0.00196894 
160 0.794612 3.07601 0.428215 0.804012 0 0 0 -0.20769 1.16477 -0.290251 
145 0.495421 2.00223 0.0139403 0.74095 0 0 0 0.384895 -0.140991 -0.551355 
146 1.33715 2.00137 0.341049 0.601082 0 0 0 0.654431 -2.10931 2.10554 
147 0.766195 1.82077 0.226306 0.636295 0 0 0 1.1953 -0.680021 0.317601 
148 1.26681 3.02295 0.252031 0.79905 0 0 0 -0.061815 0.640638 -0.233339 
156 0.0923358 1.95726 0.419737 0.705678 0 0 0 -0.503519 0.22 -0.51431 
150 1.0832 1.84154 0.514009 0.549523 0 0 0 1.65375 -2.03897 2.64026 
155 0.802648 1.62672 0.139302 0.650624 0 0 0 1.20365 -0.523894 0.232121 
161 1.3747 2.00684 0.411126 0.582787 0 0 0 0.554474 -2.40397 2.53743 
159 0.0392301 1.48546 -0.0352878 0.821636 0 0 0 -0.53288 -0.159721 -0.891083 
170 1.13968 2.09624 1.09395 0.440552 0 0 0 1.46607 -3.77864 4.57861 
163 0.51282 2.85755 0.715427 0.721363 0 0 0 -0.362551 1.26009 -0.434128 
202 0.61415 2.0095 1.00203 0.503112 0 0 0 1.10003 -0.139528 -1.05798 
167 0.867399 1.79174 1.05682 0.436404 0 0 0 2.56085 -1.83457 2.56772 
225 1.49735 1.51636 1.51443 0.217519 0 0 0 -0.855011 -0.817469 -0.88568 
169 0.92571 1.73867 1.4307 0.356737 0 0 0 1.84687 -1.94824 4.92858 
201 -0.0238952 2.74169 0.921928 0.787359 0 0 0 -1.10161 1.15804 -0.493646 
171 0.3448 1.88397 1.315 0.51087 0 0 0 -0.752062 0.28254 -1.14344 
183 1.05569 1.45292 1.46249 0.315992 0 0 0 3.41769 1.6069 1.20722 
30 0.792087 1.64482 1.51741 0.376353 0 0 0 1.02643 0.0813822 0.1621 
174 0.206881 1.77876 1.03603 0.567113 0 0 0 -0.476486 0.230797 -1.02288 
210 1.50148 1.47892 1.50125 0.217349 0 0 0 0.565015 0.987067 0.145307 
157 1.18863 2.27084 1.02742 0.478471 0 0 0 0.927588 -2.54604 1.97867 
152 1.07997 2.08942 0.71246 0.523344 0 0 0 1.53882 -2.43134 2.37593 
314 1.50113 1.48138 1.50212 0.217251 0 0 0 0.470219 0.863075 0.0413338 
197 0.0748435 2.23525 1.08021 0.643442 0 0 0 -1.00236 0.595565 -0.809894 
180 0.421877 2.02562 1.49853 0.493812 0 0 0 -1.13642 0.339416 -0.72772 
181 0.627687 2.08579 1.41777 0.456516 0 0 0 -0.466741 0.710691 -1.41781 
428 1.18669 2.56475 1.42784 0.483301 0 0 0 -0.598205 1.18329 -1.622 
410 1.4991 1.48774 1.50438 0.217078 0 0 0 0.802433 0.610097 -0.0297176 
184 0.816888 2.82806 1.23689 0.60367 0 0 0 -0.226955 1.57109 -1.11907 
460 1.49413 1.50152 1.50837 0.217104 0 0 0 -0.273608 -0.0792913 -0.506546 
186 0.975643 2.81774 1.04021 0.60602 0 0 0 -0.0236899 1.00237 -0.639701 
196 0.570966 1.70122 1.47318 0.43214 0 0 0 -0.553593 0.191695 -0.178847 
188 0.309627 2.5385 1.32084 0.613258 0 0 0 -0.883866 1.28404 -1.11731 
200 0.952341 2.70818 1.14964 0.565976 0 0 0 0.065269 0.95964 -1.03809 
190 0.811563 1.85976 1.03819 0.453607 0 0 0 2.21282 -1.24134 0.978904 
166 0.578321 1.64115 0.820063 0.51415 0 0 0 1.37961 -0.126791 -0.491436 
192 0.613365 2.06273 1.28737 0.468807 0 0 0 0.152304 0.522629 -1.66708 
193 1.11512 2.50091 1.38662 0.476141 0 0 0 -0.418161 0.868623 -1.5248 
203 1.49709 1.53529 1.52114 0.218903 0 0 0 -1.53161 -1.18415 -1.05347 
208 1.50103 1.48233 1.50246 0.217217 0 0 0 0.443989 0.810853 0.00796594 
41 1.49969 1.49087 1.50544 0.217017 0 0 0 0.11136 0.317614 -0.331544 
342 1.4981 1.50466 1.51029 0.217088 0 0 0 -0.41286 -0.39246 -0.697061 
164 1.49914 1.49496 1.50687 0.216988 0 0 0 -0.0433466 0.0844711 -0.461546 
40 1.49907 1.4955 1.50707 0.216987 0 0 0 -0.0640661 0.0546026 -0.477331 
219 1.49839 1.50152 1.50919 0.21703 0 0 0 -0.293184 -0.250827 -0.630417 
73 1.49777 1.50903 1.51184 0.21721 0 0 0 -0.578817 -0.569665 -0.777363 
43 0.8056 1.44796 1.37081 0.376499 0 0 0 1.30557 -0.0244846 1.2789 
418 1.50719 1.47294 1.49917 0.217692 0 0 0 -0.374777 0.847721 0.028425 
158 1.23226 1.8044 1.11312 0.3892 0 0 0 1.38744 -9.68865 21.2863 
394 1.50446 1.487 1.49865 0.217129 0 0 0 -0.307053 0.643705 -1.04143 
107 1.49843 1.45725 1.49537 0.218851 0 0 0 1.73308 1.28114 2.59033 
215 0.540874 2.16283 1.63005 0.479713 0 0 0 -1.42842 0.603968 -0.340452 
447 1.39749 2.80307 2.23838 0.567393 0 0 0 -0.109957 1.2307 1.24135 
205 0.0357125 1.958 2.06486 0.630638 0 0 0 -1.35401 -0.38549 0.701834 
206 1.02526 2.47209 2.29805 0.52608 0 0 0 -0.784646 0.0757888 2.24095 
207 0.438848 2.84841 1.72196 0.648681 0 0 0 -0.970142 1.70348 -0.719294 
257 1.1462 1.73854 1.5693 0.308093 0 0 0 0.151344 1.36649 0.791475 
194 0.555396 1.94539 1.63956 0.452293 0 0 0 -1.32448 0.0738073 0.248964 
235 1.21548 2.18612 2.35238 0.49366 0 0 0 -0.51578 -1.03702 1.78988 
211 0.956351 2.92221 2.05614 0.605034 0 0 0 -0.719796 1.80984 0.0663298 
212 0.453133 2.60916 1.67387 0.582914 0 0 0 -1.16157 1.49544 -0.741537 
213 0.821559 1.77282 1.80143 0.397828 0 0 0 -0.21518 0.0121341 -1.25196 
242 0.400462 2.35909 2.29194 0.595598 0 0 0 -1.03597 -0.27233 1.19629 
231 0.848345 2.32006 2.12815 0.491556 0 0 0 -1.46651 0.00074083 2.18594 
216 1.16683 2.94849 2.0896 0.599368 0 0 0 -0.547775 1.81478 0.245514 
217 0.343204 2.85138 1.83538 0.671171 0 0 0 -1.07812 1.48817 -0.520569 
218 0.188136 2.60236 1.94756 0.653437 0 0 0 -1.42613 0.765567 -0.0978938 
468 0.852824 2.30966 1.85529 0.453563 0 0 0 -2.19991 1.1248 0.887581 
204 0.982448 2.13674 1.79705 0.40018 0 0 0 -3.11401 1.07109 0.48974 
221 0.781366 2.16855 1.99554 0.461677 0 0 0 -1.81783 -0.142137 1.89158 
222 0.874652 2.13024 1.82114 0.418687 0 0 0 -2.52251 0.607989 0.876321 
223 0.648263 1.75377 1.7334 0.42543 0 0 0 -0.647219 -0.244309 0.58234 
246 1.14636 1.78049 1.58 0.313137 0 0 0 -0.965028 1.31967 0.383544 
104 0.233991 1.55829 2.31381 0.6057 0 0 0 -0.273959 -0.332354 0.943832 
226 1.33009 3.06354 2.06162 0.626229 0 0 0 -0.383259 1.88234 0.038363 
227 0.147303 1.58649 2.08044 0.590156 0 0 0 -0.738992 -0.333808 0.957707 
234 1.08919 1.77501 1.65728 0.32788 0 0 0 -0.1108 5.13796 -13.7887 
238 1.01266 1.72345 1.58265 0.333681 0 0 0 1.23763 1.37741 -3.74683 
321 1.32126 2.33261 1.84131 0.409752 0 0 0 -2.19717 3.09489 1.05825 
475 0.85223 2.20785 1.83084 0.434528 0 0 0 -2.39335 0.831118 0.936043 
476 1.236 2.27059 2.30391 0.488503 0 0 0 -0.670131 -0.591773 2.29736 
189 0.782458 2.23929 1.56137 0.444168 0 0 0 -1.22519 1.24323 -1.12479 
239 1.34951 1.89791 1.62615 0.304186 0 0 0 -5.24248 3.4868 3.25081 
328 1.239 2.61188 1.80516 0.480288 0 0 0 -1.13669 2.5566 -0.289705 
185 0.0296408 2.45809 1.54539 0.667552 0 0 0 -1.48895 0.759405 -0.529472 
337 1.08117 2.12646 1.79494 0.384858 0 0 0 -3.71956 1.5427 0.134511 
462 1.49401 3.28882 1.96819 0.696854 0 0 0 -0.327524 1.9614 -0.252647 
168 1.33187 1.8586 1.63154 0.298784 0 0 0 -4.91557 3.88072 2.86742 
247 1.21227 2.26016 1.82707 0.399113 0 0 0 -3.19418 2.60093 0.841919 
177 1.34233 2.09072 1.75653 0.35018 0 0 0 -4.10418 3.77392 -1.22953 
485 1.5067 2.80876 2.33205 0.58372 0 0 0 0.0957172 0.929005 1.38009 
264 1.37211 2.2453 1.827 0.387487 0 0 0 -2.45627 3.42763 0.951672 
69 1.4045 2.22361 1.82304 0.381679 0 0 0 -2.28873 3.58823 0.832477 
483 1.42127 2.31224 1.83497 0.402121 0 0 0 -1.57746 3.46078 1.19428 
350 1.439 2.29198 1.83174 0.397128 0 0 0 -1.51887 3.54181 1.19901 
249 0.810741 1.71806 2.34598 0.511764 0 0 0 1.12857 -0.6421 -0.195635 
420 1.11137 1.94425 1.68019 0.344427 0 0 0 -3.58158 1.6029 -2.54956 
240 1.4289 1.99381 1.67738 0.320757 0 0 0 -4.04903 3.95809 0.323637 
300 1.51917 1.67207 1.57346 0.245251 0 0 0 -3.2067 2.24089 -0.65465 
398 1.51864 1.67006 1.57264 0.244757 0 0 0 -3.21511 2.19034 -0.696643 
29 0.0998285 1.58839 1.57877 0.564951 0 0 0 -1.34128 0.0104445 0.251708 
224 1.11369 1.66991 1.54005 0.30784 0 0 0 2.25716 1.35879 0.48905 
111 0.951804 1.52522 1.75502 0.365736 0 0 0 2.949 3.99103 -11.4173 
105 1.42239 1.7449 1.5687 0.264088 0 0 0 -3.21197 2.29615 8.88987 
172 1.02342 1.85688 1.56822 0.344258 0 0 0 -0.614773 -1.55398 3.58457 
153 1.36635 1.72334 1.67667 0.280186 0 0 0 -1.66251 12.4692 -21.7848 
341 1.49773 1.55245 1.52725 0.220826 0 0 0 -2.0694 -1.20923 -1.1157 
144 1.49737 1.55543 1.52765 0.221191 0 0 0 -2.02471 -1.23684 -0.917312 
332 1.49424 1.56548 1.53147 0.22269 0 0 0 -0.5398 -0.878258 -0.942434 
486 1.5315 1.94567 2.15281 0.420412 0 0 0 -0.552535 0.806593 -5.18598 
336 1.53234 1.71296 1.59081 0.255617 0 0 0 -2.8619 3.0671 0.056022 
80 1.4976 1.55014 1.52642 0.220533 0 0 0 -2.00216 -1.2212 -1.11074 
232 0.492161 2.02196 2.69548 0.64261 0 0 0 -0.074554 -0.804799 1.41708 
233 0.819152 1.89518 2.82464 0.638635 0 0 0 0.440487 -0.774789 1.0263 
255 -0.0545544 2.84034 2.49112 0.830805 0 0 0 -1.33128 0.662496 0.395601 
266 0.366654 1.98499 2.58794 0.636921 0 0 0 -0.320954 -0.749401 1.30897 
236 1.10598 2.61864 2.76414 0.651238 0 0 0 -0.0563361 -0.167822 1.86497 
237 0.373432 2.44496 2.4469 0.637517 0 0 0 -0.879453 -0.195094 1.14202 
262 0.719177 1.67966 2.53177 0.568062 0 0 0 0.926252 -0.484221 0.339204 
254 0.214177 2.73861 3.11696 0.891494 0 0 0 -0.71248 0.273398 1.45051 
118 0.0283946 1.48111 2.6882 0.743106 0 0 0 -0.653584 -0.166582 1.01435 
241 0.939423 2.12978 3.11426 0.728297 0 0 0 0.137845 -0.661528 1.54262 
265 0.0329581 3.01139 2.61218 0.868521 0 0 0 -1.12544 0.909762 0.525485 
243 0.55965 3.01397 2.64266 0.760242 0 0 0 -0.508852 1.00279 0.858377 
244 -0.0538436 3.17008 2.96979 1.01469 0 0 0 -0.989226 0.906802 0.853323 
245 1.25688 2.18075 2.86042 0.631951 0 0 0 -0.0454151 -0.976667 1.37671 
256 0.0639241 2.93295 2.98771 0.92831 0 0 0 -0.9387 0.617745 1.10111 
260 -0.0684591 2.86215 2.72928 0.884979 0 0 0 -1.22646 0.592823 0.736883 
248 0.535508 2.66342 2.98131 0.774498 0 0 0 -0.342593 0.070573 1.64875 
507 1.514 2.78544 2.91086 0.71764 0 0 0 0.00159865 0.241192 1.77999 
258 0.563516 2.96535 3.08817 0.865751 0 0 0 -0.344534 0.623048 1.47813 
251 0.511305 2.47669 2.63315 0.654783 0 0 0 -0.499796 -0.285977 1.47389 
252 -0.11192 2.39186 2.39214 0.75658 0 0 0 -1.48801 -0.039762 0.500072 
253 1.04036 3.18639 2.78128 0.794804 0 0 0 -0.146957 1.14523 1.12597 
267 1.82892 0.385598 0.477782 0.596852 0 0 0 -0.154223 -0.0364171 -2.08402 
268 2.77883 0.405527 0.286065 0.786131 0 0 0 1.25567 -0.459809 -1.24518 
269 2.2067 0.040288 -0.170095 0.89093 0 0 0 0.374262 -0.769614 -1.63993 
270 2.56706 0.0594598 -0.0701704 0.911769 0 0 0 0.827072 -0.801586 -1.41336 
291 2.17938 0.517071 -0.0151439 0.745446 0 0 0 0.104547 -0.0265095 -1.80516 
272 2.88249 0.826455 0.434378 0.720699 0 0 0 1.24071 0.0309721 -1.11999 
273 1.72709 1.05678 0.271323 0.594022 0 0 0 -0.639111 0.752339 0.272401 
295 2.1713 1.36023 0.380862 0.583848 0 0 0 -1.3207 0.225605 0.267934 
275 2.66357 -0.0269311 -0.00181556 0.933267 0 0 0 0.95208 -0.903041 -1.25185 
276 1.80978 0.0752493 0.0483224 0.778947 0 0 0 -0.0838288 -0.68791 -1.77598 
294 1.7398 1.32132 0.468049 0.539317 0 0 0 -1.135 0.0486453 2.88228 
278 1.84914 0.118939 -0.0193093 0.792008 0 0 0 -0.0537303 -0.613858 -1.7987 
279 2.175 0.767302 0.422035 0.586647 0 0 0 -0.127546 0.711327 -1.57241 
290 2.36632 1.24236 0.156962 0.668461 0 0 0 -0.466667 0.307245 -0.928699 
281 2.44926 1.10437 0.372459 0.618621 0 0 0 -0.226711 0.581782 -1.09595 
289 2.44023 0.7443 0.539651 0.597763 0 0 0 0.57695 0.387547 -1.48424 
292 2.33956 0.902122 0.628318 0.547956 0 0 0 0.151959 0.787033 -1.36183 
284 1.63517 0.78828 0.385013 0.570139 0 0 0 -0.509406 0.940156 -0.962238 
285 2.84963 1.17716 0.0625944 0.791308 0 0 0 0.715076 0.0555129 -1.2482 
286 1.78723 0.48572 0.444943 0.587348 0 0 0 -0.294061 0.282617 -2.06147 
287 2.57698 1.17322 0.482565 0.61156 0 0 0 0.0428271 0.539605 -1.02998 
288 2.12027 0.470308 0.103734 0.706466 0 0 0 0.0548219 -0.00959942 -1.83868 
283 2.43673 -0.0381355 0.797334 0.720709 0 0 0 1.11703 -1.28517 -0.55813 
297 2.10952 0.404045 1.31447 0.50788 0 0 0 1.90421 -1.2895 1.10996 
298 2.93 0.378402 1.22614 0.69964 0 0 0 1.80702 -0.768681 0.103675 
299 2.17784 0.794496 1.15773 0.446811 0 0 0 3.04163 -0.0320552 -0.486586 
326 2.16131 0.241584 1.27565 0.557614 0 0 0 1.36202 -1.47806 0.897714 
421 1.83955 1.44085 1.50274 0.295548 0 0 0 -2.29192 -3.41392 -0.0465354 
302 2.20229 0.171772 1.03879 0.593098 0 0 0 1.23413 -1.32818 -0.190313 
409 1.68109 1.13812 1.38277 0.302336 0 0 0 7.6233 -3.47464 0.201679 
304 2.56841 0.907698 0.967205 0.532659 0 0 0 1.36614 0.342848 -0.843703 
327 2.48296 0.0221931 1.06097 0.685998 0 0 0 1.27707 -1.34474 -0.00759042 
271 2.03989 0.860397 1.25086 0.407327 0 0 0 4.83343 -0.126174 -0.0685217 
325 1.98594 0.355555 1.00005 0.521512 0 0 0 1.37389 -1.15536 -1.03989 
308 1.84277 0.35385 1.39548 0.497792 0 0 0 1.14382 -1.67526 1.55098 
309 2.88628 1.00556 1.17505 0.59401 0 0 0 1.74575 0.14273 -0.102378 
352 2.8534 1.20475 1.47988 0.560577 0 0 0 1.76103 0.0542426 0.516968 
311 2.00273 0.716305 0.965152 0.458607 0 0 0 2.4262 -0.00752641 -1.77904 
312 2.53391 1.33844 0.846887 0.525579 0 0 0 -0.117265 0.54844 -0.597091 
293 2.42309 1.11164 0.861818 0.504926 0 0 0 0.210285 0.81098 -0.879121 
324 1.62813 -0.0597931 0.885018 0.633872 0 0 0 -0.114653 -1.61402 -0.685119 
315 2.60039 1.07859 1.23024 0.500886 0 0 0 1.63791 0.261168 -0.0845675 
316 2.72627 0.872234 1.06806 0.566481 0 0 0 1.68885 0.0840639 -0.390893 
317 2.17447 0.00896018 1.26039 0.630984 0 0 0 0.833517 -1.673 0.73809 
345 2.10887 1.08501 1.35917 0.384713 0 0 0 3.15609 0.53129 0.357385 
323 2.38133 0.331229 1.45359 0.569984 0 0 0 1.39884 -1.1254 1.28538 
455 2.55583 1.28173 1.36755 0.472766 0 0 0 1.51332 0.132497 0.181876 
435 2.27638 1.22552 1.31462 0.411362 0 0 0 0.99835 0.0654134 0.565524 
448 2.20141 1.19778 1.32868 0.395788 0 0 0 1.29393 0.063056 0.913626 
330 2.12818 0.96826 1.33153 0.403423 0 0 0 3.69323 0.317621 0.285 
333 2.02458 1.08667 1.30522 0.371338 0 0 0 4.55206 0.0175266 1.82276 
320 2.05153 1.24466 1.39438 0.356997 0 0 0 1.45067 -0.217913 1.67607 
85 1.93765 0.688032 1.22732 0.424792 0 0 0 4.19074 -1.0347 -0.384198 
72 1.85276 0.835644 1.34412 0.381421 0 0 0 5.99027 -0.13914 -1.58477 
280 1.92793 1.15719 0.954501 0.418541 0 0 0 0.282116 -0.515716 5.51768 
282 1.82596 1.09003 1.37788 0.331793 0 0 0 7.6815 0.0359226 -2.08906 
58 1.53876 0.410765 0.79484 0.520963 0 0 0 -0.628849 -0.813622 -2.4837 
7 1.78036 0.749635 1.18988 0.399085 0 0 0 4.57954 -1.93009 -1.07287 
175 1.68619 0.702478 1.18442 0.402966 0 0 0 3.05554 -2.53238 -1.39668 
151 1.67337 0.694868 1.1842 0.404023 0 0 0 2.80388 -2.59511 -1.42884 
102 1.68172 0.685804 1.18739 0.406092 0 0 0 2.83248 -2.53396 -1.39636 
401 1.68761 1.21332 1.38461 0.290456 0 0 0 6.15664 -7.39821 9.30994 
431 1.82256 1.38594 1.47812 0.294163 0 0 0 -1.17743 -3.90101 1.5043 
230 1.56872 0.814003 1.19065 0.375187 0 0 0 1.90284 -3.51157 -0.549932 
402 1.95157 1.39056 1.18271 0.36517 0 0 0 -1.92916 -6.34738 17.6056 
61 2.0614 1.43225 1.48035 0.347743 0 0 0 -1.14342 -1.58248 0.681082 
305 2.1485 1.42894 1.51639 0.368186 0 0 0 -0.452676 -0.690371 -0.938573 
89 2.19201 1.4391 1.48267 0.378192 0 0 0 -0.209095 -1.02964 0.257671 
363 1.70563 1.42059 1.51269 0.263068 0 0 0 1.5372 23.0498 -69.0626 
500 2.10569 1.32174 1.88393 0.41245 0 0 0 -1.33949 1.80841 -6.18346 
355 2.35839 0.184455 1.86312 0.634469 0 0 0 0.366736 -1.07696 1.05965 
381 3.11612 1.01979 2.35073 0.739095 0 0 0 1.30337 -0.262198 0.688359 
331 2.87923 0.0788095 2.06589 0.792852 0 0 0 1.08629 -1.15042 0.611442 
364 1.76963 0.735985 2.16029 0.51731 0 0 0 -0.565337 2.08265 -2.76987 
456 2.33967 1.28734 1.85279 0.452111 0 0 0 -0.021953 -0.0187126 -0.567986 
334 2.8487 0.650639 1.56623 0.619734 0 0 0 1.61385 -0.526163 0.796463 
379 2.85971 0.751268 2.16119 0.662738 0 0 0 0.95694 -0.29639 0.716293 
357 2.7917 1.1106 1.69074 0.555739 0 0 0 1.47417 -0.156913 0.974852 
349 2.50806 1.06994 1.68912 0.485856 0 0 0 1.04785 -0.242831 1.07401 
338 2.91328 1.04907 1.57017 0.592007 0 0 0 1.69155 -0.0901376 0.716262 
339 2.60637 0.208208 1.78259 0.663657 0 0 0 0.880227 -1.09937 0.930327 
340 2.03196 0.919072 1.73825 0.427771 0 0 0 0.609918 2.04144 -2.76092 
380 2.25571 1.36196 2.17207 0.492287 0 0 0 -0.922248 0.227024 -1.48847 
356 2.53184 0.904635 2.0194 0.548951 0 0 0 0.229616 -0.0732759 0.595415 
359 2.00327 -0.0960485 2.15981 0.722346 0 0 0 0.00873476 -1.20846 0.524023 
344 2.80142 -0.0437765 2.11852 0.816013 0 0 0 0.909442 -1.29322 0.606331 
348 3.04076 1.33757 1.60003 0.619055 0 0 0 1.74331 -0.105231 0.435834 
346 1.58773 0.374971 1.94495 0.544623 0 0 0 0.0740266 0.361027 0.0551826 
354 2.04635 0.843228 1.58868 0.422712 0 0 0 2.33695 1.06418 -0.593015 
368 2.37677 0.682568 2.36623 0.614731 0 0 0 -0.272395 0.0967424 0.0449202 
366 1.71032 1.38229 2.04883 0.405717 0 0 0 -1.48473 7.06306 -20.3564 
371 2.18583 0.971472 2.33558 0.551661 0 0 0 -0.951569 0.813103 -1.29553 
377 1.74601 1.18743 1.97102 0.40723 0 0 0 -1.22687 7.54363 -18.0375 
360 1.90747 0.404477 2.3254 0.616732 0 0 0 -0.290939 0.209355 -0.467828 
361 2.15681 1.26107 2.27567 0.509606 0 0 0 -1.32498 0.772349 -2.22139 
335 2.54275 0.223583 1.52696 0.631492 0 0 0 1.20218 -1.16835 0.995502 
384 1.99729 -0.077635 2.77942 0.849446 0 0 0 0.0754564 -0.817657 0.466722 
376 2.66835 0.594173 2.77916 0.779061 0 0 0 0.370173 -0.267645 0.787286 
375 2.39585 0.989106 2.70504 0.665022 0 0 0 -0.36434 0.25389 0.190183 
362 2.50173 1.42621 2.86667 0.696429 0 0 0 -0.126955 -0.207802 0.712516 
126 1.54709 0.230959 2.44275 0.669908 0 0 0 0.190612 -0.0431441 -0.289624 
383 3.11738 1.16306 2.83543 0.835522 0 0 0 1.03591 -0.275959 0.893796 
365 2.9694 -0.0926738 2.52754 0.942724 0 0 0 0.964662 -1.11936 0.625867 
374 2.49303 0.362288 2.5845 0.739404 0 0 0 0.163737 -0.518954 0.603544 
367 2.83512 -0.0952145 2.44692 0.894592 0 0 0 0.828565 -1.20573 0.631804 
382 2.46012 0.611973 2.90139 0.779646 0 0 0 0.00277745 -0.0960234 0.703888 
369 2.63777 0.58011 2.64824 0.739166 0 0 0 0.331709 -0.276002 0.688804 
373 2.14105 0.726532 2.45078 0.603868 0 0 0 -0.651301 0.594307 -0.680586 
406 2.09112 2.16897 0.430837 0.611265 0 0 0 -1.06551 -1.43414 0.481068 
386 2.0284 2.99122 0.37105 0.772704 0 0 0 -0.203152 0.499824 -0.469323 
387 2.72329 1.69898 0.609381 0.62061 0 0 0 0.125377 -0.139259 -0.670044 
408 1.85314 2.49566 0.317939 0.670082 0 0 0 -0.44077 -0.943481 0.185402 
389 2.18616 3.05826 0.428309 0.790715 0 0 0 -0.0941006 0.695833 -0.557212 
390 2.98317 1.77901 0.535157 0.70793 0 0 0 0.849912 -0.129271 -0.779545 
391 2.11535 1.83161 0.648479 0.532528 0 0 0 -2.13314 -1.78886 1.7541 
403 2.5459 2.18679 0.119718 0.751348 0 0 0 -0.0754443 -0.411458 -0.815087 
393 2.66093 2.28842 0.183067 0.764201 0 0 0 0.173616 -0.246736 -0.873345 
405 2.78811 3.02173 -0.121109 1.01931 0 0 0 0.448673 0.483322 -0.802749 
395 1.81381 2.31843 0.625905 0.567287 0 0 0 -0.97501 -2.06635 1.31377 
396 2.10804 2.72738 0.663083 0.647387 0 0 0 -0.447568 -0.0233259 -0.398824 
397 2.16783 2.01056 -0.00250699 0.730131 0 0 0 -0.551792 -0.808937 -0.326944 
407 3.03609 2.65996 0.0661395 0.941519 0 0 0 0.752088 0.242111 -0.877939 
399 2.55634 2.07553 0.339482 0.678296 0 0 0 -0.217672 -0.510658 -0.662339 
400 3.03867 3.09633 0.0948077 1.03121 0 0 0 0.703317 0.615639 -0.726264 
404 2.54911 1.82913 0.135102 0.717733 0 0 0 -0.227236 -0.38334 -0.795861 
392 1.64898 1.70198 1.30216 0.31371 0 0 0 -4.39444 -24.562 61.7577 
347 1.74968 2.58561 1.44171 0.482406 0 0 0 -0.442357 0.909038 -1.16966 
470 3.18033 2.73685 1.51285 0.777331 0 0 0 1.36502 0.545231 -0.283494 
412 2.83895 2.70487 0.904632 0.719794 0 0 0 0.791078 0.476945 -0.695039 
413 2.99686 2.31763 1.18363 0.663644 0 0 0 1.32584 -0.0831002 -0.625404 
414 2.35624 1.78558 1.13988 0.461764 0 0 0 -0.742115 -1.4769 0.0407966 
415 2.1873 1.95171 0.959635 0.482596 0 0 0 -2.14009 -2.22293 1.05725 
416 1.76813 2.56766 1.21183 0.503755 0 0 0 -0.959938 -0.46932 -0.755571 
454 1.96176 3.07035 1.40585 0.634753 0 0 0 -0.187831 1.48751 -0.880987 
427 1.90156 2.97811 1.41373 0.600579 0 0 0 -0.27544 1.393 -1.01348 
419 3.09087 2.31628 1.28366 0.685428 0 0 0 1.47357 -0.0907896 -0.502447 
457 2.18048 2.18526 1.39274 0.445661 0 0 0 0.664399 -0.848629 -0.804459 
411 1.77754 1.4971 1.51758 0.279062 0 0 0 -3.50466 -3.86766 0.148129 
422 2.52327 1.82722 0.892716 0.53417 0 0 0 -0.488509 -0.711646 -0.445572 
423 2.22281 3.17064 1.41836 0.692846 0 0 0 0.211833 1.49872 -0.625273 
424 1.98908 2.69972 0.785545 0.609121 0 0 0 -0.644642 -0.213526 -0.311737 
425 2.52502 2.65947 0.978218 0.634302 0 0 0 0.284961 0.379805 -0.819754 
426 2.16556 2.22827 1.02762 0.500696 0 0 0 -1.3963 -1.51878 -0.245655 
446 2.15404 1.47217 1.43062 0.370647 0 0 0 -0.758338 -2.07814 2.30956 
441 3.15009 2.03261 1.39372 0.670917 0 0 0 1.68531 -0.393177 -0.321678 
429 2.28301 3.01718 0.830941 0.710769 0 0 0 -0.0175298 0.880802 -0.645501 
430 3.24666 2.98694 1.29672 0.866167 0 0 0 1.22318 0.801653 -0.328425 
449 2.29124 2.24049 1.41349 0.472486 0 0 0 0.979831 -0.238223 -1.01198 
388 1.59812 2.19684 1.01815 0.463189 0 0 0 -1.1252 -4.52471 4.55086 
433 2.03728 1.73803 1.21703 0.390805 0 0 0 -3.06219 -5.9942 9.07322 
434 1.60082 2.73668 1.06615 0.558629 0 0 0 -0.646776 -0.104371 -0.507378 
432 2.37388 1.88404 1.34991 0.447539 0 0 0 0.877463 -1.55966 -0.547252 
436 3.01036 2.09203 0.843111 0.681813 0 0 0 1.07792 -0.223407 -0.688409 
437 2.84619 1.57156 0.966141 0.587292 0 0 0 0.940997 0.0775269 -0.585492 
438 2.85549 2.16438 1.42914 0.5892 0 0 0 1.62873 -0.368391 -0.503893 
439 3.06984 3.26361 1.23339 0.897855 0 0 0 0.949552 1.11242 -0.325502 
440 2.10109 2.01539 0.939847 0.48386 0 0 0 -2.34457 -2.61685 1.56004 
458 2.1452 2.40779 1.42054 0.480221 0 0 0 0.45205 0.375904 -1.04743 
464 2.20089 2.07552 1.39204 0.431481 0 0 0 0.776289 -1.57504 -0.48957 
443 2.5877 1.94946 2.09056 0.53552 0 0 0 1.2274 -0.883249 1.06619 
444 2.84859 1.46505 1.86655 0.570206 0 0 0 1.47549 -0.495901 0.741054 
445 2.81527 2.21551 2.12929 0.614387 0 0 0 1.2189 -0.376552 0.618606 
310 1.78293 2.08928 1.76574 0.364645 0 0 0 2.92982 1.76755 -0.104242 
372 1.61022 2.19643 1.81033 0.377706 0 0 0 0.390853 3.5285 0.842847 
296 2.37676 1.99588 1.7502 0.454789 0 0 0 2.73147 -0.9129 0.691376 
471 1.98873 1.90614 1.68087 0.358624 0 0 0 3.68302 -2.27059 -0.855814 
450 2.67999 1.85887 1.96779 0.537545 0 0 0 1.57151 -0.979883 0.850306 
182 1.64285 1.88949 1.64867 0.302926 0 0 0 0.632053 1.1401 2.03375 
452 2.1188 2.90997 1.68517 0.592221 0 0 0 0.466518 1.44555 -0.398895 
453 1.56027 2.45095 2.19981 0.487033 0 0 0 0.354038 0.827466 2.32808 
469 2.08406 1.70843 2.0562 0.431067 0 0 0 0.0260337 -0.355331 -3.08899 
343 2.09717 1.70347 1.57754 0.360074 0 0 0 0.921781 -3.60633 0.0492205 
481 2.16302 2.25177 1.79843 0.451735 0 0 0 2.75707 0.7718 1.11108 
467 1.86345 2.6493 1.66668 0.49596 0 0 0 0.528539 1.845 -0.479489 
378 1.78868 2.33534 1.81544 0.420984 0 0 0 1.83521 2.73105 1.37881 
459 3.15663 2.7618 2.17728 0.803689 0 0 0 1.33111 0.599006 0.259744 
277 1.76727 1.99982 1.70693 0.340648 0 0 0 3.0053 0.914935 -1.08501 
461 1.65114 2.97998 1.7122 0.580966 0 0 0 -0.214536 1.91986 -0.76916 
263 1.87894 1.99472 1.72044 0.355843 0 0 0 3.87627 -0.294747 -0.870092 
261 1.68404 1.99278 1.69119 0.3293 0 0 0 1.7122 1.80491 -0.604037 
176 1.90639 1.54435 1.53657 0.311143 0 0 0 -2.19464 -3.76116 0.588577 
465 1.96042 2.96193 1.89533 0.597781 0 0 0 0.44138 1.55929 0.0162166 
466 2.24247 3.2713 1.79524 0.726833 0 0 0 0.419268 1.62691 -0.194178 
319 2.24974 1.91454 1.63878 0.411731 0 0 0 2.91674 -1.8313 0.106616 
478 2.18734 3.04935 2.25826 0.683235 0 0 0 0.539365 1.21413 0.572476 
484 1.90492 2.64751 2.31714 0.56231 0 0 0 0.647538 0.489753 1.45392 
187 2.1303 2.09995 1.70539 0.413707 0 0 0 3.4511 -0.361912 0.630709 
509 3.29296 2.84291 2.26144 0.875194 0 0 0 1.37373 0.653912 0.329601 
488 2.31765 1.87768 1.72535 0.42917 0 0 0 2.78257 -1.52844 0.405996 
492 2.70859 2.30871 2.28735 0.620861 0 0 0 0.89396 -0.213798 0.823935 
494 2.94686 2.34984 2.28063 0.684459 0 0 0 1.18417 -0.127243 0.575899 
504 2.87671 1.9456 2.27657 0.631952 0 0 0 1.10362 -0.739898 0.756505 
199 1.89314 1.96045 1.70229 0.351186 0 0 0 3.89554 -0.926794 -1.12829 
120 1.67258 1.96379 1.67438 0.321487 0 0 0 1.4593 1.53508 -0.00768615 
442 2.28183 1.67739 1.7112 0.410209 0 0 0 1.68404 -1.59516 -0.505173 
498 2.04613 1.55965 1.9778 0.409443 0 0 0 -0.910721 1.08485 -7.14676 
487 1.91916 2.03369 2.33112 0.488955 0 0 0 0.0326418 -0.69823 0.224892 
209 2.03145 1.7059 1.5911 0.345966 0 0 0 0.866191 -3.84913 -0.484601 
36 2.10178 2.14084 1.72251 0.416343 0 0 0 3.40666 0.0971483 0.774108 
191 1.67811 1.96819 1.67706 0.323023 0 0 0 1.57671 1.52194 -0.149778 
417 2.33714 2.53507 1.7657 0.533533 0 0 0 1.30011 0.973357 0.259031 
451 2.99114 2.22371 1.53029 0.63345 0 0 0 1.65106 -0.275937 -0.312236 
259 1.58512 1.88707 1.64908 0.297929 0 0 0 -0.810483 2.34876 2.43847 
463 1.58447 1.95968 1.66739 0.313833 0 0 0 -0.644084 2.58972 1.31826 
307 1.54446 1.74374 1.60345 0.263562 0 0 0 -2.46993 3.24048 0.806755 
220 1.54373 1.74204 1.60278 0.263122 0 0 0 -2.4943 3.24062 0.763212 
496 2.03147 2.50601 2.78624 0.657584 0 0 0 0.0310454 -0.181217 1.5299 
472 2.0747 1.79642 2.63684 0.574764 0 0 0 -0.779216 -0.595596 -0.0763755 
473 1.75625 1.5959 2.58877 0.549215 0 0 0 -1.17771 0.121216 -2.34781 
474 2.95854 3.17647 2.68346 0.934252 0 0 0 0.901268 1.04183 0.755756 
497 1.61663 1.94128 2.57965 0.539007 0 0 0 -0.635589 -1.02515 -0.520598 
502 2.22662 2.57159 2.71503 0.667083 0 0 0 0.220397 0.0468195 1.38664 
477 3.17713 2.0138 2.59478 0.781976 0 0 0 1.29712 -0.453759 0.857123 
513 2.63016 3.02979 3.05944 0.919995 0 0 0 0.557671 0.805128 1.277 
479 1.80985 1.75127 2.417 0.498561 0 0 0 -1.15683 -0.35661 -2.63216 
501 1.6536 2.45381 3.00117 0.698248 0 0 0 -0.144856 -0.376348 1.73339 
503 2.03372 3.1535 2.47845 0.734324 0 0 0 0.328415 1.26103 0.849391 
482 1.57532 3.16057 3.12964 0.875846 0 0 0 0.0454316 0.86265 1.49568 
511 3.00814 2.13234 2.41307 0.70201 0 0 0 1.18574 -0.463518 0.754326 
510 2.10249 2.54653 2.61071 0.62352 0 0 0 0.225986 -0.0462929 1.38353 
508 2.62305 1.96044 3.05692 0.772119 0 0 0 0.282784 -0.409103 1.38037 
505 3.15567 2.91939 3.22206 1.06051 0 0 0 0.887147 0.587057 1.13087 
499 1.80691 1.78436 2.91322 0.645105 0 0 0 -0.705534 -0.51554 0.136804 
495 2.94831 1.72933 2.79659 0.75814 0 0 0 0.827136 -0.506836 1.07247 
489 3.12957 1.50361 3.00017 0.868007 0 0 0 0.959271 -0.334799 1.04646 
490 2.37284 2.40854 2.58346 0.629825 0 0 0 0.304743 -0.181173 1.22528 
491 2.27434 1.49882 2.74564 0.629949 0 0 0 -0.618188 -0.160347 0.104057 
506 1.97648 2.06883 3.04671 0.700277 0 0 0 -0.385145 -0.55922 1.2141 
493 3.07267 3.01074 2.79147 0.943092 0 0 0 1.00008 0.817251 0.886015 
480 2.35966 2.25058 2.39424 0.569218 0 0 0 0.406858 -0.387133 1.22442 
ITEM: TIMESTEP
800981
ITEM: NUMBER OF ATOMS
512
ITEM: BOX BOUNDS ss ss ss
-2.2775349561678951e-01 3.2932607586404616e+00
-4.0122540508749138e-01 3.2891132425832117e+00
-1.7039273299291779e-01 3.2223573019164853e+00
ITEM: ATOMS id x y z width_SPH x_COM y_COM z_COM vx vy vz 
23 0.539286 1.16104 0.372782 0.613015 0 0 0 0.633791 -0.0976543 -0.56999 
3 -0.140328 -0.124432 0.0939752 1.0357 0 0 0 -1.01066 -0.934135 -0.881353 
4 1.1215 0.71024 0.265511 0.622552 0 0 0 0.00935731 0.209773 -1.02935 
5 0.225459 1.27088 -0.0393999 0.782509 0 0 0 -0.197426 -0.301974 -0.966507 
6 0.0115275 1.14394 0.37696 0.727351 0 0 0 -0.762223 -0.268023 -0.705392 
22 0.128622 1.05029 0.0596015 0.785116 0 0 0 -0.507386 -0.424314 -0.97067 
8 0.686461 0.733455 -0.0391941 0.747513 0 0 0 0.0953283 -0.433153 -1.18305 
9 1.3567 -0.241852 0.263494 0.804204 0 0 0 -0.298898 -1.18641 -1.40897 
10 -0.0863146 -0.263404 0.0260462 1.0737 0 0 0 -0.931975 -0.985735 -0.901913 
11 0.920704 1.15036 -0.0285247 0.696436 0 0 0 0.752232 -0.165349 -0.435109 
12 0.461885 1.343 0.164185 0.674423 0 0 0 0.502727 -0.204175 -0.606953 
13 0.27863 -0.299307 0.200454 0.957905 0 0 0 -0.806307 -1.14364 -1.01852 
14 0.972037 1.22081 0.390068 0.568523 0 0 0 1.27038 0.142474 0.812724 
15 1.08249 0.66997 0.30481 0.617963 0 0 0 -0.0679073 0.142881 -1.16072 
16 0.612758 -0.235826 0.244742 0.869624 0 0 0 -0.630664 -1.16659 -1.20389 
17 0.87827 0.253889 0.00523118 0.78318 0 0 0 -0.298614 -0.660966 -1.49785 
18 0.562191 0.565604 0.356095 0.673121 0 0 0 -0.327161 -0.544906 -1.23564 
274 1.4895 1.31441 0.568081 0.50871 0 0 0 -0.2066 -0.281933 4.84896 
20 0.679389 0.94068 0.297782 0.628463 0 0 0 0.463987 -0.143631 -0.766461 
62 1.19143 1.02676 0.635984 0.499498 0 0 0 0.00572405 0.577706 1.37849 
50 0.549988 -0.381029 0.627224 0.850632 0 0 0 -0.738663 -1.36616 -0.856491 
31 -0.0666968 1.19079 0.657986 0.69483 0 0 0 -0.999899 -0.0999524 -0.584644 
44 0.384568 0.857337 0.611347 0.611979 0 0 0 -0.317972 -0.373758 -1.12027 
24 1.01877 -0.213782 1.39568 0.679354 0 0 0 -0.123994 -1.69285 0.603271 
353 1.43469 1.07795 1.35086 0.306616 0 0 0 -0.477936 -3.56887 0.636253 
26 -0.135935 1.02548 1.49494 0.658913 0 0 0 -1.52792 0.0880269 0.0612309 
27 0.398738 1.14913 0.832392 0.54623 0 0 0 -0.0929854 0.026185 -1.24836 
28 0.947157 0.225001 1.38726 0.550773 0 0 0 -0.88153 -1.47364 0.742552 
91 0.800644 1.12867 1.21354 0.410232 0 0 0 -0.998748 -0.848626 -0.341453 
303 1.47401 1.06097 1.34497 0.308978 0 0 0 0.971352 -3.79474 0.771146 
65 0.669835 0.471784 1.33838 0.530129 0 0 0 -1.15563 -1.29715 0.0919551 
32 0.390328 -0.347396 1.28432 0.809109 0 0 0 -0.778105 -1.47595 -0.132807 
33 0.747583 -0.211896 1.15272 0.709653 0 0 0 -0.599493 -1.55106 -0.195158 
173 0.936222 0.960757 1.29479 0.396882 0 0 0 -3.46735 -1.1449 -0.811016 
35 1.49751 0.0185864 0.818714 0.616275 0 0 0 -0.421807 -1.4179 -1.15816 
21 1.50709 1.44184 1.49138 0.220516 0 0 0 0.24466 1.5926 0.623693 
154 1.32469 1.31545 1.43484 0.268891 0 0 0 1.65042 2.3575 -4.96294 
38 0.219853 1.02869 0.800812 0.601114 0 0 0 -0.640086 -0.16967 -1.01706 
39 -0.227456 0.894409 1.43968 0.703332 0 0 0 -1.58737 -0.0297075 -0.0849074 
2 1.14968 0.675244 1.21354 0.426025 0 0 0 -4.14295 -2.3141 -1.38038 
351 0.859146 1.19146 1.32514 0.381097 0 0 0 -0.72806 -0.464191 0.443763 
42 0.799968 1.37177 1.32996 0.382827 0 0 0 0.81895 -0.146247 1.05491 
195 1.40658 0.799876 1.18838 0.381448 0 0 0 -2.14157 -3.62159 -0.893444 
318 1.4922 1.06871 1.34922 0.306648 0 0 0 1.8013 -3.84468 0.633271 
45 0.998555 0.224032 1.32982 0.545671 0 0 0 -1.04173 -1.56828 0.537132 
46 0.610448 0.267938 0.790686 0.635116 0 0 0 -0.974958 -0.894102 -1.36007 
47 1.21212 0.915316 0.835747 0.454217 0 0 0 -1.73105 -0.485222 0.987969 
48 0.526621 0.788822 1.37475 0.498782 0 0 0 -1.05291 -1.06538 0.0363273 
250 1.49187 1.08594 1.35641 0.302455 0 0 0 1.96533 -3.83478 0.345648 
79 1.49622 1.36941 1.46082 0.233519 0 0 0 3.64253 0.758189 0.552328 
51 0.476674 1.30496 0.949274 0.506038 0 0 0 0.169104 0.22164 -1.33578 
52 1.29203 0.226357 1.31754 0.525363 0 0 0 -0.90746 -1.91139 0.784909 
53 -0.0398825 0.626633 1.25892 0.678803 0 0 0 -1.45044 -0.441298 -0.41464 
54 1.02301 -0.400928 1.42876 0.747459 0 0 0 0.00504772 -1.74379 0.513753 
385 1.48525 1.28967 1.43147 0.252412 0 0 0 3.42406 -2.10588 0.492459 
56 1.27652 0.103595 1.02254 0.574014 0 0 0 -0.869701 -1.66904 -0.734845 
178 0.995023 1.43603 1.45857 0.329986 0 0 0 2.9103 1.35591 0.624065 
115 1.50525 1.15042 1.37639 0.287017 0 0 0 3.09583 -4.38388 0.778439 
59 0.618219 0.602604 1.24067 0.517389 0 0 0 -1.31682 -1.26836 -0.59606 
124 1.46275 1.03847 1.3335 0.31495 0 0 0 0.307987 -3.79347 1.08136 
306 1.50773 -0.285862 0.765566 0.723845 0 0 0 -0.127728 -1.6043 -0.682441 
64 0.863756 -0.339052 1.3046 0.736468 0 0 0 -0.275676 -1.69422 0.221019 
119 1.46934 1.29804 1.43364 0.251084 0 0 0 3.24187 -1.66942 0.902038 
313 1.06026 1.33633 1.41901 0.322543 0 0 0 1.09844 0.94704 2.21128 
149 1.36226 1.21564 1.35164 0.287128 0 0 0 -1.32927 -1.55502 -0.806164 
179 1.27092 0.655449 1.19794 0.420359 0 0 0 -3.49665 -2.75729 -1.57718 
106 1.48397 1.28129 1.42805 0.25453 0 0 0 3.33238 -2.41657 0.6549 
322 1.48977 1.08076 1.35422 0.303749 0 0 0 1.82432 -3.82916 0.433313 
19 1.48534 0.423851 1.00494 0.484893 0 0 0 -0.852809 -1.86256 -1.91702 
512 1.49418 1.3562 1.4562 0.236441 0 0 0 3.67148 0.312277 0.469386 
301 0.930609 1.30713 1.40803 0.352103 0 0 0 0.844325 0.695943 0.473281 
214 1.39941 0.98396 1.30052 0.332293 0 0 0 -2.34857 -3.66489 1.32713 
77 0.453288 1.43621 1.29507 0.467503 0 0 0 -0.729882 0.322767 -0.756548 
358 0.802633 1.13455 1.1541 0.418094 0 0 0 -0.811648 -0.815745 -0.341111 
81 0.658634 0.594059 1.15419 0.517894 0 0 0 -1.43276 -1.24587 -1.06385 
71 0.654126 1.22741 1.34848 0.421631 0 0 0 -0.472647 -0.274575 -0.366836 
329 0.872552 1.19711 1.34631 0.376297 0 0 0 -0.664078 -0.284463 0.350754 
57 1.51229 0.644708 1.1874 0.41243 0 0 0 -0.122498 -3.0567 -1.6264 
122 1.21656 0.673195 1.20291 0.420712 0 0 0 -3.98102 -2.58501 -1.52536 
74 0.974806 0.845292 1.26176 0.411887 0 0 0 -4.06667 -1.59232 -1.05774 
228 1.1961 1.41564 1.46551 0.285851 0 0 0 3.66146 1.69312 2.5451 
198 0.988601 1.43717 1.45868 0.331366 0 0 0 2.87836 1.25711 0.754276 
165 1.3282 0.926637 1.25837 0.353437 0 0 0 -4.30445 -3.50955 0.956285 
101 1.00028 1.23476 1.37484 0.345701 0 0 0 -1.00823 0.365259 1.16489 
82 0.914216 0.731784 1.19891 0.446422 0 0 0 -3.04129 -1.67025 -1.19381 
229 1.43794 1.01784 1.32157 0.321263 0 0 0 -0.817448 -3.73943 1.25748 
66 0.0779142 -0.20939 2.31731 0.901786 0 0 0 -0.687964 -1.05208 0.580833 
67 0.896591 0.389783 1.98979 0.568993 0 0 0 0.535173 -0.0874187 0.637812 
68 1.03629 0.897859 1.78785 0.431442 0 0 0 0.893004 2.98619 -4.25733 
95 0.398485 -0.0109011 2.10984 0.741994 0 0 0 -0.249938 -0.999985 0.679921 
70 0.43186 1.36488 2.12842 0.534681 0 0 0 0.501945 -0.113961 0.726952 
88 0.0603628 0.335405 2.25425 0.754694 0 0 0 -0.78591 -0.437363 0.780302 
55 0.179154 0.110083 1.56622 0.715516 0 0 0 -0.990369 -1.03048 0.129733 
63 0.0686994 1.42391 1.57716 0.574448 0 0 0 -1.32731 0.122358 0.333591 
87 -0.124824 0.602197 1.97093 0.726215 0 0 0 -1.23339 -0.22781 0.586441 
75 0.134231 1.38274 2.08425 0.597902 0 0 0 -0.600578 -0.111099 0.9279 
86 1.52819 0.494281 1.73489 0.483928 0 0 0 0.0889467 0.601374 0.00433233 
90 0.772492 1.18916 2.00601 0.46751 0 0 0 2.16493 1.08642 -1.69316 
78 0.397217 -0.00262884 2.21456 0.75524 0 0 0 -0.216501 -0.931591 0.705687 
113 0.978 1.36 2.06099 0.439921 0 0 0 2.96966 2.54515 -6.73443 
93 0.811338 0.804861 2.0233 0.511044 0 0 0 1.24664 0.892038 -0.290582 
92 0.38802 0.389795 1.87057 0.619934 0 0 0 -0.311902 -0.630198 0.888685 
108 1.18119 0.815741 2.12937 0.500497 0 0 0 1.03675 2.73471 -3.2614 
83 0.717761 1.15514 1.91969 0.462905 0 0 0 1.76404 0.737023 -0.786732 
84 0.247414 0.0622372 2.16075 0.758664 0 0 0 -0.490202 -0.857551 0.680793 
96 1.42755 0.839299 1.8915 0.437825 0 0 0 0.310991 5.2412 -7.87328 
127 1.45838 0.642883 2.04465 0.504505 0 0 0 0.179327 2.32783 -2.51015 
34 -0.0099491 0.530522 1.66397 0.680597 0 0 0 -1.25689 -0.447008 0.29241 
60 0.616719 0.958431 1.89369 0.496539 0 0 0 0.906047 0.1864 0.694829 
25 1.06931 0.28278 1.6188 0.537637 0 0 0 -0.332344 -0.973997 1.42412 
76 0.569501 0.905027 1.57236 0.476952 0 0 0 -0.410873 -0.726924 0.959419 
94 0.548014 0.812211 1.57409 0.49466 0 0 0 -0.474161 -0.799153 1.01573 
37 0.451647 1.06436 1.55401 0.483797 0 0 0 -0.715201 -0.372698 0.801559 
49 -0.225093 0.992379 1.53528 0.693612 0 0 0 -1.56995 0.0719902 0.0721446 
125 1.09267 1.35856 2.31577 0.494748 0 0 0 1.87395 1.8792 -4.76174 
370 1.52837 0.876185 2.34622 0.535459 0 0 0 -0.114088 2.66181 -3.736 
121 1.2299 0.0557182 2.56175 0.739896 0 0 0 0.42062 -0.463429 0.188909 
97 0.741254 0.963634 2.6719 0.641807 0 0 0 0.791082 0.76951 -0.0276496 
98 0.311902 1.033 2.82434 0.738883 0 0 0 -0.0618699 0.189118 0.942212 
99 0.716605 0.0242845 2.58279 0.779045 0 0 0 0.238138 -0.650584 0.651581 
100 0.647803 0.403616 2.84607 0.773451 0 0 0 0.218139 0.0516016 0.748545 
128 0.383362 1.44118 2.49723 0.615765 0 0 0 0.29151 -0.114643 0.746926 
131 0.549717 1.23793 2.93584 0.721723 0 0 0 0.375437 0.238879 0.767569 
103 1.03332 0.516066 2.74005 0.695682 0 0 0 0.557473 0.579623 -0.00873677 
130 1.37066 0.465209 2.56845 0.65114 0 0 0 0.363683 0.73651 -0.68233 
114 1.06694 0.880375 2.58087 0.60421 0 0 0 0.894354 1.4752 -1.2637 
129 0.508149 0.0503805 3.07878 0.938567 0 0 0 -0.0943961 -0.452568 0.926434 
116 -0.0918033 0.828692 2.48471 0.768907 0 0 0 -0.926295 -0.0065614 0.912688 
117 -0.112807 0.373906 2.52757 0.849197 0 0 0 -0.96399 -0.312896 0.858359 
109 0.427185 0.944433 3.03849 0.793868 0 0 0 0.0459937 0.256789 0.96325 
110 0.486302 -0.255056 2.78202 0.938171 0 0 0 -0.121552 -0.936639 0.764152 
123 1.28799 1.23656 2.37885 0.511355 0 0 0 0.834487 2.64143 -5.32605 
112 1.16532 0.424951 2.80165 0.724466 0 0 0 0.467828 0.431168 0.0413233 
162 0.457142 2.5951 0.566884 0.691736 0 0 0 -0.198979 0.795877 -0.433694 
132 0.66222 2.53027 0.217891 0.732798 0 0 0 0.175166 0.271939 -0.335463 
133 0.0922409 1.78605 0.558716 0.665837 0 0 0 -0.455906 0.139874 -0.504161 
134 0.162153 2.01557 0.242431 0.736259 0 0 0 -0.340431 0.19717 -0.589831 
135 1.32373 2.40948 0.446199 0.616066 0 0 0 0.35755 -1.41328 1.05042 
136 1.10481 2.57107 0.555834 0.622616 0 0 0 0.397434 -0.469659 0.464799 
137 0.0490377 2.5059 0.614627 0.758154 0 0 0 -0.885995 0.864011 -0.494777 
138 0.513595 2.21214 0.0647117 0.745661 0 0 0 0.264213 0.00927492 -0.511832 
139 0.291598 2.24804 0.292716 0.722671 0 0 0 -0.186684 0.334732 -0.526092 
140 0.883335 2.73443 0.162878 0.770975 0 0 0 0.129498 0.361206 -0.290008 
141 -0.0439147 2.3866 0.160642 0.86376 0 0 0 -0.835631 0.588505 -0.612648 
142 1.45321 2.54109 0.575778 0.605432 0 0 0 -0.0152742 -1.15817 0.848437 
143 1.27571 2.91643 0.597735 0.687648 0 0 0 -0.0928371 0.533057 -0.00197089 
160 0.794612 3.07601 0.428215 0.804012 0 0 0 -0.207691 1.16477 -0.290252 
145 0.495421 2.00223 0.0139402 0.74095 0 0 0 0.384895 -0.140989 -0.551354 
146 1.33715 2.00137 0.341049 0.601082 0 0 0 0.65443 -2.1093 2.10554 
147 0.766196 1.82077 0.226306 0.636295 0 0 0 1.1953 -0.680018 0.317604 
148 1.26681 3.02295 0.252031 0.79905 0 0 0 -0.0618157 0.64064 -0.23334 
156 0.0923357 1.95726 0.419737 0.705678 0 0 0 -0.503521 0.220002 -0.51431 
150 1.0832 1.84154 0.51401 0.549523 0 0 0 1.65376 -2.03897 2.64028 
155 0.802648 1.62672 0.139302 0.650624 0 0 0 1.20365 -0.523892 0.232125 
161 1.3747 2.00684 0.411127 0.582787 0 0 0 0.554473 -2.40397 2.53744 
159 0.03923 1.48546 -0.035288 0.821636 0 0 0 -0.53288 -0.15972 -0.891081 
170 1.13968 2.09624 1.09395 0.440551 0 0 0 1.46607 -3.77865 4.57866 
163 0.51282 2.85755 0.715427 0.721363 0 0 0 -0.362552 1.26009 -0.434131 
202 0.61415 2.0095 1.00203 0.503112 0 0 0 1.10002 -0.139527 -1.05798 
167 0.8674 1.79174 1.05682 0.436403 0 0 0 2.56084 -1.83458 2.56775 
225 1.49735 1.51636 1.51443 0.217519 0 0 0 -0.855032 -0.817295 -0.885866 
169 0.92571 1.73867 1.4307 0.356737 0 0 0 1.84683 -1.94823 4.92858 
201 -0.0238955 2.74169 0.921928 0.787359 0 0 0 -1.10161 1.15804 -0.493648 
171 0.3448 1.88397 1.315 0.51087 0 0 0 -0.752073 0.282539 -1.14345 
183 1.05569 1.45292 1.46249 0.315992 0 0 0 3.41767 1.60689 1.20725 
30 0.792088 1.64482 1.51741 0.376353 0 0 0 1.0264 0.0813776 0.162087 
174 0.20688 1.77876 1.03603 0.567113 0 0 0 -0.476492 0.230797 -1.02288 
210 1.50148 1.47892 1.50125 0.217349 0 0 0 0.56499 0.987183 0.145065 
157 1.18863 2.27084 1.02742 0.478471 0 0 0 0.927586 -2.54604 1.97868 
152 1.07997 2.08942 0.712461 0.523344 0 0 0 1.53882 -2.43134 2.37594 
314 1.50113 1.48138 1.50212 0.217251 0 0 0 0.470195 0.863196 0.0410958 
197 0.0748432 2.23525 1.08021 0.643442 0 0 0 -1.00237 0.595565 -0.809896 
180 0.421877 2.02562 1.49853 0.493812 0 0 0 -1.13643 0.339418 -0.727725 
181 0.627687 2.08579 1.41777 0.456516 0 0 0 -0.466755 0.710699 -1.41781 
428 1.18669 2.56475 1.42784 0.483301 0 0 0 -0.598199 1.1833 -1.622 
410 1.4991 1.48774 1.50438 0.217078 0 0 0 0.802394 0.610233 -0.029958 
184 0.816888 2.82806 1.23688 0.60367 0 0 0 -0.226955 1.5711 -1.11908 
460 1.49413 1.50152 1.50837 0.217104 0 0 0 -0.273598 -0.0791519 -0.506682 
186 0.975643 2.81774 1.04021 0.60602 0 0 0 -0.0236904 1.00237 -0.639704 
196 0.570966 1.70122 1.47318 0.43214 0 0 0 -0.553616 0.191691 -0.178854 
188 0.309627 2.5385 1.32084 0.613258 0 0 0 -0.883869 1.28405 -1.11731 
200 0.952341 2.70818 1.14964 0.565976 0 0 0 0.0652686 0.959642 -1.03809 
190 0.811564 1.85976 1.03819 0.453607 0 0 0 2.21281 -1.24134 0.978919 
166 0.578322 1.64115 0.820063 0.51415 0 0 0 1.37961 -0.126792 -0.491431 
192 0.613365 2.06273 1.28737 0.468807 0 0 0 0.152291 0.522635 -1.66708 
193 1.11512 2.50091 1.38662 0.476142 0 0 0 -0.418157 0.86863 -1.5248 
203 1.49709 1.53529 1.52114 0.218903 0 0 0 -1.53164 -1.18397 -1.05363 
208 1.50103 1.48233 1.50246 0.217217 0 0 0 0.443965 0.810976 0.00772877 
41 1.49969 1.49087 1.50544 0.217017 0 0 0 0.111339 0.317756 -0.331764 
342 1.4981 1.50466 1.51029 0.217088 0 0 0 -0.412879 -0.392296 -0.697261 
164 1.49914 1.49496 1.50687 0.216988 0 0 0 -0.0433659 0.0846205 -0.461759 
40 1.49907 1.4955 1.50707 0.216987 0 0 0 -0.0640853 0.0547531 -0.477544 
219 1.49839 1.50152 1.50919 0.217029 0 0 0 -0.293202 -0.250667 -0.630621 
73 1.49777 1.50903 1.51184 0.217209 0 0 0 -0.578836 -0.569496 -0.777558 
43 0.805601 1.44796 1.37081 0.376499 0 0 0 1.30555 -0.0245058 1.2789 
418 1.50719 1.47294 1.49917 0.217692 0 0 0 -0.374788 0.847824 0.0282006 
158 1.23226 1.8044 1.11312 0.389198 0 0 0 1.38739 -9.68881 21.2869 
394 1.50446 1.487 1.49865 0.217129 0 0 0 -0.307102 0.643614 -1.04104 
107 1.49844 1.45725 1.49537 0.218851 0 0 0 1.73308 1.28133 2.58979 
215 0.540873 2.16283 1.63005 0.479713 0 0 0 -1.42843 0.603973 -0.340457 
447 1.39749 2.80307 2.23838 0.567393 0 0 0 -0.10995 1.2307 1.24135 
205 0.0357122 1.958 2.06486 0.630638 0 0 0 -1.35401 -0.385491 0.701832 
206 1.02526 2.47209 2.29805 0.52608 0 0 0 -0.784637 0.0757874 2.24094 
207 0.438848 2.84841 1.72196 0.648681 0 0 0 -0.970143 1.70348 -0.719296 
257 1.1462 1.73854 1.5693 0.308093 0 0 0 0.151283 1.36656 0.791541 
194 0.555395 1.94539 1.63956 0.452293 0 0 0 -1.3245 0.0738116 0.248959 
235 1.21548 2.18612 2.35238 0.49366 0 0 0 -0.515766 -1.03702 1.78987 
211 0.956351 2.92221 2.05614 0.605034 0 0 0 -0.719792 1.80984 0.0663283 
212 0.453133 2.60916 1.67387 0.582914 0 0 0 -1.16158 1.49544 -0.74154 
213 0.821559 1.77282 1.80143 0.397828 0 0 0 -0.215193 0.0121494 -1.25198 
242 0.400462 2.35909 2.29194 0.595598 0 0 0 -1.03597 -0.27233 1.19629 
231 0.848345 2.32006 2.12815 0.491556 0 0 0 -1.4665 0.000740845 2.18594 
216 1.16683 2.94849 2.0896 0.599368 0 0 0 -0.54777 1.81478 0.245512 
217 0.343204 2.85138 1.83538 0.671171 0 0 0 -1.07812 1.48817 -0.52057 
218 0.188136 2.60236 1.94756 0.653437 0 0 0 -1.42613 0.765568 -0.0978953 
468 0.852823 2.30966 1.85529 0.453563 0 0 0 -2.19991 1.12481 0.887579 
204 0.982447 2.13674 1.79705 0.40018 0 0 0 -3.11399 1.07111 0.489737 
221 0.781366 2.16855 1.99554 0.461677 0 0 0 -1.81783 -0.142133 1.89157 
222 0.874651 2.13024 1.82114 0.418687 0 0 0 -2.52251 0.608005 0.876318 
223 0.648262 1.75377 1.7334 0.42543 0 0 0 -0.647237 -0.244305 0.582329 
246 1.14636 1.78049 1.58 0.313137 0 0 0 -0.965074 1.3197 0.383646 
104 0.233991 1.55829 2.31381 0.605701 0 0 0 -0.273961 -0.332354 0.943829 
226 1.33009 3.06354 2.06162 0.626229 0 0 0 -0.383255 1.88234 0.0383617 
227 0.147303 1.58649 2.08044 0.590156 0 0 0 -0.738995 -0.333809 0.957704 
234 1.08919 1.77501 1.65728 0.32788 0 0 0 -0.110839 5.13794 -13.7885 
238 1.01266 1.72345 1.58265 0.333681 0 0 0 1.2376 1.37742 -3.74675 
321 1.32126 2.33261 1.84131 0.409752 0 0 0 -2.19714 3.09489 1.05824 
475 0.852229 2.20785 1.83084 0.434528 0 0 0 -2.39334 0.83113 0.93604 
476 1.236 2.27058 2.30391 0.488503 0 0 0 -0.670115 -0.591776 2.29735 
189 0.782458 2.23929 1.56137 0.444168 0 0 0 -1.22519 1.24324 -1.12479 
239 1.34951 1.89791 1.62615 0.304186 0 0 0 -5.24252 3.48681 3.25092 
328 1.239 2.61188 1.80516 0.480289 0 0 0 -1.13668 2.5566 -0.28971 
185 0.0296404 2.45809 1.54539 0.667552 0 0 0 -1.48895 0.759405 -0.529474 
337 1.08117 2.12646 1.79494 0.384858 0 0 0 -3.71953 1.54272 0.134506 
462 1.49401 3.28882 1.96819 0.696854 0 0 0 -0.327521 1.9614 -0.252648 
168 1.33187 1.8586 1.63155 0.298784 0 0 0 -4.91562 3.88082 2.86734 
247 1.21227 2.26016 1.82707 0.399113 0 0 0 -3.19414 2.60093 0.84191 
177 1.34233 2.09073 1.75653 0.35018 0 0 0 -4.10415 3.77392 -1.22951 
485 1.5067 2.80876 2.33205 0.58372 0 0 0 0.0957221 0.929004 1.38009 
264 1.3721 2.2453 1.827 0.387487 0 0 0 -2.45624 3.42763 0.95166 
69 1.4045 2.22361 1.82304 0.381679 0 0 0 -2.28871 3.58824 0.832466 
483 1.42127 2.31224 1.83497 0.402121 0 0 0 -1.57743 3.46078 1.19427 
350 1.439 2.29198 1.83174 0.397128 0 0 0 -1.51885 3.54181 1.199 
249 0.810741 1.71806 2.34598 0.511764 0 0 0 1.12857 -0.642097 -0.195646 
420 1.11137 1.94425 1.68019 0.344427 0 0 0 -3.58156 1.60292 -2.54952 
240 1.4289 1.99381 1.67738 0.320757 0 0 0 -4.04904 3.95809 0.323699 
300 1.51917 1.67207 1.57346 0.245251 0 0 0 -3.20681 2.2411 -0.654757 
398 1.51864 1.67007 1.57264 0.244757 0 0 0 -3.21522 2.19055 -0.696748 
29 0.0998282 1.58839 1.57877 0.564951 0 0 0 -1.34129 0.010443 0.251705 
224 1.11369 1.66991 1.54005 0.30784 0 0 0 2.25709 1.35883 0.489161 
111 0.951805 1.52522 1.75502 0.365735 0 0 0 2.94899 3.99107 -11.4174 
105 1.42239 1.7449 1.5687 0.264088 0 0 0 -3.21214 2.29614 8.8904 
172 1.02342 1.85688 1.56822 0.344258 0 0 0 -0.6148 -1.55391 3.58451 
153 1.36635 1.72335 1.67667 0.280185 0 0 0 -1.66257 12.4698 -21.7861 
341 1.49773 1.55245 1.52725 0.220826 0 0 0 -2.06945 -1.20906 -1.11584 
144 1.49737 1.55543 1.52765 0.221191 0 0 0 -2.02477 -1.23669 -0.917394 
332 1.49424 1.56548 1.53147 0.22269 0 0 0 -0.539922 -0.878092 -0.942532 
486 1.5315 1.94567 2.15281 0.420412 0 0 0 -0.552521 0.806614 -5.18603 
336 1.53234 1.71296 1.59081 0.255617 0 0 0 -2.862 3.06731 0.0558643 
80 1.4976 1.55014 1.52642 0.220533 0 0 0 -2.0022 -1.22102 -1.11088 
232 0.492161 2.02195 2.69548 0.64261 0 0 0 -0.0745532 -0.804798 1.41708 
233 0.819152 1.89518 2.82464 0.638635 0 0 0 0.44049 -0.774788 1.0263 
255 -0.0545547 2.84034 2.49112 0.830805 0 0 0 -1.33128 0.662497 0.3956 
266 0.366654 1.98499 2.58794 0.636921 0 0 0 -0.320954 -0.749401 1.30897 
236 1.10598 2.61864 2.76414 0.651238 0 0 0 -0.0563322 -0.167822 1.86497 
237 0.373432 2.44496 2.4469 0.637517 0 0 0 -0.879452 -0.195094 1.14202 
262 0.719177 1.67966 2.53177 0.568062 0 0 0 0.926254 -0.48422 0.339197 
254 0.214177 2.73861 3.11696 0.891495 0 0 0 -0.71248 0.273398 1.45051 
118 0.0283944 1.48111 2.6882 0.743106 0 0 0 -0.653585 -0.166582 1.01435 
241 0.939423 2.12978 3.11426 0.728297 0 0 0 0.137847 -0.661527 1.54261 
265 0.0329578 3.01139 2.61218 0.868522 0 0 0 -1.12544 0.909763 0.525484 
243 0.55965 3.01397 2.64266 0.760243 0 0 0 -0.50885 1.00279 0.858376 
244 -0.0538438 3.17008 2.96979 1.01469 0 0 0 -0.989226 0.906803 0.853321 
245 1.25688 2.18075 2.86042 0.631952 0 0 0 -0.0454105 -0.976666 1.3767 
256 0.0639238 2.93295 2.98771 0.92831 0 0 0 -0.938699 0.617745 1.10111 
260 -0.0684594 2.86215 2.72928 0.884979 0 0 0 -1.22646 0.592823 0.736882 
248 0.535508 2.66342 2.98131 0.774498 0 0 0 -0.342592 0.0705733 1.64874 
507 1.514 2.78544 2.91086 0.71764 0 0 0 0.00160126 0.241192 1.77999 
258 0.563516 2.96535 3.08817 0.865751 0 0 0 -0.344532 0.623049 1.47813 
251 0.511305 2.47669 2.63315 0.654783 0 0 0 -0.499795 -0.285977 1.47389 
252 -0.111921 2.39186 2.39214 0.75658 0 0 0 -1.48801 -0.0397618 0.500071 
253 1.04036 3.18639 2.78128 0.794804 0 0 0 -0.146955 1.14523 1.12597 
267 1.82892 0.385598 0.477782 0.596852 0 0 0 -0.154226 -0.0364182 -2.08402 
268 2.77883 0.405527 0.286065 0.786131 0 0 0 1.25567 -0.459811 -1.24518 
269 2.2067 0.0402878 -0.170095 0.890931 0 0 0 0.374262 -0.769615 -1.63993 
270 2.56706 0.0594596 -0.0701708 0.911769 0 0 0 0.827072 -0.801587 -1.41336 
291 2.17938 0.517071 -0.0151444 0.745446 0 0 0 0.104546 -0.0265103 -1.80515 
272 2.88249 0.826455 0.434377 0.720699 0 0 0 1.24072 0.0309705 -1.11999 
273 1.72709 1.05678 0.271323 0.594022 0 0 0 -0.639113 0.752341 0.272406 
295 2.1713 1.36023 0.380862 0.583848 0 0 0 -1.32071 0.225608 0.267938 
275 2.66357 -0.0269313 -0.00181587 0.933267 0 0 0 0.95208 -0.903043 -1.25185 
276 1.80978 0.0752491 0.0483219 0.778947 0 0 0 -0.0838288 -0.68791 -1.77598 
294 1.7398 1.32132 0.46805 0.539316 0 0 0 -1.135 0.0486489 2.88229 
278 1.84914 0.118939 -0.0193097 0.792008 0 0 0 -0.0537304 -0.613859 -1.7987 
279 2.175 0.767303 0.422035 0.586647 0 0 0 -0.12755 0.711326 -1.57241 
290 2.36632 1.24236 0.156961 0.668461 0 0 0 -0.466668 0.307246 -0.928697 
281 2.44926 1.10437 0.372458 0.618622 0 0 0 -0.226712 0.581783 -1.09595 
289 2.44023 0.7443 0.53965 0.597763 0 0 0 0.576948 0.387545 -1.48424 
292 2.33956 0.902122 0.628317 0.547956 0 0 0 0.151955 0.787031 -1.36184 
284 1.63517 0.788281 0.385012 0.570139 0 0 0 -0.509408 0.940157 -0.962233 
285 2.84963 1.17716 0.062594 0.791308 0 0 0 0.715077 0.055513 -1.2482 
286 1.78723 0.48572 0.444942 0.587349 0 0 0 -0.294064 0.282616 -2.06147 
287 2.57698 1.17322 0.482564 0.61156 0 0 0 0.0428272 0.539605 -1.02998 
288 2.12027 0.470308 0.103733 0.706466 0 0 0 0.0548206 -0.00960041 -1.83868 
283 2.43674 -0.0381359 0.797334 0.720709 0 0 0 1.11703 -1.28517 -0.55813 
297 2.10952 0.404045 1.31447 0.50788 0 0 0 1.9042 -1.28952 1.10996 
298 2.93 0.378402 1.22614 0.69964 0 0 0 1.80702 -0.768686 0.103675 
299 2.17784 0.794496 1.15773 0.446811 0 0 0 3.04162 -0.03208 -0.486592 
326 2.16131 0.241584 1.27565 0.557614 0 0 0 1.36202 -1.47807 0.897716 
421 1.83955 1.44085 1.50274 0.295548 0 0 0 -2.29182 -3.41394 -0.0466663 
302 2.20229 0.171772 1.03879 0.593098 0 0 0 1.23413 -1.32819 -0.190313 
409 1.68109 1.13812 1.38277 0.302336 0 0 0 7.62333 -3.47473 0.201592 
304 2.56841 0.907698 0.967205 0.532659 0 0 0 1.36614 0.342842 -0.843708 
327 2.48296 0.0221928 1.06097 0.685998 0 0 0 1.27707 -1.34475 -0.0075903 
271 2.03989 0.860397 1.25086 0.407327 0 0 0 4.83339 -0.126211 -0.0685221 
325 1.98594 0.355555 1.00005 0.521512 0 0 0 1.37388 -1.15537 -1.03989 
308 1.84277 0.353849 1.39548 0.497792 0 0 0 1.14381 -1.67527 1.55098 
309 2.88629 1.00557 1.17505 0.59401 0 0 0 1.74576 0.142727 -0.102379 
352 2.8534 1.20475 1.47988 0.560577 0 0 0 1.76104 0.0542414 0.516972 
311 2.00273 0.716305 0.965152 0.458607 0 0 0 2.42617 -0.00753901 -1.77904 
312 2.53391 1.33844 0.846887 0.525579 0 0 0 -0.117261 0.548443 -0.597095 
293 2.42309 1.11164 0.861818 0.504926 0 0 0 0.210287 0.810978 -0.879127 
324 1.62813 -0.0597935 0.885018 0.633872 0 0 0 -0.114653 -1.61403 -0.685117 
315 2.60039 1.07859 1.23024 0.500886 0 0 0 1.63793 0.261163 -0.0845695 
316 2.72627 0.872234 1.06806 0.566481 0 0 0 1.68886 0.0840588 -0.390895 
317 2.17447 0.00895977 1.26039 0.630984 0 0 0 0.833515 -1.67301 0.738091 
345 2.10887 1.08501 1.35917 0.384713 0 0 0 3.15609 0.53124 0.357388 
323 2.38134 0.331229 1.45359 0.569984 0 0 0 1.39883 -1.12542 1.28538 
455 2.55583 1.28173 1.36755 0.472766 0 0 0 1.51335 0.132497 0.181878 
435 2.27638 1.22552 1.31462 0.411362 0 0 0 0.998378 0.0653994 0.565526 
448 2.20141 1.19778 1.32868 0.395788 0 0 0 1.29396 0.0630315 0.913628 
330 2.12818 0.96826 1.33153 0.403423 0 0 0 3.69322 0.317577 0.285 
333 2.02458 1.08667 1.30522 0.371338 0 0 0 4.55203 0.017475 1.82275 
320 2.05153 1.24466 1.39438 0.356997 0 0 0 1.4507 -0.217964 1.67608 
85 1.93765 0.688032 1.22732 0.424792 0 0 0 4.19071 -1.03473 -0.384196 
72 1.85277 0.835644 1.34412 0.381421 0 0 0 5.99024 -0.139196 -1.58474 
280 1.92793 1.15719 0.954502 0.418541 0 0 0 0.282106 -0.515742 5.51771 
282 1.82596 1.09003 1.37788 0.331793 0 0 0 7.68147 0.0358366 -2.08903 
58 1.53876 0.410764 0.794839 0.520963 0 0 0 -0.628852 -0.81362 -2.4837 
7 1.78036 0.749635 1.18988 0.399085 0 0 0 4.5795 -1.9301 -1.07287 
175 1.68619 0.702477 1.18442 0.402966 0 0 0 3.05552 -2.53239 -1.39667 
151 1.67337 0.694867 1.1842 0.404023 0 0 0 2.80385 -2.59512 -1.42883 
102 1.68172 0.685803 1.18739 0.406092 0 0 0 2.83246 -2.53398 -1.39635 
401 1.68761 1.21332 1.38462 0.290457 0 0 0 6.1567 -7.39836 9.30992 
431 1.82256 1.38594 1.47812 0.294163 0 0 0 -1.17732 -3.90106 1.50417 
230 1.56872 0.814002 1.19065 0.375188 0 0 0 1.90281 -3.51158 -0.549922 
402 1.95157 1.39056 1.18272 0.365169 0 0 0 -1.92913 -6.34749 17.6058 
61 2.0614 1.43225 1.48035 0.347743 0 0 0 -1.14337 -1.58249 0.681116 
305 2.1485 1.42894 1.51639 0.368185 0 0 0 -0.452633 -0.690371 -0.93855 
89 2.19201 1.4391 1.48267 0.378192 0 0 0 -0.209055 -1.02963 0.257687 
363 1.70563 1.4206 1.51267 0.263066 0 0 0 1.53715 23.0489 -69.0607 
500 2.10569 1.32174 1.88392 0.41245 0 0 0 -1.33947 1.80842 -6.18351 
355 2.35839 0.184455 1.86312 0.634469 0 0 0 0.366737 -1.07696 1.05965 
381 3.11612 1.01979 2.35073 0.739095 0 0 0 1.30337 -0.262201 0.688364 
331 2.87923 0.0788092 2.06589 0.792852 0 0 0 1.08629 -1.15042 0.611444 
364 1.76963 0.735985 2.16029 0.51731 0 0 0 -0.565331 2.08265 -2.76988 
456 2.33967 1.28734 1.85279 0.452111 0 0 0 -0.0219314 -0.0187166 -0.567978 
334 2.8487 0.650639 1.56623 0.619734 0 0 0 1.61386 -0.52617 0.796466 
379 2.85971 0.751268 2.16119 0.662739 0 0 0 0.956944 -0.296395 0.716299 
357 2.79171 1.1106 1.69074 0.555739 0 0 0 1.47419 -0.156917 0.974859 
349 2.50806 1.06994 1.68912 0.485856 0 0 0 1.04787 -0.242841 1.07402 
338 2.91328 1.04907 1.57017 0.592007 0 0 0 1.69156 -0.0901409 0.716266 
339 2.60637 0.208208 1.78259 0.663657 0 0 0 0.880229 -1.09938 0.93033 
340 2.03196 0.919072 1.73825 0.42777 0 0 0 0.609935 2.04141 -2.76094 
380 2.25571 1.36196 2.17207 0.492287 0 0 0 -0.922241 0.227023 -1.48847 
356 2.53184 0.904635 2.0194 0.548951 0 0 0 0.229622 -0.0732831 0.595424 
359 2.00327 -0.0960488 2.15981 0.722346 0 0 0 0.00873624 -1.20847 0.524025 
344 2.80142 -0.0437769 2.11852 0.816013 0 0 0 0.909445 -1.29322 0.606333 
348 3.04076 1.33757 1.60003 0.619055 0 0 0 1.74332 -0.105231 0.435837 
346 1.58773 0.374971 1.94495 0.544623 0 0 0 0.0740302 0.361019 0.0551791 
354 2.04635 0.843229 1.58868 0.422712 0 0 0 2.33695 1.06414 -0.593021 
368 2.37677 0.682568 2.36623 0.614731 0 0 0 -0.272393 0.0967386 0.0449245 
366 1.71032 1.38229 2.04882 0.405715 0 0 0 -1.4847 7.06324 -20.3569 
371 2.18583 0.971473 2.33558 0.551661 0 0 0 -0.951566 0.8131 -1.29553 
377 1.74601 1.18743 1.97102 0.407228 0 0 0 -1.22683 7.54377 -18.038 
360 1.90747 0.404477 2.3254 0.616732 0 0 0 -0.290936 0.209352 -0.467827 
361 2.15681 1.26107 2.27567 0.509606 0 0 0 -1.32498 0.772347 -2.22139 
335 2.54275 0.223582 1.52696 0.631493 0 0 0 1.20218 -1.16835 0.995505 
384 1.99729 -0.0776352 2.77942 0.849446 0 0 0 0.0754587 -0.817661 0.466723 
376 2.66835 0.594173 2.77916 0.779061 0 0 0 0.370175 -0.267648 0.787289 
375 2.39585 0.989106 2.70504 0.665023 0 0 0 -0.364339 0.253888 0.190186 
362 2.50173 1.42621 2.86667 0.696429 0 0 0 -0.126954 -0.207804 0.712517 
126 1.54709 0.230959 2.44275 0.669908 0 0 0 0.190615 -0.0431472 -0.289624 
383 3.11738 1.16306 2.83543 0.835522 0 0 0 1.03591 -0.275961 0.893799 
365 2.9694 -0.0926741 2.52754 0.942724 0 0 0 0.964665 -1.11936 0.625869 
374 2.49303 0.362288 2.5845 0.739404 0 0 0 0.163739 -0.518958 0.603547 
367 2.83512 -0.0952148 2.44692 0.894592 0 0 0 0.828568 -1.20573 0.631806 
382 2.46012 0.611973 2.90139 0.779646 0 0 0 0.00277993 -0.0960259 0.70389 
369 2.63777 0.58011 2.64824 0.739166 0 0 0 0.331712 -0.276005 0.688808 
373 2.14105 0.726532 2.45078 0.603868 0 0 0 -0.651299 0.594305 -0.680584 
406 2.09112 2.16897 0.430837 0.611265 0 0 0 -1.06552 -1.43413 0.481072 
386 2.0284 2.99122 0.37105 0.772704 0 0 0 -0.203152 0.499825 -0.469323 
387 2.72329 1.69898 0.609381 0.62061 0 0 0 0.125379 -0.139255 -0.670046 
408 1.85314 2.49566 0.317939 0.670082 0 0 0 -0.440771 -0.94348 0.185405 
389 2.18616 3.05826 0.428309 0.790715 0 0 0 -0.0941006 0.695834 -0.557212 
390 2.98317 1.77901 0.535157 0.70793 0 0 0 0.849914 -0.129268 -0.779546 
391 2.11535 1.83161 0.64848 0.532528 0 0 0 -2.13315 -1.78886 1.75411 
403 2.5459 2.18679 0.119718 0.751349 0 0 0 -0.0754442 -0.411456 -0.815085 
393 2.66093 2.28842 0.183067 0.764201 0 0 0 0.173617 -0.246734 -0.873343 
405 2.78811 3.02173 -0.121109 1.01931 0 0 0 0.448673 0.483323 -0.802748 
395 1.81381 2.31843 0.625906 0.567287 0 0 0 -0.975012 -2.06635 1.31378 
396 2.10804 2.72738 0.663082 0.647388 0 0 0 -0.447568 -0.0233253 -0.398824 
397 2.16783 2.01056 -0.00250708 0.730131 0 0 0 -0.551793 -0.808935 -0.32694 
407 3.03609 2.65996 0.0661392 0.941519 0 0 0 0.752088 0.242113 -0.877938 
399 2.55634 2.07553 0.339482 0.678296 0 0 0 -0.217672 -0.510655 -0.662337 
400 3.03867 3.09633 0.0948075 1.03121 0 0 0 0.703317 0.61564 -0.726263 
404 2.54911 1.82913 0.135102 0.717734 0 0 0 -0.227236 -0.383337 -0.795859 
392 1.64898 1.70197 1.30218 0.313704 0 0 0 -4.39459 -24.5629 61.7607 
347 1.74968 2.58561 1.44171 0.482406 0 0 0 -0.44236 0.909037 -1.16966 
470 3.18033 2.73685 1.51285 0.777331 0 0 0 1.36502 0.545232 -0.283494 
412 2.83895 2.70487 0.904632 0.719794 0 0 0 0.791078 0.476946 -0.695039 
413 2.99686 2.31763 1.18363 0.663644 0 0 0 1.32584 -0.0830966 -0.625406 
414 2.35624 1.78558 1.13988 0.461764 0 0 0 -0.742112 -1.47688 0.0408017 
415 2.1873 1.95171 0.959635 0.482595 0 0 0 -2.1401 -2.22293 1.05726 
416 1.76813 2.56766 1.21183 0.503755 0 0 0 -0.95994 -0.469322 -0.755568 
454 1.96176 3.07035 1.40585 0.634753 0 0 0 -0.18783 1.48751 -0.880988 
427 1.90156 2.97811 1.41373 0.600579 0 0 0 -0.27544 1.393 -1.01348 
419 3.09087 2.31628 1.28366 0.685428 0 0 0 1.47357 -0.0907864 -0.502448 
457 2.18048 2.18526 1.39274 0.445662 0 0 0 0.664387 -0.848617 -0.804455 
411 1.77754 1.4971 1.51758 0.279061 0 0 0 -3.50459 -3.86767 0.148036 
422 2.52327 1.82722 0.892715 0.53417 0 0 0 -0.488509 -0.711639 -0.445573 
423 2.22281 3.17064 1.41836 0.692846 0 0 0 0.211832 1.49872 -0.625274 
424 1.98908 2.69972 0.785545 0.609122 0 0 0 -0.644642 -0.213526 -0.311737 
425 2.52502 2.65947 0.978217 0.634302 0 0 0 0.28496 0.379807 -0.819754 
426 2.16556 2.22827 1.02762 0.500696 0 0 0 -1.39631 -1.51878 -0.24565 
446 2.15404 1.47217 1.43062 0.370647 0 0 0 -0.758299 -2.07813 2.30957 
441 3.15009 2.03261 1.39372 0.670917 0 0 0 1.68531 -0.393173 -0.321679 
429 2.28301 3.01718 0.83094 0.710769 0 0 0 -0.0175298 0.880803 -0.645501 
430 3.24666 2.98694 1.29672 0.866167 0 0 0 1.22318 0.801654 -0.328426 
449 2.29124 2.24049 1.41349 0.472486 0 0 0 0.979823 -0.238213 -1.01198 
388 1.59812 2.19684 1.01815 0.463189 0 0 0 -1.12521 -4.52472 4.55091 
433 2.03728 1.73802 1.21703 0.390804 0 0 0 -3.06219 -5.99422 9.07336 
434 1.60082 2.73668 1.06615 0.558629 0 0 0 -0.646775 -0.104372 -0.507378 
432 2.37388 1.88404 1.34991 0.447539 0 0 0 0.877466 -1.55964 -0.547248 
436 3.01036 2.09203 0.843111 0.681813 0 0 0 1.07792 -0.223404 -0.68841 
437 2.84619 1.57156 0.96614 0.587292 0 0 0 0.941003 0.0775315 -0.585495 
438 2.85549 2.16438 1.42914 0.5892 0 0 0 1.62873 -0.368386 -0.503894 
439 3.06985 3.26361 1.23339 0.897855 0 0 0 0.949552 1.11242 -0.325502 
440 2.10109 2.01539 0.939847 0.48386 0 0 0 -2.34458 -2.61685 1.56005 
458 2.1452 2.40779 1.42054 0.480221 0 0 0 0.45204 0.375909 -1.04743 
464 2.20089 2.07552 1.39204 0.431481 0 0 0 0.776279 -1.57502 -0.489564 
443 2.5877 1.94946 2.09056 0.53552 0 0 0 1.2274 -0.883245 1.0662 
444 2.84859 1.46505 1.86655 0.570206 0 0 0 1.4755 -0.495901 0.741061 
445 2.81527 2.21551 2.12929 0.614387 0 0 0 1.2189 -0.37655 0.618608 
310 1.78293 2.08928 1.76574 0.364645 0 0 0 2.92979 1.76755 -0.104242 
372 1.61022 2.19643 1.81033 0.377706 0 0 0 0.390856 3.5285 0.842838 
296 2.37676 1.99588 1.7502 0.454789 0 0 0 2.73146 -0.912887 0.691382 
471 1.98873 1.90614 1.68087 0.358624 0 0 0 3.68297 -2.27058 -0.855805 
450 2.67999 1.85887 1.96779 0.537545 0 0 0 1.57152 -0.979879 0.850312 
182 1.64285 1.88949 1.64867 0.302926 0 0 0 0.632007 1.14012 2.03374 
452 2.1188 2.90997 1.68517 0.592221 0 0 0 0.466517 1.44555 -0.398895 
453 1.56027 2.45095 2.19981 0.487033 0 0 0 0.354045 0.827459 2.32807 
469 2.08406 1.70843 2.0562 0.431067 0 0 0 0.0260363 -0.35532 -3.089 
343 2.09717 1.70347 1.57754 0.360074 0 0 0 0.921774 -3.60629 0.0492336 
481 2.16302 2.25177 1.79843 0.451735 0 0 0 2.75705 0.771807 1.11108 
467 1.86345 2.6493 1.66668 0.49596 0 0 0 0.528535 1.845 -0.47949 
378 1.78868 2.33534 1.81544 0.420984 0 0 0 1.83519 2.73104 1.3788 
459 3.15663 2.7618 2.17728 0.803689 0 0 0 1.3311 0.599007 0.259744 
277 1.76727 1.99982 1.70693 0.340648 0 0 0 3.00527 0.914923 -1.08498 
461 1.65114 2.97998 1.7122 0.580967 0 0 0 -0.214533 1.91986 -0.769162 
263 1.87894 1.99472 1.72044 0.355843 0 0 0 3.87623 -0.294747 -0.870083 
261 1.68405 1.99278 1.69119 0.3293 0 0 0 1.71217 1.8049 -0.603992 
176 1.90639 1.54435 1.53657 0.311143 0 0 0 -2.1946 -3.76114 0.588536 
465 1.96042 2.96193 1.89533 0.597781 0 0 0 0.44138 1.55929 0.0162155 
466 2.24247 3.2713 1.79524 0.726834 0 0 0 0.419268 1.62691 -0.194178 
319 2.24974 1.91454 1.63878 0.411731 0 0 0 2.91673 -1.83127 0.106624 
478 2.18734 3.04935 2.25826 0.683236 0 0 0 0.539364 1.21413 0.572475 
484 1.90492 2.64751 2.31714 0.56231 0 0 0 0.647537 0.489752 1.45392 
187 2.1303 2.09995 1.70539 0.413708 0 0 0 3.45108 -0.361897 0.630713 
509 3.29296 2.84291 2.26144 0.875194 0 0 0 1.37373 0.653913 0.329601 
488 2.31765 1.87768 1.72535 0.42917 0 0 0 2.78257 -1.52842 0.406006 
492 2.70859 2.30871 2.28735 0.620861 0 0 0 0.893959 -0.213797 0.823937 
494 2.94686 2.34984 2.28063 0.684459 0 0 0 1.18416 -0.127242 0.575901 
504 2.87671 1.9456 2.27657 0.631952 0 0 0 1.10362 -0.739897 0.756509 
199 1.89314 1.96045 1.70229 0.351186 0 0 0 3.89549 -0.926793 -1.12827 
120 1.67258 1.96379 1.67438 0.321487 0 0 0 1.45926 1.53507 -0.007632 
442 2.28183 1.67739 1.7112 0.410209 0 0 0 1.68405 -1.59514 -0.505158 
498 2.04613 1.55965 1.9778 0.409443 0 0 0 -0.910706 1.08487 -7.14682 
487 1.91916 2.03369 2.33112 0.488955 0 0 0 0.0326393 -0.698227 0.224886 
209 2.03145 1.7059 1.5911 0.345966 0 0 0 0.866173 -3.84909 -0.484587 
36 2.10178 2.14084 1.72251 0.416343 0 0 0 3.40663 0.0971603 0.774111 
191 1.67811 1.96819 1.67706 0.323023 0 0 0 1.57668 1.52192 -0.149726 
417 2.33714 2.53507 1.7657 0.533533 0 0 0 1.3001 0.973361 0.259031 
451 2.99114 2.22371 1.53029 0.63345 0 0 0 1.65107 -0.275933 -0.312236 
259 1.58512 1.88707 1.64908 0.297929 0 0 0 -0.810534 2.34881 2.43843 
463 1.58447 1.95968 1.66739 0.313833 0 0 0 -0.644118 2.58972 1.31831 
307 1.54446 1.74374 1.60345 0.263562 0 0 0 -2.47002 3.24067 0.806578 
220 1.54373 1.74204 1.60278 0.263122 0 0 0 -2.49439 3.24082 0.763035 
496 2.03147 2.50601 2.78624 0.657584 0 0 0 0.0310462 -0.181218 1.52989 
472 2.0747 1.79642 2.63684 0.574764 0 0 0 -0.779214 -0.595596 -0.0763786 
473 1.75625 1.5959 2.58877 0.549215 0 0 0 -1.17771 0.121217 -2.34782 
474 2.95854 3.17647 2.68346 0.934252 0 0 0 0.901268 1.04183 0.755756 
497 1.61663 1.94128 2.57965 0.539007 0 0 0 -0.635584 -1.02515 -0.520609 
502 2.22662 2.57159 2.71503 0.667083 0 0 0 0.220397 0.0468191 1.38664 
477 3.17713 2.0138 2.59479 0.781977 0 0 0 1.29712 -0.453759 0.857125 
513 2.63016 3.02979 3.05944 0.919995 0 0 0 0.557671 0.805128 1.277 
479 1.80985 1.75127 2.417 0.498561 0 0 0 -1.15682 -0.356607 -2.63218 
501 1.6536 2.45381 3.00117 0.698248 0 0 0 -0.144853 -0.376348 1.73339 
503 2.03372 3.1535 2.47845 0.734324 0 0 0 0.328416 1.26102 0.84939 
482 1.57532 3.16057 3.12964 0.875847 0 0 0 0.0454331 0.862649 1.49568 
511 3.00814 2.13234 2.41307 0.70201 0 0 0 1.18574 -0.463517 0.754329 
510 2.10249 2.54653 2.61071 0.62352 0 0 0 0.225986 -0.0462932 1.38352 
508 2.62305 1.96044 3.05692 0.772119 0 0 0 0.282784 -0.409104 1.38037 
505 3.15567 2.91939 3.22206 1.06051 0 0 0 0.887147 0.587057 1.13087 
499 1.80691 1.78436 2.91322 0.645105 0 0 0 -0.705529 -0.515542 0.136799 
495 2.94831 1.72933 2.79659 0.75814 0 0 0 0.827137 -0.506837 1.07248 
489 3.12957 1.50361 3.00017 0.868008 0 0 0 0.959273 -0.3348 1.04646 
490 2.37284 2.40854 2.58346 0.629825 0 0 0 0.304742 -0.181173 1.22528 
491 2.27434 1.49882 2.74564 0.629949 0 0 0 -0.618187 -0.160349 0.104056 
506 1.97648 2.06883 3.04671 0.700277 0 0 0 -0.385143 -0.559221 1.2141 
493 3.07267 3.01074 2.79147 0.943092 0 0 0 1.00008 0.817251 0.886015 
480 2.35966 2.25058 2.39424 0.569218 0 0 0 0.406855 -0.387132 1.22442 
ITEM: TIMESTEP
800982
ITEM: NUMBER OF ATOMS
512
ITEM: BOX BOUNDS ss ss ss
-2.2775349561678951e-01 3.2932607586404616e+00
-4.0122540508749138e-01 3.2891132425832117e+00
-1.7039273299291779e-01 3.2223573019164853e+00
ITEM: ATOMS id x y z width_SPH x_COM y_COM z_COM vx vy vz 
23 0.539286 1.16104 0.372782 0.613015 0 0 0 0.633791 -0.0976524 -0.569988 
3 -0.140328 -0.124432 0.093975 1.0357 0 0 0 -1.01066 -0.934134 -0.881351 
4 1.1215 0.71024 0.265511 0.622553 0 0 0 0.00935888 0.209774 -1.02935 
5 0.225459 1.27088 -0.0394001 0.782509 0 0 0 -0.197427 -0.301973 -0.966506 
6 0.0115273 1.14394 0.37696 0.727351 0 0 0 -0.762224 -0.268022 -0.705391 
22 0.128622 1.05029 0.0596013 0.785116 0 0 0 -0.507386 -0.424313 -0.970669 
8 0.686461 0.733455 -0.0391944 0.747513 0 0 0 0.0953291 -0.433151 -1.18305 
9 1.3567 -0.241852 0.263493 0.804204 0 0 0 -0.298897 -1.18641 -1.40896 
10 -0.0863148 -0.263404 0.026046 1.0737 0 0 0 -0.931974 -0.985734 -0.901911 
11 0.920705 1.15036 -0.0285248 0.696436 0 0 0 0.752232 -0.165348 -0.435106 
12 0.461886 1.343 0.164185 0.674423 0 0 0 0.502727 -0.204174 -0.606951 
13 0.27863 -0.299307 0.200453 0.957905 0 0 0 -0.806306 -1.14364 -1.01852 
14 0.972037 1.22081 0.390068 0.568523 0 0 0 1.27038 0.142476 0.812729 
15 1.08249 0.66997 0.304809 0.617964 0 0 0 -0.0679054 0.142883 -1.16072 
16 0.612758 -0.235826 0.244742 0.869624 0 0 0 -0.630662 -1.16659 -1.20389 
17 0.87827 0.253889 0.00523081 0.78318 0 0 0 -0.298612 -0.660965 -1.49785 
18 0.562191 0.565604 0.356094 0.673121 0 0 0 -0.327159 -0.544904 -1.23564 
274 1.4895 1.31441 0.568082 0.508709 0 0 0 -0.206603 -0.281932 4.84899 
20 0.679389 0.94068 0.297782 0.628463 0 0 0 0.463987 -0.143629 -0.766459 
62 1.19143 1.02676 0.635984 0.499498 0 0 0 0.00572664 0.577709 1.3785 
50 0.549988 -0.381029 0.627224 0.850632 0 0 0 -0.738661 -1.36615 -0.85649 
31 -0.066697 1.19079 0.657986 0.69483 0 0 0 -0.9999 -0.0999513 -0.584643 
44 0.384567 0.857337 0.611347 0.611979 0 0 0 -0.317971 -0.373755 -1.12027 
24 1.01877 -0.213782 1.39568 0.679354 0 0 0 -0.12399 -1.69285 0.603273 
353 1.43469 1.07795 1.35086 0.306617 0 0 0 -0.477941 -3.56891 0.63616 
26 -0.135935 1.02548 1.49494 0.658913 0 0 0 -1.52793 0.0880276 0.0612307 
27 0.398738 1.14913 0.832391 0.54623 0 0 0 -0.092986 0.0261869 -1.24835 
28 0.947157 0.225 1.38726 0.550773 0 0 0 -0.881523 -1.47364 0.742554 
91 0.800643 1.12867 1.21354 0.410233 0 0 0 -0.998739 -0.848633 -0.341454 
303 1.47401 1.06097 1.34497 0.308978 0 0 0 0.971352 -3.79478 0.771055 
65 0.669835 0.471784 1.33838 0.530129 0 0 0 -1.15562 -1.29715 0.0919575 
32 0.390327 -0.347396 1.28432 0.809109 0 0 0 -0.778103 -1.47595 -0.132806 
33 0.747583 -0.211897 1.15272 0.709653 0 0 0 -0.59949 -1.55106 -0.195156 
173 0.936222 0.960757 1.29479 0.396883 0 0 0 -3.46731 -1.14491 -0.811009 
35 1.49751 0.0185861 0.818714 0.616275 0 0 0 -0.421806 -1.4179 -1.15816 
21 1.50709 1.44184 1.49138 0.220516 0 0 0 0.24471 1.59278 0.623129 
154 1.32469 1.31545 1.43484 0.268891 0 0 0 1.65043 2.35742 -4.9628 
38 0.219853 1.02869 0.800812 0.601114 0 0 0 -0.640087 -0.169668 -1.01706 
39 -0.227456 0.894409 1.43968 0.703332 0 0 0 -1.58737 -0.0297064 -0.0849073 
2 1.14968 0.675243 1.21354 0.426025 0 0 0 -4.14292 -2.31409 -1.38037 
351 0.859146 1.19146 1.32514 0.381097 0 0 0 -0.728049 -0.464207 0.443756 
42 0.799968 1.37177 1.32996 0.382827 0 0 0 0.818942 -0.146268 1.05491 
195 1.40658 0.799875 1.18838 0.381448 0 0 0 -2.14158 -3.62159 -0.893431 
318 1.4922 1.06871 1.34922 0.306649 0 0 0 1.8013 -3.84473 0.633176 
45 0.998555 0.224031 1.32982 0.545672 0 0 0 -1.04173 -1.56828 0.537134 
46 0.610448 0.267938 0.790685 0.635116 0 0 0 -0.974954 -0.8941 -1.36007 
47 1.21212 0.915316 0.835748 0.454217 0 0 0 -1.73105 -0.485215 0.987973 
48 0.526621 0.788822 1.37475 0.498782 0 0 0 -1.05291 -1.06537 0.0363286 
250 1.49187 1.08594 1.35641 0.302456 0 0 0 1.96534 -3.83484 0.345552 
79 1.49623 1.36941 1.46082 0.233519 0 0 0 3.64257 0.758132 0.552157 
51 0.476674 1.30496 0.949274 0.506038 0 0 0 0.169102 0.22164 -1.33578 
52 1.29203 0.226356 1.31754 0.525363 0 0 0 -0.907453 -1.9114 0.784911 
53 -0.0398829 0.626633 1.25892 0.678803 0 0 0 -1.45044 -0.441296 -0.414639 
54 1.02301 -0.400928 1.42876 0.747459 0 0 0 0.00505053 -1.74379 0.513754 
385 1.48525 1.28967 1.43147 0.252412 0 0 0 3.42413 -2.10599 0.492282 
56 1.27652 0.103595 1.02254 0.574014 0 0 0 -0.869696 -1.66904 -0.734843 
178 0.995024 1.43603 1.45857 0.329986 0 0 0 2.91029 1.35589 0.624063 
115 1.50525 1.15042 1.37639 0.287017 0 0 0 3.09586 -4.38399 0.77838 
59 0.618219 0.602604 1.24067 0.51739 0 0 0 -1.31682 -1.26836 -0.596058 
124 1.46275 1.03846 1.3335 0.31495 0 0 0 0.30798 -3.7935 1.08129 
306 1.50773 -0.285862 0.765566 0.723845 0 0 0 -0.127726 -1.6043 -0.682439 
64 0.863756 -0.339053 1.3046 0.736468 0 0 0 -0.275673 -1.69422 0.221021 
119 1.46934 1.29804 1.43364 0.251084 0 0 0 3.24192 -1.66951 0.901863 
313 1.06026 1.33633 1.41901 0.322543 0 0 0 1.09845 0.947023 2.21127 
149 1.36226 1.21564 1.35164 0.287128 0 0 0 -1.32931 -1.55544 -0.80521 
179 1.27092 0.655448 1.19794 0.420359 0 0 0 -3.49664 -2.75728 -1.57717 
106 1.48398 1.28129 1.42805 0.25453 0 0 0 3.33244 -2.41669 0.65473 
322 1.48977 1.08076 1.35422 0.30375 0 0 0 1.82433 -3.82921 0.433217 
19 1.48534 0.42385 1.00494 0.484893 0 0 0 -0.852811 -1.86256 -1.91701 
512 1.49418 1.3562 1.4562 0.236441 0 0 0 3.67152 0.312212 0.4692 
301 0.930609 1.30713 1.40803 0.352103 0 0 0 0.844332 0.695918 0.473275 
214 1.39941 0.983959 1.30052 0.332293 0 0 0 -2.34859 -3.6649 1.32709 
77 0.453288 1.43621 1.29507 0.467503 0 0 0 -0.729892 0.322761 -0.756551 
358 0.802633 1.13455 1.1541 0.418094 0 0 0 -0.81164 -0.815751 -0.34111 
81 0.658634 0.594059 1.15419 0.517895 0 0 0 -1.43276 -1.24587 -1.06385 
71 0.654126 1.22741 1.34848 0.421632 0 0 0 -0.472651 -0.274585 -0.36684 
329 0.872552 1.19711 1.34631 0.376297 0 0 0 -0.664066 -0.284481 0.350747 
57 1.51229 0.644707 1.1874 0.41243 0 0 0 -0.122512 -3.05671 -1.62639 
122 1.21656 0.673194 1.20291 0.420712 0 0 0 -3.981 -2.58501 -1.52534 
74 0.974805 0.845292 1.26176 0.411887 0 0 0 -4.06664 -1.59232 -1.05773 
228 1.1961 1.41564 1.46551 0.285851 0 0 0 3.66145 1.6932 2.54497 
198 0.988601 1.43717 1.45868 0.331366 0 0 0 2.87834 1.2571 0.754267 
165 1.3282 0.926636 1.25837 0.353437 0 0 0 -4.30446 -3.50954 0.956272 
101 1.00028 1.23476 1.37484 0.345701 0 0 0 -1.0082 0.365233 1.16489 
82 0.914215 0.731784 1.19891 0.446423 0 0 0 -3.04126 -1.67024 -1.19381 
229 1.43794 1.01784 1.32157 0.321263 0 0 0 -0.817462 -3.73945 1.25742 
66 0.077914 -0.209391 2.31731 0.901787 0 0 0 -0.687963 -1.05208 0.580833 
67 0.896591 0.389783 1.98979 0.568993 0 0 0 0.535175 -0.087421 0.637811 
68 1.03629 0.89786 1.78785 0.431442 0 0 0 0.893003 2.9862 -4.25737 
95 0.398485 -0.0109014 2.10984 0.741994 0 0 0 -0.249936 -0.999985 0.679922 
70 0.431861 1.36488 2.12842 0.534681 0 0 0 0.501942 -0.11396 0.726946 
88 0.0603626 0.335405 2.25425 0.754694 0 0 0 -0.78591 -0.437363 0.780301 
55 0.179154 0.110083 1.56622 0.715516 0 0 0 -0.990367 -1.03048 0.129734 
63 0.0686991 1.42391 1.57716 0.574448 0 0 0 -1.32731 0.122357 0.333589 
87 -0.124824 0.602197 1.97093 0.726215 0 0 0 -1.23339 -0.227809 0.586441 
75 0.134231 1.38274 2.08425 0.597902 0 0 0 -0.600582 -0.111099 0.927897 
86 1.52819 0.494281 1.73489 0.483928 0 0 0 0.0889505 0.601363 0.00432064 
90 0.772493 1.18916 2.00601 0.46751 0 0 0 2.16493 1.08643 -1.69318 
78 0.397217 -0.00262907 2.21456 0.755241 0 0 0 -0.216499 -0.931591 0.705687 
113 0.978001 1.36 2.06099 0.43992 0 0 0 2.96967 2.54517 -6.73451 
93 0.811339 0.804861 2.0233 0.511044 0 0 0 1.24664 0.892038 -0.29059 
92 0.38802 0.389795 1.87057 0.619935 0 0 0 -0.311902 -0.630197 0.888686 
108 1.18119 0.815742 2.12937 0.500497 0 0 0 1.03676 2.73472 -3.26142 
83 0.717762 1.15514 1.91969 0.462905 0 0 0 1.76404 0.737025 -0.78675 
84 0.247414 0.062237 2.16075 0.758664 0 0 0 -0.490201 -0.85755 0.680794 
96 1.42755 0.8393 1.8915 0.437825 0 0 0 0.311001 5.24123 -7.87338 
127 1.45838 0.642883 2.04465 0.504505 0 0 0 0.179334 2.32783 -2.51016 
34 -0.00994941 0.530522 1.66397 0.680597 0 0 0 -1.25689 -0.447006 0.29241 
60 0.61672 0.958431 1.89369 0.496539 0 0 0 0.906045 0.1864 0.694822 
25 1.06931 0.28278 1.6188 0.537637 0 0 0 -0.332337 -0.974 1.42412 
76 0.5695 0.905027 1.57236 0.476952 0 0 0 -0.410873 -0.726924 0.959417 
94 0.548014 0.812211 1.57409 0.49466 0 0 0 -0.474161 -0.799152 1.01573 
37 0.451647 1.06436 1.55401 0.483797 0 0 0 -0.715204 -0.372699 0.801557 
49 -0.225093 0.992379 1.53528 0.693612 0 0 0 -1.56995 0.0719909 0.0721443 
125 1.09267 1.35856 2.31577 0.494747 0 0 0 1.87396 1.87921 -4.76178 
370 1.52837 0.876186 2.34622 0.535459 0 0 0 -0.11408 2.66181 -3.73602 
121 1.2299 0.0557181 2.56175 0.739896 0 0 0 0.420623 -0.463431 0.188909 
97 0.741254 0.963634 2.6719 0.641807 0 0 0 0.791083 0.76951 -0.0276549 
98 0.311901 1.033 2.82434 0.738883 0 0 0 -0.0618697 0.189118 0.942209 
99 0.716606 0.0242844 2.58279 0.779045 0 0 0 0.23814 -0.650585 0.65158 
100 0.647803 0.403616 2.84607 0.773451 0 0 0 0.218141 0.0516011 0.748544 
128 0.383363 1.44118 2.49723 0.615765 0 0 0 0.291509 -0.114643 0.746921 
131 0.549717 1.23793 2.93584 0.721723 0 0 0 0.375437 0.238879 0.767565 
103 1.03332 0.516066 2.74005 0.695682 0 0 0 0.557476 0.579622 -0.00873953 
130 1.37066 0.465209 2.56845 0.65114 0 0 0 0.363687 0.736508 -0.682333 
114 1.06694 0.880376 2.58087 0.60421 0 0 0 0.894358 1.4752 -1.26371 
129 0.508149 0.0503804 3.07878 0.938567 0 0 0 -0.0943947 -0.452569 0.926433 
116 -0.0918036 0.828692 2.48471 0.768907 0 0 0 -0.926296 -0.00656128 0.912686 
117 -0.112808 0.373906 2.52757 0.849198 0 0 0 -0.96399 -0.312895 0.858358 
109 0.427185 0.944433 3.03849 0.793868 0 0 0 0.0459946 0.256789 0.963247 
110 0.486302 -0.255056 2.78202 0.938171 0 0 0 -0.12155 -0.93664 0.764152 
123 1.28799 1.23656 2.37885 0.511355 0 0 0 0.834495 2.64144 -5.32609 
112 1.16532 0.424951 2.80165 0.724467 0 0 0 0.467831 0.431167 0.0413213 
162 0.457142 2.5951 0.566884 0.691736 0 0 0 -0.19898 0.795879 -0.433696 
132 0.66222 2.53027 0.217891 0.732798 0 0 0 0.175165 0.271941 -0.335463 
133 0.0922407 1.78605 0.558715 0.665837 0 0 0 -0.455909 0.139875 -0.504161 
134 0.162153 2.01557 0.242431 0.736259 0 0 0 -0.340432 0.197172 -0.589831 
135 1.32373 2.40948 0.446199 0.616066 0 0 0 0.357549 -1.41328 1.05042 
136 1.10481 2.57107 0.555834 0.622616 0 0 0 0.397434 -0.469658 0.464798 
137 0.0490375 2.5059 0.614627 0.758154 0 0 0 -0.885997 0.864012 -0.494779 
138 0.513595 2.21214 0.0647115 0.745661 0 0 0 0.264212 0.00927708 -0.511832 
139 0.291598 2.24804 0.292716 0.722671 0 0 0 -0.186686 0.334734 -0.526093 
140 0.883335 2.73443 0.162877 0.770975 0 0 0 0.129497 0.361208 -0.290008 
141 -0.043915 2.3866 0.160642 0.86376 0 0 0 -0.835633 0.588506 -0.612649 
142 1.45321 2.54109 0.575778 0.605432 0 0 0 -0.0152749 -1.15817 0.848437 
143 1.27571 2.91643 0.597735 0.687648 0 0 0 -0.0928376 0.533058 -0.00197284 
160 0.794612 3.07601 0.428215 0.804012 0 0 0 -0.207692 1.16477 -0.290254 
145 0.495421 2.00223 0.01394 0.74095 0 0 0 0.384894 -0.140986 -0.551353 
146 1.33715 2.00137 0.34105 0.601082 0 0 0 0.65443 -2.1093 2.10555 
147 0.766196 1.82077 0.226307 0.636295 0 0 0 1.1953 -0.680016 0.317607 
148 1.26681 3.02295 0.252031 0.79905 0 0 0 -0.0618164 0.640641 -0.23334 
156 0.0923356 1.95726 0.419737 0.705678 0 0 0 -0.503523 0.220003 -0.51431 
150 1.0832 1.84154 0.51401 0.549523 0 0 0 1.65376 -2.03897 2.64029 
155 0.802649 1.62672 0.139302 0.650624 0 0 0 1.20365 -0.52389 0.232129 
161 1.3747 2.00684 0.411127 0.582787 0 0 0 0.554473 -2.40397 2.53745 
159 0.0392298 1.48546 -0.0352883 0.821636 0 0 0 -0.532881 -0.159718 -0.89108 
170 1.13968 2.09624 1.09395 0.440551 0 0 0 1.46606 -3.77865 4.57871 
163 0.512819 2.85755 0.715427 0.721363 0 0 0 -0.362553 1.26009 -0.434133 
202 0.614151 2.0095 1.00203 0.503112 0 0 0 1.10002 -0.139525 -1.05798 
167 0.867401 1.79174 1.05682 0.436403 0 0 0 2.56083 -1.83459 2.56778 
225 1.49735 1.51636 1.51443 0.217519 0 0 0 -0.855054 -0.817121 -0.886053 
169 0.925711 1.73867 1.43071 0.356737 0 0 0 1.84679 -1.94821 4.92858 
201 -0.0238958 2.74169 0.921928 0.787359 0 0 0 -1.10162 1.15804 -0.493649 
171 0.3448 1.88397 1.31499 0.510871 0 0 0 -0.752084 0.282539 -1.14345 
183 1.05569 1.45292 1.46249 0.315992 0 0 0 3.41765 1.60688 1.20729 
30 0.792088 1.64482 1.51741 0.376353 0 0 0 1.02637 0.0813731 0.162074 
174 0.20688 1.77876 1.03603 0.567113 0 0 0 -0.476498 0.230797 -1.02289 
210 1.50148 1.47892 1.50125 0.217349 0 0 0 0.564965 0.987298 0.144824 
157 1.18863 2.27084 1.02742 0.478471 0 0 0 0.927585 -2.54604 1.9787 
152 1.07997 2.08941 0.712462 0.523344 0 0 0 1.53882 -2.43134 2.37595 
314 1.50113 1.48138 1.50212 0.217251 0 0 0 0.470171 0.863317 0.0408578 
197 0.074843 2.23525 1.08021 0.643442 0 0 0 -1.00237 0.595566 -0.809898 
180 0.421876 2.02562 1.49853 0.493812 0 0 0 -1.13645 0.33942 -0.72773 
181 0.627687 2.08579 1.41777 0.456516 0 0 0 -0.46677 0.710707 -1.41782 
428 1.18669 2.56475 1.42784 0.483301 0 0 0 -0.598193 1.1833 -1.62201 
410 1.4991 1.48774 1.50438 0.217078 0 0 0 0.802355 0.610368 -0.0301985 
184 0.816888 2.82806 1.23688 0.60367 0 0 0 -0.226956 1.5711 -1.11908 
460 1.49413 1.50152 1.50837 0.217104 0 0 0 -0.273589 -0.0790125 -0.506819 
186 0.975643 2.81774 1.04021 0.60602 0 0 0 -0.0236908 1.00237 -0.639707 
196 0.570966 1.70122 1.47318 0.43214 0 0 0 -0.55364 0.191688 -0.178861 
188 0.309626 2.5385 1.32084 0.613258 0 0 0 -0.883873 1.28405 -1.11731 
200 0.952341 2.70818 1.14964 0.565976 0 0 0 0.0652682 0.959645 -1.03809 
190 0.811564 1.85976 1.03819 0.453607 0 0 0 2.2128 -1.24134 0.978935 
166 0.578322 1.64115 0.820063 0.51415 0 0 0 1.3796 -0.126793 -0.491427 
192 0.613365 2.06273 1.28737 0.468807 0 0 0 0.152277 0.52264 -1.66709 
193 1.11512 2.50091 1.38662 0.476142 0 0 0 -0.418152 0.868637 -1.5248 
203 1.49709 1.53529 1.52114 0.218903 0 0 0 -1.53168 -1.18379 -1.05379 
208 1.50103 1.48233 1.50246 0.217217 0 0 0 0.44394 0.811099 0.00749159 
41 1.49969 1.49087 1.50544 0.217017 0 0 0 0.111319 0.317897 -0.331984 
342 1.4981 1.50466 1.51029 0.217087 0 0 0 -0.412898 -0.392132 -0.697461 
164 1.49914 1.49496 1.50687 0.216988 0 0 0 -0.0433853 0.0847699 -0.461972 
40 1.49907 1.4955 1.50707 0.216987 0 0 0 -0.0641046 0.0549035 -0.477756 
219 1.49839 1.50152 1.50918 0.217029 0 0 0 -0.293221 -0.250507 -0.630825 
73 1.49776 1.50903 1.51184 0.217209 0 0 0 -0.578856 -0.569327 -0.777753 
43 0.805601 1.44796 1.37081 0.376498 0 0 0 1.30554 -0.024527 1.2789 
418 1.50719 1.47294 1.49917 0.217692 0 0 0 -0.374798 0.847926 0.0279762 
158 1.23226 1.8044 1.11313 0.389196 0 0 0 1.38735 -9.68897 21.2875 
394 1.50446 1.487 1.49865 0.217129 0 0 0 -0.30715 0.643523 -1.04065 
107 1.49844 1.45725 1.49537 0.218851 0 0 0 1.73308 1.28151 2.58925 
215 0.540873 2.16283 1.63005 0.479713 0 0 0 -1.42844 0.603979 -0.340462 
447 1.39749 2.80307 2.23838 0.567394 0 0 0 -0.109944 1.23069 1.24135 
205 0.0357118 1.958 2.06486 0.630638 0 0 0 -1.35401 -0.385491 0.701829 
206 1.02526 2.47209 2.29806 0.52608 0 0 0 -0.784627 0.0757861 2.24094 
207 0.438848 2.84841 1.72196 0.648681 0 0 0 -0.970143 1.70348 -0.719297 
257 1.1462 1.73854 1.5693 0.308093 0 0 0 0.151223 1.36662 0.791608 
194 0.555395 1.94539 1.63956 0.452293 0 0 0 -1.32451 0.0738159 0.248954 
235 1.21548 2.18612 2.35238 0.49366 0 0 0 -0.515752 -1.03702 1.78986 
211 0.956351 2.92221 2.05614 0.605034 0 0 0 -0.719788 1.80984 0.0663268 
212 0.453132 2.60916 1.67387 0.582914 0 0 0 -1.16158 1.49544 -0.741542 
213 0.821559 1.77282 1.80143 0.397828 0 0 0 -0.215205 0.0121647 -1.252 
242 0.400462 2.35909 2.29194 0.595598 0 0 0 -1.03597 -0.27233 1.19629 
231 0.848344 2.32006 2.12815 0.491557 0 0 0 -1.46649 0.00074086 2.18594 
216 1.16683 2.94849 2.0896 0.599368 0 0 0 -0.547764 1.81478 0.24551 
217 0.343204 2.85138 1.83538 0.671172 0 0 0 -1.07812 1.48817 -0.520571 
218 0.188135 2.60236 1.94756 0.653437 0 0 0 -1.42613 0.765569 -0.0978968 
468 0.852823 2.30966 1.85529 0.453563 0 0 0 -2.1999 1.12482 0.887576 
204 0.982446 2.13674 1.79705 0.40018 0 0 0 -3.11397 1.07113 0.489733 
221 0.781366 2.16855 1.99554 0.461677 0 0 0 -1.81782 -0.142129 1.89157 
222 0.87465 2.13024 1.82114 0.418687 0 0 0 -2.5225 0.608021 0.876315 
223 0.648262 1.75377 1.7334 0.42543 0 0 0 -0.647255 -0.244301 0.582318 
246 1.14636 1.78049 1.58 0.313137 0 0 0 -0.96512 1.31974 0.383748 
104 0.233991 1.55829 2.31381 0.605701 0 0 0 -0.273963 -0.332354 0.943825 
226 1.33009 3.06354 2.06162 0.626229 0 0 0 -0.383251 1.88234 0.0383603 
227 0.147303 1.58649 2.08044 0.590156 0 0 0 -0.738999 -0.33381 0.957701 
234 1.08919 1.77501 1.65728 0.32788 0 0 0 -0.110878 5.13791 -13.7882 
238 1.01266 1.72345 1.58265 0.333681 0 0 0 1.23757 1.37743 -3.74667 
321 1.32126 2.33261 1.84131 0.409753 0 0 0 -2.19712 3.09489 1.05823 
475 0.852229 2.20785 1.83084 0.434528 0 0 0 -2.39334 0.831142 0.936038 
476 1.236 2.27058 2.30391 0.488503 0 0 0 -0.6701 -0.59178 2.29734 
189 0.782457 2.23929 1.56137 0.444168 0 0 0 -1.2252 1.24326 -1.1248 
239 1.34951 1.89791 1.62616 0.304186 0 0 0 -5.24256 3.48682 3.25104 
328 1.239 2.61189 1.80516 0.480289 0 0 0 -1.13667 2.5566 -0.289715 
185 0.02964 2.45809 1.54539 0.667552 0 0 0 -1.48895 0.759406 -0.529476 
337 1.08117 2.12647 1.79494 0.384858 0 0 0 -3.7195 1.54274 0.134501 
462 1.49401 3.28882 1.96819 0.696855 0 0 0 -0.327519 1.9614 -0.252649 
168 1.33187 1.85861 1.63155 0.298784 0 0 0 -4.91567 3.88091 2.86725 
247 1.21227 2.26016 1.82707 0.399113 0 0 0 -3.19411 2.60094 0.841902 
177 1.34233 2.09073 1.75652 0.35018 0 0 0 -4.10413 3.77392 -1.22949 
485 1.5067 2.80876 2.33205 0.58372 0 0 0 0.0957269 0.929002 1.38009 
264 1.3721 2.2453 1.827 0.387488 0 0 0 -2.45621 3.42763 0.951649 
69 1.4045 2.22361 1.82304 0.381679 0 0 0 -2.28868 3.58824 0.832454 
483 1.42127 2.31224 1.83497 0.402121 0 0 0 -1.57741 3.46077 1.19426 
350 1.439 2.29198 1.83174 0.397128 0 0 0 -1.51882 3.54181 1.19899 
249 0.810741 1.71806 2.34598 0.511764 0 0 0 1.12857 -0.642094 -0.195658 
420 1.11137 1.94425 1.68019 0.344427 0 0 0 -3.58154 1.60294 -2.54948 
240 1.4289 1.99381 1.67738 0.320757 0 0 0 -4.04905 3.95809 0.323761 
300 1.51917 1.67207 1.57346 0.245251 0 0 0 -3.20693 2.2413 -0.654865 
398 1.51864 1.67007 1.57264 0.244757 0 0 0 -3.21533 2.19075 -0.696853 
29 0.0998278 1.58839 1.57877 0.564952 0 0 0 -1.34129 0.0104415 0.251702 
224 1.11369 1.66991 1.54005 0.30784 0 0 0 2.25702 1.35887 0.489272 
111 0.951806 1.52523 1.75501 0.365734 0 0 0 2.94898 3.99112 -11.4175 
105 1.42239 1.7449 1.56871 0.264088 0 0 0 -3.21231 2.29613 8.89093 
172 1.02342 1.85688 1.56822 0.344258 0 0 0 -0.614827 -1.55384 3.58445 
153 1.36635 1.72335 1.67666 0.280184 0 0 0 -1.66263 12.4705 -21.7874 
341 1.49773 1.55245 1.52725 0.220826 0 0 0 -2.06949 -1.20888 -1.11598 
144 1.49737 1.55543 1.52765 0.221191 0 0 0 -2.02482 -1.23653 -0.917476 
332 1.49424 1.56548 1.53147 0.222689 0 0 0 -0.540044 -0.877927 -0.942631 
486 1.5315 1.94567 2.1528 0.420412 0 0 0 -0.552507 0.806635 -5.18608 
336 1.53234 1.71296 1.59081 0.255617 0 0 0 -2.86211 3.06752 0.0557067 
80 1.4976 1.55014 1.52642 0.220533 0 0 0 -2.00225 -1.22085 -1.11102 
232 0.492161 2.02195 2.69548 0.64261 0 0 0 -0.0745524 -0.804798 1.41708 
233 0.819152 1.89518 2.82464 0.638635 0 0 0 0.440492 -0.774788 1.02629 
255 -0.0545551 2.84034 2.49112 0.830805 0 0 0 -1.33128 0.662497 0.395599 
266 0.366654 1.98499 2.58794 0.636922 0 0 0 -0.320955 -0.749401 1.30896 
236 1.10598 2.61864 2.76414 0.651239 0 0 0 -0.0563284 -0.167822 1.86496 
237 0.373431 2.44496 2.4469 0.637517 0 0 0 -0.879452 -0.195094 1.14202 
262 0.719178 1.67966 2.53177 0.568063 0 0 0 0.926255 -0.484219 0.33919 
254 0.214177 2.73861 3.11696 0.891495 0 0 0 -0.712479 0.273398 1.45051 
118 0.0283943 1.48111 2.6882 0.743107 0 0 0 -0.653587 -0.166582 1.01435 
241 0.939423 2.12978 3.11426 0.728297 0 0 0 0.13785 -0.661527 1.54261 
265 0.0329575 3.01139 2.61218 0.868522 0 0 0 -1.12544 0.909763 0.525483 
243 0.55965 3.01397 2.64266 0.760243 0 0 0 -0.508848 1.00279 0.858374 
244 -0.0538441 3.17008 2.96979 1.01469 0 0 0 -0.989226 0.906803 0.85332 
245 1.25688 2.18075 2.86042 0.631952 0 0 0 -0.045406 -0.976665 1.37669 
256 0.0639236 2.93295 2.98771 0.92831 0 0 0 -0.938699 0.617745 1.10111 
260 -0.0684597 2.86215 2.72929 0.88498 0 0 0 -1.22646 0.592823 0.73688 
248 0.535508 2.66342 2.98131 0.774498 0 0 0 -0.34259 0.0705735 1.64874 
507 1.514 2.78544 2.91086 0.71764 0 0 0 0.00160386 0.241192 1.77999 
258 0.563516 2.96535 3.08817 0.865751 0 0 0 -0.344531 0.623049 1.47813 
251 0.511305 2.47669 2.63315 0.654783 0 0 0 -0.499793 -0.285977 1.47389 
252 -0.111921 2.39186 2.39214 0.75658 0 0 0 -1.48801 -0.0397616 0.500069 
253 1.04036 3.18639 2.78128 0.794804 0 0 0 -0.146952 1.14523 1.12597 
267 1.82892 0.385598 0.477781 0.596852 0 0 0 -0.154229 -0.0364194 -2.08402 
268 2.77883 0.405527 0.286065 0.786131 0 0 0 1.25567 -0.459813 -1.24518 
269 2.2067 0.0402876 -0.170096 0.890931 0 0 0 0.374262 -0.769616 -1.63992 
270 2.56706 0.0594594 -0.0701712 0.91177 0 0 0 0.827071 -0.801588 -1.41336 
291 2.17938 0.517071 -0.0151448 0.745446 0 0 0 0.104545 -0.0265111 -1.80515 
272 2.88249 0.826455 0.434377 0.720699 0 0 0 1.24072 0.0309689 -1.11999 
273 1.72709 1.05678 0.271323 0.594022 0 0 0 -0.639115 0.752342 0.272411 
295 2.1713 1.36023 0.380862 0.583848 0 0 0 -1.32071 0.22561 0.267941 
275 2.66357 -0.0269315 -0.00181619 0.933267 0 0 0 0.95208 -0.903044 -1.25185 
276 1.80978 0.075249 0.0483215 0.778948 0 0 0 -0.0838288 -0.687911 -1.77598 
294 1.7398 1.32132 0.468051 0.539316 0 0 0 -1.13501 0.0486525 2.8823 
278 1.84913 0.118939 -0.0193102 0.792008 0 0 0 -0.0537305 -0.613859 -1.7987 
279 2.175 0.767303 0.422034 0.586647 0 0 0 -0.127555 0.711324 -1.57241 
290 2.36632 1.24236 0.156961 0.668461 0 0 0 -0.466669 0.307247 -0.928696 
281 2.44926 1.10437 0.372458 0.618622 0 0 0 -0.226713 0.581783 -1.09595 
289 2.44023 0.7443 0.53965 0.597763 0 0 0 0.576947 0.387542 -1.48425 
292 2.33956 0.902122 0.628317 0.547957 0 0 0 0.151952 0.787028 -1.36184 
284 1.63517 0.788281 0.385012 0.570139 0 0 0 -0.50941 0.940158 -0.962229 
285 2.84963 1.17716 0.0625937 0.791308 0 0 0 0.715078 0.0555131 -1.2482 
286 1.78723 0.48572 0.444942 0.587349 0 0 0 -0.294067 0.282616 -2.06147 
287 2.57698 1.17322 0.482564 0.61156 0 0 0 0.0428272 0.539606 -1.02998 
288 2.12027 0.470308 0.103733 0.706466 0 0 0 0.0548192 -0.0096014 -1.83868 
283 2.43674 -0.0381362 0.797334 0.720709 0 0 0 1.11703 -1.28517 -0.55813 
297 2.10952 0.404045 1.31447 0.50788 0 0 0 1.90419 -1.28953 1.10996 
298 2.93 0.378402 1.22614 0.69964 0 0 0 1.80703 -0.768692 0.103676 
299 2.17784 0.794496 1.15772 0.446812 0 0 0 3.0416 -0.0321048 -0.486597 
326 2.16131 0.241583 1.27565 0.557614 0 0 0 1.36201 -1.47808 0.897718 
421 1.83955 1.44085 1.50274 0.295547 0 0 0 -2.29173 -3.41396 -0.0467972 
302 2.20229 0.171772 1.03879 0.593098 0 0 0 1.23412 -1.32819 -0.190313 
409 1.68109 1.13812 1.38277 0.302337 0 0 0 7.62336 -3.47481 0.201504 
304 2.56841 0.907698 0.967205 0.532659 0 0 0 1.36615 0.342837 -0.843713 
327 2.48296 0.0221924 1.06097 0.685998 0 0 0 1.27707 -1.34476 -0.00759019 
271 2.03989 0.860397 1.25086 0.407327 0 0 0 4.83336 -0.126249 -0.0685224 
325 1.98594 0.355555 1.00005 0.521513 0 0 0 1.37387 -1.15538 -1.03989 
308 1.84277 0.353849 1.39548 0.497793 0 0 0 1.1438 -1.67529 1.55098 
309 2.88629 1.00557 1.17505 0.59401 0 0 0 1.74577 0.142725 -0.102379 
352 2.8534 1.20475 1.47988 0.560577 0 0 0 1.76106 0.0542401 0.516975 
311 2.00273 0.716305 0.965151 0.458607 0 0 0 2.42615 -0.00755161 -1.77904 
312 2.53391 1.33844 0.846886 0.525579 0 0 0 -0.117257 0.548446 -0.597099 
293 2.42309 1.11164 0.861818 0.504926 0 0 0 0.210289 0.810977 -0.879132 
324 1.62813 -0.0597939 0.885017 0.633872 0 0 0 -0.114653 -1.61403 -0.685115 
315 2.60039 1.07859 1.23024 0.500886 0 0 0 1.63794 0.261158 -0.0845714 
316 2.72627 0.872234 1.06806 0.566481 0 0 0 1.68887 0.0840538 -0.390898 
317 2.17447 0.00895935 1.26039 0.630984 0 0 0 0.833512 -1.67301 0.738092 
345 2.10887 1.08501 1.35917 0.384713 0 0 0 3.1561 0.531191 0.357392 
323 2.38134 0.331229 1.45359 0.569985 0 0 0 1.39883 -1.12543 1.28539 
455 2.55583 1.28173 1.36755 0.472766 0 0 0 1.51337 0.132497 0.18188 
435 2.27638 1.22552 1.31462 0.411362 0 0 0 0.998406 0.0653854 0.565527 
448 2.20141 1.19778 1.32868 0.395788 0 0 0 1.29398 0.0630071 0.913629 
330 2.12818 0.96826 1.33153 0.403423 0 0 0 3.69321 0.317534 0.284999 
333 2.02458 1.08667 1.30522 0.371338 0 0 0 4.552 0.0174233 1.82275 
320 2.05153 1.24466 1.39438 0.356997 0 0 0 1.45073 -0.218015 1.67609 
85 1.93765 0.688031 1.22732 0.424792 0 0 0 4.19068 -1.03475 -0.384195 
72 1.85277 0.835644 1.34412 0.381421 0 0 0 5.99021 -0.139251 -1.58472 
280 1.92793 1.15719 0.954503 0.41854 0 0 0 0.282095 -0.515768 5.51774 
282 1.82596 1.09003 1.37787 0.331793 0 0 0 7.68144 0.0357505 -2.089 
58 1.53876 0.410764 0.794839 0.520964 0 0 0 -0.628855 -0.813618 -2.4837 
7 1.78036 0.749634 1.18988 0.399085 0 0 0 4.57946 -1.93012 -1.07286 
175 1.68619 0.702476 1.18442 0.402966 0 0 0 3.05549 -2.53241 -1.39666 
151 1.67337 0.694867 1.1842 0.404023 0 0 0 2.80383 -2.59513 -1.42882 
102 1.68172 0.685802 1.18739 0.406092 0 0 0 2.83243 -2.53399 -1.39634 
401 1.68761 1.21332 1.38462 0.290457 0 0 0 6.15676 -7.3985 9.30989 
431 1.82256 1.38594 1.47812 0.294163 0 0 0 -1.17721 -3.90112 1.50404 
230 1.56872 0.814001 1.19065 0.375188 0 0 0 1.90279 -3.51159 -0.549912 
402 1.95157 1.39056 1.18272 0.365168 0 0 0 -1.92909 -6.3476 17.6061 
61 2.0614 1.43225 1.48035 0.347743 0 0 0 -1.14332 -1.5825 0.681149 
305 2.1485 1.42894 1.51639 0.368185 0 0 0 -0.452589 -0.690371 -0.938528 
89 2.19201 1.4391 1.48267 0.378191 0 0 0 -0.209014 -1.02963 0.257704 
363 1.70563 1.42061 1.51266 0.263065 0 0 0 1.5371 23.048 -69.0589 
500 2.10569 1.32174 1.88392 0.412449 0 0 0 -1.33944 1.80843 -6.18356 
355 2.35839 0.184455 1.86312 0.634469 0 0 0 0.366737 -1.07697 1.05965 
381 3.11612 1.01979 2.35073 0.739095 0 0 0 1.30338 -0.262203 0.688368 
331 2.87923 0.0788089 2.06589 0.792852 0 0 0 1.08629 -1.15043 0.611447 
364 1.76963 0.735986 2.16029 0.517309 0 0 0 -0.565325 2.08265 -2.76989 
456 2.33967 1.28734 1.85279 0.452111 0 0 0 -0.0219097 -0.0187206 -0.567969 
334 2.84871 0.650639 1.56623 0.619734 0 0 0 1.61387 -0.526177 0.79647 
379 2.85971 0.751268 2.16119 0.662739 0 0 0 0.956948 -0.296399 0.716305 
357 2.79171 1.1106 1.69074 0.555739 0 0 0 1.4742 -0.156921 0.974866 
349 2.50806 1.06994 1.68912 0.485856 0 0 0 1.04789 -0.242852 1.07403 
338 2.91328 1.04907 1.57017 0.592007 0 0 0 1.69157 -0.0901443 0.71627 
339 2.60637 0.208208 1.78259 0.663657 0 0 0 0.88023 -1.09938 0.930334 
340 2.03196 0.919073 1.73825 0.42777 0 0 0 0.609952 2.04139 -2.76096 
380 2.25571 1.36196 2.17207 0.492287 0 0 0 -0.922234 0.227021 -1.48846 
356 2.53184 0.904635 2.0194 0.548951 0 0 0 0.229629 -0.0732903 0.595432 
359 2.00327 -0.0960491 2.15981 0.722346 0 0 0 0.00873772 -1.20847 0.524027 
344 2.80142 -0.0437772 2.11852 0.816014 0 0 0 0.909447 -1.29323 0.606336 
348 3.04076 1.33757 1.60003 0.619055 0 0 0 1.74333 -0.105231 0.43584 
346 1.58773 0.374971 1.94495 0.544623 0 0 0 0.0740337 0.361012 0.0551756 
354 2.04635 0.843229 1.58868 0.422712 0 0 0 2.33696 1.0641 -0.593026 
368 2.37677 0.682568 2.36623 0.614731 0 0 0 -0.272391 0.0967349 0.0449288 
366 1.71032 1.38229 2.04882 0.405714 0 0 0 -1.48466 7.06342 -20.3575 
371 2.18583 0.971473 2.33558 0.551661 0 0 0 -0.951563 0.813097 -1.29553 
377 1.74601 1.18744 1.97101 0.407227 0 0 0 -1.22679 7.54391 -18.0384 
360 1.90747 0.404478 2.3254 0.616732 0 0 0 -0.290933 0.209348 -0.467826 
361 2.15681 1.26107 2.27567 0.509606 0 0 0 -1.32498 0.772346 -2.22139 
335 2.54275 0.223582 1.52697 0.631493 0 0 0 1.20218 -1.16836 0.995507 
384 1.99729 -0.0776354 2.77942 0.849446 0 0 0 0.0754609 -0.817664 0.466724 
376 2.66835 0.594173 2.77916 0.779062 0 0 0 0.370178 -0.26765 0.787292 
375 2.39585 0.989106 2.70504 0.665023 0 0 0 -0.364337 0.253886 0.190188 
362 2.50173 1.42621 2.86667 0.696429 0 0 0 -0.126952 -0.207806 0.712519 
126 1.54709 0.230959 2.44275 0.669908 0 0 0 0.190618 -0.0431502 -0.289624 
383 3.11738 1.16306 2.83543 0.835523 0 0 0 1.03591 -0.275963 0.893802 
365 2.9694 -0.0926743 2.52754 0.942724 0 0 0 0.964667 -1.11937 0.625871 
374 2.49303 0.362288 2.5845 0.739404 0 0 0 0.163742 -0.518961 0.60355 
367 2.83512 -0.0952151 2.44692 0.894593 0 0 0 0.82857 -1.20574 0.631808 
382 2.46012 0.611973 2.90139 0.779646 0 0 0 0.00278242 -0.0960284 0.703892 
369 2.63777 0.58011 2.64824 0.739166 0 0 0 0.331714 -0.276008 0.688812 
373 2.14105 0.726532 2.45078 0.603868 0 0 0 -0.651296 0.594303 -0.680583 
406 2.09112 2.16897 0.430838 0.611265 0 0 0 -1.06552 -1.43413 0.481076 
386 2.0284 2.99122 0.37105 0.772704 0 0 0 -0.203152 0.499826 -0.469322 
387 2.72329 1.69898 0.609381 0.62061 0 0 0 0.12538 -0.139251 -0.670047 
408 1.85314 2.49566 0.317939 0.670082 0 0 0 -0.440772 -0.943479 0.185407 
389 2.18616 3.05826 0.428309 0.790715 0 0 0 -0.0941006 0.695835 -0.557212 
390 2.98317 1.77901 0.535157 0.70793 0 0 0 0.849917 -0.129265 -0.779547 
391 2.11535 1.83161 0.64848 0.532528 0 0 0 -2.13315 -1.78886 1.75412 
403 2.5459 2.18679 0.119718 0.751349 0 0 0 -0.075444 -0.411454 -0.815083 
393 2.66093 2.28842 0.183067 0.764201 0 0 0 0.173617 -0.246732 -0.873342 
405 2.78811 3.02173 -0.121109 1.01931 0 0 0 0.448673 0.483324 -0.802747 
395 1.81381 2.31843 0.625906 0.567287 0 0 0 -0.975015 -2.06635 1.31378 
396 2.10804 2.72738 0.663082 0.647388 0 0 0 -0.447569 -0.0233247 -0.398823 
397 2.16783 2.01056 -0.00250716 0.730131 0 0 0 -0.551793 -0.808932 -0.326937 
407 3.03609 2.65996 0.066139 0.941519 0 0 0 0.752088 0.242114 -0.877937 
399 2.55634 2.07553 0.339482 0.678296 0 0 0 -0.217672 -0.510652 -0.662336 
400 3.03867 3.09633 0.0948074 1.03121 0 0 0 0.703317 0.615641 -0.726263 
404 2.54911 1.82913 0.135102 0.717734 0 0 0 -0.227236 -0.383335 -0.795858 
392 1.64898 1.70196 1.30219 0.313698 0 0 0 -4.39474 -24.5639 61.7637 
347 1.74968 2.58561 1.44171 0.482406 0 0 0 -0.442364 0.909036 -1.16966 
470 3.18033 2.73685 1.51285 0.777332 0 0 0 1.36502 0.545234 -0.283494 
412 2.83895 2.70487 0.904632 0.719794 0 0 0 0.791077 0.476948 -0.69504 
413 2.99686 2.31763 1.18363 0.663644 0 0 0 1.32584 -0.0830931 -0.625407 
414 2.35624 1.78558 1.13988 0.461764 0 0 0 -0.742109 -1.47687 0.0408067 
415 2.1873 1.95171 0.959635 0.482595 0 0 0 -2.1401 -2.22293 1.05728 
416 1.76813 2.56766 1.21183 0.503755 0 0 0 -0.959942 -0.469323 -0.755564 
454 1.96176 3.07035 1.40585 0.634753 0 0 0 -0.18783 1.48751 -0.880988 
427 1.90156 2.97811 1.41373 0.600579 0 0 0 -0.275439 1.39299 -1.01348 
419 3.09087 2.31628 1.28366 0.685428 0 0 0 1.47357 -0.0907832 -0.502449 
457 2.18048 2.18526 1.39274 0.445662 0 0 0 0.664375 -0.848605 -0.804451 
411 1.77754 1.4971 1.51758 0.279061 0 0 0 -3.50452 -3.86769 0.147944 
422 2.52327 1.82722 0.892715 0.53417 0 0 0 -0.488509 -0.711631 -0.445574 
423 2.22281 3.17064 1.41836 0.692846 0 0 0 0.211832 1.49872 -0.625274 
424 1.98908 2.69972 0.785545 0.609122 0 0 0 -0.644642 -0.213526 -0.311736 
425 2.52502 2.65947 0.978217 0.634302 0 0 0 0.284959 0.379809 -0.819755 
426 2.16556 2.22827 1.02762 0.500696 0 0 0 -1.39632 -1.51878 -0.245644 
446 2.15404 1.47217 1.43062 0.370647 0 0 0 -0.75826 -2.07812 2.30959 
441 3.15009 2.03261 1.39372 0.670917 0 0 0 1.68532 -0.39317 -0.32168 
429 2.28301 3.01718 0.83094 0.710769 0 0 0 -0.0175299 0.880803 -0.645501 
430 3.24666 2.98694 1.29672 0.866167 0 0 0 1.22318 0.801655 -0.328426 
449 2.29124 2.24049 1.41349 0.472486 0 0 0 0.979814 -0.238203 -1.01198 
388 1.59812 2.19684 1.01815 0.463188 0 0 0 -1.12521 -4.52474 4.55095 
433 2.03728 1.73802 1.21704 0.390803 0 0 0 -3.06219 -5.99425 9.07351 
434 1.60082 2.73668 1.06615 0.558629 0 0 0 -0.646774 -0.104372 -0.507379 
432 2.37388 1.88404 1.34991 0.447539 0 0 0 0.877469 -1.55962 -0.547245 
436 3.01036 2.09203 0.843111 0.681813 0 0 0 1.07792 -0.2234 -0.688412 
437 2.8462 1.57156 0.96614 0.587292 0 0 0 0.941009 0.0775361 -0.585497 
438 2.85549 2.16438 1.42914 0.5892 0 0 0 1.62874 -0.36838 -0.503895 
439 3.06985 3.26361 1.23339 0.897856 0 0 0 0.949551 1.11242 -0.325502 
440 2.10109 2.01539 0.939848 0.48386 0 0 0 -2.34459 -2.61685 1.56007 
458 2.1452 2.40779 1.42054 0.480221 0 0 0 0.452031 0.375915 -1.04742 
464 2.20089 2.07552 1.39204 0.431482 0 0 0 0.776268 -1.57501 -0.489557 
443 2.5877 1.94946 2.09056 0.53552 0 0 0 1.22741 -0.883242 1.06621 
444 2.84859 1.46505 1.86655 0.570206 0 0 0 1.47551 -0.495901 0.741068 
445 2.81527 2.21551 2.12929 0.614387 0 0 0 1.2189 -0.376548 0.61861 
310 1.78293 2.08928 1.76574 0.364645 0 0 0 2.92977 1.76754 -0.104242 
372 1.61022 2.19643 1.81033 0.377706 0 0 0 0.390858 3.52849 0.842828 
296 2.37676 1.99588 1.7502 0.454789 0 0 0 2.73146 -0.912873 0.691388 
471 1.98874 1.90614 1.68087 0.358624 0 0 0 3.68293 -2.27056 -0.855797 
450 2.67999 1.85887 1.96779 0.537545 0 0 0 1.57152 -0.979875 0.850318 
182 1.64286 1.88949 1.64867 0.302926 0 0 0 0.631962 1.14015 2.03373 
452 2.1188 2.90997 1.68517 0.592221 0 0 0 0.466515 1.44555 -0.398896 
453 1.56027 2.45095 2.19981 0.487033 0 0 0 0.354052 0.827453 2.32806 
469 2.08406 1.70843 2.0562 0.431066 0 0 0 0.0260389 -0.355309 -3.08901 
343 2.09717 1.70347 1.57754 0.360074 0 0 0 0.921767 -3.60624 0.0492467 
481 2.16302 2.25178 1.79843 0.451736 0 0 0 2.75703 0.771814 1.11108 
467 1.86345 2.6493 1.66668 0.49596 0 0 0 0.52853 1.845 -0.479491 
378 1.78868 2.33534 1.81544 0.420984 0 0 0 1.83518 2.73104 1.3788 
459 3.15663 2.7618 2.17728 0.803689 0 0 0 1.3311 0.599008 0.259744 
277 1.76728 1.99982 1.70693 0.340649 0 0 0 3.00524 0.914911 -1.08496 
461 1.65114 2.97998 1.7122 0.580967 0 0 0 -0.21453 1.91986 -0.769163 
263 1.87894 1.99472 1.72044 0.355843 0 0 0 3.87619 -0.294748 -0.870074 
261 1.68405 1.99278 1.69119 0.329301 0 0 0 1.71214 1.80488 -0.603946 
176 1.90639 1.54435 1.53657 0.311142 0 0 0 -2.19456 -3.76111 0.588495 
465 1.96042 2.96193 1.89533 0.597781 0 0 0 0.44138 1.55929 0.0162143 
466 2.24247 3.2713 1.79524 0.726834 0 0 0 0.419267 1.6269 -0.194179 
319 2.24974 1.91454 1.63878 0.411731 0 0 0 2.91671 -1.83125 0.106633 
478 2.18734 3.04935 2.25826 0.683236 0 0 0 0.539364 1.21412 0.572474 
484 1.90492 2.64751 2.31714 0.562311 0 0 0 0.647537 0.489751 1.45391 
187 2.1303 2.09995 1.70539 0.413708 0 0 0 3.45105 -0.361882 0.630717 
509 3.29296 2.84291 2.26144 0.875194 0 0 0 1.37373 0.653913 0.329602 
488 2.31766 1.87768 1.72535 0.42917 0 0 0 2.78256 -1.5284 0.406016 
492 2.70859 2.30871 2.28735 0.620861 0 0 0 0.893957 -0.213795 0.823939 
494 2.94686 2.34984 2.28063 0.684459 0 0 0 1.18416 -0.127241 0.575903 
504 2.87671 1.9456 2.27657 0.631952 0 0 0 1.10362 -0.739896 0.756513 
199 1.89314 1.96045 1.70229 0.351186 0 0 0 3.89545 -0.926793 -1.12826 
120 1.67258 1.96379 1.67438 0.321487 0 0 0 1.45923 1.53506 -0.00757785 
442 2.28183 1.67739 1.7112 0.410209 0 0 0 1.68406 -1.59512 -0.505143 
498 2.04613 1.55965 1.9778 0.409442 0 0 0 -0.910692 1.0849 -7.14687 
487 1.91916 2.03369 2.33112 0.488956 0 0 0 0.0326367 -0.698225 0.22488 
209 2.03145 1.7059 1.5911 0.345966 0 0 0 0.866156 -3.84905 -0.484573 
36 2.10178 2.14084 1.72251 0.416343 0 0 0 3.4066 0.0971723 0.774114 
191 1.67811 1.96819 1.67706 0.323023 0 0 0 1.57664 1.52191 -0.149674 
417 2.33714 2.53507 1.7657 0.533533 0 0 0 1.3001 0.973365 0.25903 
451 2.99114 2.22371 1.53029 0.63345 0 0 0 1.65107 -0.275929 -0.312237 
259 1.58512 1.88707 1.64908 0.297929 0 0 0 -0.810585 2.34886 2.4384 
463 1.58447 1.95968 1.66739 0.313834 0 0 0 -0.644152 2.58972 1.31835 
307 1.54446 1.74375 1.60346 0.263562 0 0 0 -2.47012 3.24087 0.806401 
220 1.54373 1.74204 1.60278 0.263122 0 0 0 -2.49449 3.24102 0.762858 
496 2.03147 2.50601 2.78624 0.657584 0 0 0 0.0310471 -0.181218 1.52989 
472 2.0747 1.79642 2.63684 0.574765 0 0 0 -0.779212 -0.595597 -0.0763818 
473 1.75625 1.5959 2.58876 0.549215 0 0 0 -1.1777 0.121217 -2.34783 
474 2.95854 3.17647 2.68346 0.934252 0 0 0 0.901267 1.04183 0.755755 
497 1.61663 1.94128 2.57965 0.539007 0 0 0 -0.635578 -1.02515 -0.52062 
502 2.22662 2.57159 2.71503 0.667083 0 0 0 0.220397 0.0468188 1.38664 
477 3.17713 2.0138 2.59479 0.781977 0 0 0 1.29712 -0.453759 0.857127 
513 2.63016 3.02979 3.05944 0.919995 0 0 0 0.557671 0.805128 1.277 
479 1.80985 1.75127 2.417 0.49856 0 0 0 -1.15682 -0.356603 -2.63219 
501 1.6536 2.45381 3.00117 0.698249 0 0 0 -0.144851 -0.376349 1.73338 
503 2.03372 3.1535 2.47845 0.734324 0 0 0 0.328416 1.26102 0.849388 
482 1.57532 3.16057 3.12964 0.875847 0 0 0 0.0454347 0.862649 1.49568 
511 3.00814 2.13234 2.41307 0.70201 0 0 0 1.18574 -0.463517 0.754331 
510 2.10249 2.54653 2.61071 0.62352 0 0 0 0.225986 -0.0462934 1.38352 
508 2.62305 1.96044 3.05692 0.77212 0 0 0 0.282785 -0.409104 1.38037 
505 3.15567 2.91939 3.22206 1.06051 0 0 0 0.887148 0.587057 1.13087 
499 1.80691 1.78436 2.91322 0.645105 0 0 0 -0.705525 -0.515543 0.136794 
495 2.94831 1.72933 2.79659 0.75814 0 0 0 0.827138 -0.506838 1.07248 
489 3.12957 1.50361 3.00017 0.868008 0 0 0 0.959274 -0.334801 1.04647 
490 2.37284 2.40854 2.58346 0.629825 0 0 0 0.304741 -0.181172 1.22528 
491 2.27434 1.49882 2.74564 0.629949 0 0 0 -0.618185 -0.160351 0.104056 
506 1.97648 2.06882 3.04671 0.700277 0 0 0 -0.38514 -0.559222 1.2141 
493 3.07267 3.01074 2.79147 0.943092 0 0 0 1.00008 0.817251 0.886015 
480 2.35966 2.25058 2.39424 0.569219 0 0 0 0.406853 -0.38713 1.22442 
ITEM: TIMESTEP
800983
ITEM: NUMBER OF ATOMS
512
ITEM: BOX BOUNDS ss ss ss
-2.2775349561678951e-01 3.2932607586404616e+00
-4.0122540508749138e-01 3.2891132425832117e+00
-1.7039273299291779e-01 3.2223573019164853e+00
ITEM: ATOMS id x y z width_SPH x_COM y_COM z_COM vx vy vz 
23 0.539286 1.16104 0.372782 0.613015 0 0 0 0.633792 -0.0976505 -0.569986 
3 -0.140329 -0.124432 0.0939747 1.0357 0 0 0 -1.01066 -0.934133 -0.88135 
4 1.1215 0.71024 0.26551 0.622553 0 0 0 0.00936045 0.209776 -1.02935 
5 0.225459 1.27088 -0.0394004 0.782509 0 0 0 -0.197427 -0.301971 -0.966504 
6 0.0115271 1.14394 0.37696 0.727352 0 0 0 -0.762224 -0.26802 -0.70539 
22 0.128622 1.05029 0.059601 0.785116 0 0 0 -0.507385 -0.424311 -0.970667 
8 0.686461 0.733455 -0.0391947 0.747513 0 0 0 0.0953299 -0.43315 -1.18304 
9 1.3567 -0.241853 0.263493 0.804204 0 0 0 -0.298895 -1.18641 -1.40896 
10 -0.0863151 -0.263404 0.0260458 1.0737 0 0 0 -0.931973 -0.985733 -0.90191 
11 0.920705 1.15036 -0.0285249 0.696436 0 0 0 0.752232 -0.165346 -0.435103 
12 0.461886 1.343 0.164185 0.674423 0 0 0 0.502727 -0.204172 -0.606949 
13 0.278629 -0.299308 0.200453 0.957905 0 0 0 -0.806304 -1.14363 -1.01852 
14 0.972037 1.22081 0.390069 0.568523 0 0 0 1.27038 0.142479 0.812735 
15 1.08249 0.66997 0.304809 0.617964 0 0 0 -0.0679034 0.142884 -1.16072 
16 0.612757 -0.235826 0.244741 0.869624 0 0 0 -0.630661 -1.16659 -1.20389 
17 0.87827 0.253889 0.00523044 0.78318 0 0 0 -0.298611 -0.660964 -1.49784 
18 0.562191 0.565603 0.356094 0.673121 0 0 0 -0.327158 -0.544903 -1.23564 
274 1.4895 1.31441 0.568083 0.508709 0 0 0 -0.206606 -0.28193 4.84902 
20 0.679389 0.94068 0.297781 0.628463 0 0 0 0.463988 -0.143627 -0.766457 
62 1.19143 1.02676 0.635984 0.499497 0 0 0 0.00572922 0.577712 1.37851 
50 0.549988 -0.381029 0.627224 0.850632 0 0 0 -0.738659 -1.36615 -0.856488 
31 -0.0666973 1.19079 0.657986 0.69483 0 0 0 -0.999902 -0.0999501 -0.584643 
44 0.384567 0.857337 0.611346 0.611979 0 0 0 -0.317971 -0.373753 -1.12027 
24 1.01877 -0.213783 1.39568 0.679354 0 0 0 -0.123987 -1.69285 0.603274 
353 1.43469 1.07795 1.35086 0.306617 0 0 0 -0.477946 -3.56894 0.636067 
26 -0.135936 1.02548 1.49494 0.658913 0 0 0 -1.52793 0.0880284 0.0612305 
27 0.398738 1.14913 0.832391 0.54623 0 0 0 -0.0929866 0.0261887 -1.24835 
28 0.947156 0.225 1.38726 0.550773 0 0 0 -0.881515 -1.47364 0.742557 
91 0.800643 1.12867 1.21354 0.410233 0 0 0 -0.998731 -0.84864 -0.341455 
303 1.47401 1.06097 1.34497 0.308978 0 0 0 0.971353 -3.79481 0.770965 
65 0.669835 0.471783 1.33838 0.530129 0 0 0 -1.15562 -1.29715 0.0919598 
32 0.390327 -0.347397 1.28432 0.809109 0 0 0 -0.7781 -1.47595 -0.132805 
33 0.747583 -0.211897 1.15272 0.709653 0 0 0 -0.599487 -1.55106 -0.195154 
173 0.936221 0.960756 1.29479 0.396883 0 0 0 -3.46728 -1.14491 -0.811002 
35 1.49751 0.0185857 0.818713 0.616275 0 0 0 -0.421804 -1.4179 -1.15815 
21 1.50709 1.44184 1.49138 0.220515 0 0 0 0.244761 1.59295 0.622564 
154 1.32469 1.31545 1.43484 0.268891 0 0 0 1.65044 2.35733 -4.96267 
38 0.219852 1.02869 0.800811 0.601114 0 0 0 -0.640088 -0.169666 -1.01706 
39 -0.227457 0.894409 1.43968 0.703332 0 0 0 -1.58737 -0.0297054 -0.0849071 
2 1.14968 0.675243 1.21354 0.426026 0 0 0 -4.1429 -2.31408 -1.38036 
351 0.859146 1.19146 1.32514 0.381097 0 0 0 -0.728038 -0.464224 0.44375 
42 0.799968 1.37177 1.32996 0.382826 0 0 0 0.818933 -0.146289 1.05491 
195 1.40658 0.799874 1.18838 0.381448 0 0 0 -2.1416 -3.62158 -0.893419 
318 1.4922 1.06871 1.34922 0.306649 0 0 0 1.80131 -3.84477 0.633082 
45 0.998555 0.224031 1.32982 0.545672 0 0 0 -1.04172 -1.56828 0.537136 
46 0.610448 0.267937 0.790685 0.635116 0 0 0 -0.974951 -0.894098 -1.36007 
47 1.21212 0.915316 0.835748 0.454217 0 0 0 -1.73104 -0.485207 0.987976 
48 0.52662 0.788822 1.37475 0.498783 0 0 0 -1.05291 -1.06537 0.0363298 
250 1.49187 1.08594 1.35641 0.302456 0 0 0 1.96535 -3.83489 0.345456 
79 1.49623 1.36941 1.46082 0.233519 0 0 0 3.64261 0.758076 0.551985 
51 0.476674 1.30496 0.949273 0.506038 0 0 0 0.1691 0.22164 -1.33578 
52 1.29203 0.226356 1.31754 0.525363 0 0 0 -0.907446 -1.9114 0.784913 
53 -0.0398833 0.626633 1.25892 0.678803 0 0 0 -1.45044 -0.441294 -0.414638 
54 1.02301 -0.400929 1.42876 0.74746 0 0 0 0.00505334 -1.74379 0.513756 
385 1.48525 1.28967 1.43147 0.252412 0 0 0 3.42419 -2.1061 0.492104 
56 1.27652 0.103594 1.02254 0.574014 0 0 0 -0.869691 -1.66904 -0.73484 
178 0.995024 1.43603 1.45857 0.329985 0 0 0 2.91028 1.35588 0.624061 
115 1.50525 1.15042 1.37639 0.287017 0 0 0 3.0959 -4.3841 0.77832 
59 0.618218 0.602603 1.24067 0.51739 0 0 0 -1.31681 -1.26836 -0.596056 
124 1.46275 1.03846 1.3335 0.31495 0 0 0 0.307974 -3.79353 1.08121 
306 1.50773 -0.285862 0.765566 0.723845 0 0 0 -0.127725 -1.6043 -0.682437 
64 0.863756 -0.339053 1.3046 0.736468 0 0 0 -0.27567 -1.69422 0.221023 
119 1.46934 1.29804 1.43364 0.251084 0 0 0 3.24198 -1.66961 0.901688 
313 1.06026 1.33633 1.41901 0.322543 0 0 0 1.09847 0.947007 2.21126 
149 1.36226 1.21564 1.35164 0.287128 0 0 0 -1.32935 -1.55586 -0.804255 
179 1.27092 0.655447 1.19794 0.420359 0 0 0 -3.49663 -2.75728 -1.57716 
106 1.48398 1.28129 1.42805 0.25453 0 0 0 3.3325 -2.4168 0.654561 
322 1.48977 1.08076 1.35422 0.30375 0 0 0 1.82434 -3.82926 0.433121 
19 1.48534 0.42385 1.00494 0.484894 0 0 0 -0.852814 -1.86256 -1.91701 
512 1.49418 1.3562 1.4562 0.236441 0 0 0 3.67157 0.312148 0.469014 
301 0.93061 1.30713 1.40803 0.352103 0 0 0 0.844338 0.695892 0.473269 
214 1.39941 0.983958 1.30052 0.332293 0 0 0 -2.34861 -3.6649 1.32705 
77 0.453288 1.43621 1.29507 0.467504 0 0 0 -0.729902 0.322756 -0.756553 
358 0.802633 1.13455 1.1541 0.418094 0 0 0 -0.811632 -0.815756 -0.341109 
81 0.658634 0.594059 1.15419 0.517895 0 0 0 -1.43275 -1.24586 -1.06385 
71 0.654126 1.22741 1.34848 0.421632 0 0 0 -0.472656 -0.274595 -0.366845 
329 0.872552 1.19711 1.34631 0.376297 0 0 0 -0.664054 -0.2845 0.35074 
57 1.51229 0.644707 1.1874 0.41243 0 0 0 -0.122525 -3.05672 -1.62638 
122 1.21656 0.673193 1.20291 0.420713 0 0 0 -3.98099 -2.585 -1.52533 
74 0.974804 0.845291 1.26176 0.411887 0 0 0 -4.0666 -1.59232 -1.05772 
228 1.19611 1.41564 1.46551 0.28585 0 0 0 3.66144 1.69328 2.54484 
198 0.988602 1.43717 1.45868 0.331366 0 0 0 2.87833 1.25709 0.754257 
165 1.3282 0.926636 1.25837 0.353438 0 0 0 -4.30447 -3.50954 0.956259 
101 1.00028 1.23476 1.37484 0.345701 0 0 0 -1.00817 0.365207 1.16489 
82 0.914214 0.731783 1.19891 0.446423 0 0 0 -3.04124 -1.67024 -1.1938 
229 1.43794 1.01784 1.32157 0.321263 0 0 0 -0.817477 -3.73947 1.25735 
66 0.0779138 -0.209391 2.31731 0.901787 0 0 0 -0.687962 -1.05208 0.580833 
67 0.896591 0.389783 1.98979 0.568993 0 0 0 0.535177 -0.0874234 0.637809 
68 1.03629 0.89786 1.78785 0.431442 0 0 0 0.893002 2.9862 -4.25741 
95 0.398485 -0.0109016 2.10984 0.741994 0 0 0 -0.249935 -0.999985 0.679922 
70 0.431861 1.36488 2.12842 0.534681 0 0 0 0.501939 -0.113959 0.72694 
88 0.0603624 0.335404 2.25425 0.754695 0 0 0 -0.785909 -0.437362 0.780301 
55 0.179153 0.110083 1.56622 0.715516 0 0 0 -0.990366 -1.03048 0.129735 
63 0.0686988 1.42391 1.57716 0.574449 0 0 0 -1.32732 0.122356 0.333587 
87 -0.124824 0.602197 1.97093 0.726215 0 0 0 -1.23339 -0.227808 0.586441 
75 0.134231 1.38274 2.08425 0.597902 0 0 0 -0.600585 -0.111099 0.927894 
86 1.52819 0.494281 1.73489 0.483928 0 0 0 0.0889543 0.601351 0.00430896 
90 0.772493 1.18916 2.00601 0.46751 0 0 0 2.16493 1.08643 -1.6932 
78 0.397217 -0.0026293 2.21456 0.755241 0 0 0 -0.216498 -0.931591 0.705688 
113 0.978002 1.36 2.06099 0.43992 0 0 0 2.96967 2.5452 -6.73459 
93 0.811339 0.804861 2.0233 0.511044 0 0 0 1.24664 0.892038 -0.290598 
92 0.38802 0.389794 1.87057 0.619935 0 0 0 -0.311901 -0.630197 0.888686 
108 1.18119 0.815743 2.12937 0.500497 0 0 0 1.03676 2.73472 -3.26144 
83 0.717762 1.15514 1.91969 0.462905 0 0 0 1.76404 0.737027 -0.786769 
84 0.247414 0.0622368 2.16075 0.758665 0 0 0 -0.4902 -0.85755 0.680794 
96 1.42755 0.839301 1.8915 0.437824 0 0 0 0.311011 5.24125 -7.87349 
127 1.45838 0.642884 2.04465 0.504505 0 0 0 0.17934 2.32783 -2.51018 
34 -0.00994973 0.530522 1.66397 0.680597 0 0 0 -1.25689 -0.447005 0.292411 
60 0.61672 0.958431 1.89369 0.49654 0 0 0 0.906043 0.186401 0.694815 
25 1.06931 0.282779 1.6188 0.537638 0 0 0 -0.33233 -0.974003 1.42412 
76 0.5695 0.905027 1.57236 0.476952 0 0 0 -0.410873 -0.726924 0.959415 
94 0.548014 0.812211 1.57409 0.49466 0 0 0 -0.47416 -0.799151 1.01573 
37 0.451647 1.06436 1.55401 0.483798 0 0 0 -0.715207 -0.372699 0.801554 
49 -0.225093 0.992379 1.53528 0.693612 0 0 0 -1.56995 0.0719917 0.0721441 
125 1.09267 1.35856 2.31577 0.494747 0 0 0 1.87397 1.87922 -4.76181 
370 1.52837 0.876186 2.34622 0.535459 0 0 0 -0.114073 2.66182 -3.73604 
121 1.2299 0.0557179 2.56175 0.739896 0 0 0 0.420625 -0.463434 0.188909 
97 0.741254 0.963635 2.6719 0.641807 0 0 0 0.791085 0.76951 -0.0276602 
98 0.311901 1.033 2.82434 0.738883 0 0 0 -0.0618694 0.189118 0.942206 
99 0.716606 0.0242842 2.58279 0.779045 0 0 0 0.238141 -0.650586 0.65158 
100 0.647803 0.403616 2.84607 0.773451 0 0 0 0.218142 0.0516006 0.748542 
128 0.383363 1.44118 2.49723 0.615766 0 0 0 0.291508 -0.114643 0.746917 
131 0.549717 1.23793 2.93584 0.721723 0 0 0 0.375438 0.238878 0.767561 
103 1.03332 0.516066 2.74005 0.695682 0 0 0 0.557479 0.579621 -0.00874228 
130 1.37066 0.465209 2.56845 0.65114 0 0 0 0.363691 0.736507 -0.682335 
114 1.06694 0.880376 2.58087 0.60421 0 0 0 0.894362 1.4752 -1.26372 
129 0.508149 0.0503803 3.07878 0.938567 0 0 0 -0.0943934 -0.45257 0.926432 
116 -0.0918038 0.828692 2.48471 0.768907 0 0 0 -0.926297 -0.00656116 0.912685 
117 -0.112808 0.373906 2.52757 0.849198 0 0 0 -0.96399 -0.312895 0.858357 
109 0.427185 0.944434 3.03849 0.793868 0 0 0 0.0459955 0.256789 0.963244 
110 0.486302 -0.255056 2.78202 0.938172 0 0 0 -0.121549 -0.936641 0.764152 
123 1.28799 1.23656 2.37885 0.511355 0 0 0 0.834504 2.64145 -5.32612 
112 1.16532 0.424951 2.80165 0.724467 0 0 0 0.467834 0.431166 0.0413193 
162 0.457141 2.5951 0.566884 0.691736 0 0 0 -0.198982 0.795881 -0.433698 
132 0.66222 2.53027 0.217891 0.732798 0 0 0 0.175164 0.271943 -0.335464 
133 0.0922406 1.78605 0.558715 0.665837 0 0 0 -0.455911 0.139876 -0.504161 
134 0.162153 2.01557 0.24243 0.736259 0 0 0 -0.340434 0.197174 -0.589831 
135 1.32373 2.40948 0.446199 0.616066 0 0 0 0.357549 -1.41328 1.05042 
136 1.10481 2.57107 0.555834 0.622616 0 0 0 0.397433 -0.469657 0.464796 
137 0.0490373 2.5059 0.614627 0.758154 0 0 0 -0.886 0.864014 -0.494781 
138 0.513595 2.21214 0.0647114 0.745661 0 0 0 0.264211 0.00927925 -0.511831 
139 0.291598 2.24804 0.292716 0.722672 0 0 0 -0.186687 0.334736 -0.526094 
140 0.883335 2.73443 0.162877 0.770975 0 0 0 0.129496 0.361209 -0.290009 
141 -0.0439152 2.3866 0.160641 0.86376 0 0 0 -0.835634 0.588508 -0.61265 
142 1.45321 2.54109 0.575778 0.605432 0 0 0 -0.0152756 -1.15817 0.848438 
143 1.27571 2.91643 0.597735 0.687648 0 0 0 -0.0928382 0.53306 -0.00197479 
160 0.794612 3.07601 0.428215 0.804013 0 0 0 -0.207693 1.16477 -0.290256 
145 0.495421 2.00223 0.0139399 0.74095 0 0 0 0.384893 -0.140984 -0.551351 
146 1.33715 2.00136 0.34105 0.601081 0 0 0 0.654429 -2.1093 2.10556 
147 0.766196 1.82077 0.226307 0.636295 0 0 0 1.1953 -0.680013 0.317611 
148 1.26681 3.02295 0.252031 0.79905 0 0 0 -0.0618171 0.640643 -0.233341 
156 0.0923355 1.95726 0.419737 0.705678 0 0 0 -0.503525 0.220005 -0.514311 
150 1.0832 1.84154 0.514011 0.549522 0 0 0 1.65376 -2.03897 2.6403 
155 0.802649 1.62672 0.139302 0.650624 0 0 0 1.20365 -0.523887 0.232132 
161 1.37471 2.00684 0.411128 0.582786 0 0 0 0.554473 -2.40396 2.53746 
159 0.0392297 1.48546 -0.0352885 0.821636 0 0 0 -0.532882 -0.159717 -0.891079 
170 1.13968 2.09624 1.09395 0.44055 0 0 0 1.46605 -3.77865 4.57875 
163 0.512819 2.85755 0.715427 0.721363 0 0 0 -0.362555 1.26009 -0.434136 
202 0.614151 2.0095 1.00203 0.503112 0 0 0 1.10001 -0.139524 -1.05798 
167 0.867401 1.79174 1.05682 0.436403 0 0 0 2.56082 -1.8346 2.5678 
225 1.49735 1.51636 1.51443 0.217519 0 0 0 -0.855076 -0.816947 -0.886239 
169 0.925711 1.73867 1.43071 0.356736 0 0 0 1.84676 -1.9482 4.92859 
201 -0.0238961 2.74169 0.921928 0.787359 0 0 0 -1.10162 1.15804 -0.493651 
171 0.3448 1.88397 1.31499 0.510871 0 0 0 -0.752095 0.282538 -1.14346 
183 1.05569 1.45292 1.46249 0.315991 0 0 0 3.41763 1.60687 1.20732 
30 0.792088 1.64482 1.51741 0.376353 0 0 0 1.02635 0.0813685 0.162061 
174 0.20688 1.77876 1.03603 0.567113 0 0 0 -0.476503 0.230796 -1.02289 
210 1.50148 1.47892 1.50125 0.217349 0 0 0 0.564941 0.987413 0.144582 
157 1.18863 2.27084 1.02742 0.478471 0 0 0 0.927583 -2.54604 1.97871 
152 1.07997 2.08941 0.712462 0.523344 0 0 0 1.53882 -2.43134 2.37596 
314 1.50113 1.48138 1.50212 0.21725 0 0 0 0.470147 0.863438 0.0406197 
197 0.0748427 2.23525 1.08021 0.643442 0 0 0 -1.00238 0.595567 -0.8099 
180 0.421876 2.02562 1.49853 0.493812 0 0 0 -1.13646 0.339422 -0.727736 
181 0.627687 2.08579 1.41777 0.456516 0 0 0 -0.466785 0.710716 -1.41782 
428 1.18669 2.56475 1.42784 0.483302 0 0 0 -0.598187 1.1833 -1.62201 
410 1.4991 1.48774 1.50438 0.217078 0 0 0 0.802317 0.610504 -0.0304389 
184 0.816888 2.82807 1.23688 0.60367 0 0 0 -0.226956 1.5711 -1.11908 
460 1.49413 1.50152 1.50836 0.217103 0 0 0 -0.273579 -0.0788731 -0.506955 
186 0.975643 2.81774 1.04021 0.60602 0 0 0 -0.0236913 1.00238 -0.63971 
196 0.570966 1.70122 1.47318 0.43214 0 0 0 -0.553663 0.191684 -0.178868 
188 0.309626 2.5385 1.32084 0.613259 0 0 0 -0.883876 1.28405 -1.11731 
200 0.952341 2.70818 1.14964 0.565976 0 0 0 0.0652677 0.959647 -1.0381 
190 0.811565 1.85976 1.03819 0.453607 0 0 0 2.21279 -1.24135 0.97895 
166 0.578322 1.64115 0.820063 0.51415 0 0 0 1.3796 -0.126794 -0.491422 
192 0.613365 2.06273 1.28737 0.468807 0 0 0 0.152264 0.522645 -1.66709 
193 1.11512 2.50091 1.38662 0.476142 0 0 0 -0.418147 0.868644 -1.5248 
203 1.49709 1.53529 1.52114 0.218902 0 0 0 -1.53171 -1.18361 -1.05396 
208 1.50103 1.48233 1.50246 0.217217 0 0 0 0.443916 0.811222 0.00725439 
41 1.49969 1.49087 1.50544 0.217017 0 0 0 0.111298 0.318039 -0.332204 
342 1.4981 1.50466 1.51029 0.217087 0 0 0 -0.412916 -0.391968 -0.697661 
164 1.49914 1.49496 1.50687 0.216987 0 0 0 -0.0434046 0.0849193 -0.462185 
40 1.49907 1.4955 1.50707 0.216987 0 0 0 -0.0641238 0.0550539 -0.477968 
219 1.49839 1.50152 1.50918 0.217029 0 0 0 -0.29324 -0.250347 -0.631028 
73 1.49776 1.50903 1.51184 0.217209 0 0 0 -0.578875 -0.569158 -0.777948 
43 0.805601 1.44796 1.37081 0.376498 0 0 0 1.30552 -0.0245482 1.27889 
418 1.50719 1.47294 1.49917 0.217692 0 0 0 -0.374808 0.848028 0.0277518 
158 1.23226 1.80439 1.11313 0.389194 0 0 0 1.3873 -9.68913 21.2881 
394 1.50446 1.487 1.49865 0.217129 0 0 0 -0.307198 0.643432 -1.04025 
107 1.49844 1.45725 1.49537 0.218851 0 0 0 1.73308 1.2817 2.58871 
215 0.540873 2.16283 1.63005 0.479713 0 0 0 -1.42845 0.603984 -0.340466 
447 1.39749 2.80307 2.23838 0.567394 0 0 0 -0.109938 1.23069 1.24135 
205 0.0357115 1.958 2.06486 0.630639 0 0 0 -1.35402 -0.385492 0.701827 
206 1.02526 2.47209 2.29806 0.526081 0 0 0 -0.784617 0.0757847 2.24094 
207 0.438847 2.84841 1.72196 0.648681 0 0 0 -0.970143 1.70348 -0.719299 
257 1.1462 1.73854 1.5693 0.308093 0 0 0 0.151162 1.36668 0.791674 
194 0.555395 1.94539 1.63956 0.452293 0 0 0 -1.32453 0.0738202 0.248949 
235 1.21548 2.18612 2.35238 0.49366 0 0 0 -0.515738 -1.03702 1.78985 
211 0.956351 2.92221 2.05614 0.605035 0 0 0 -0.719784 1.80984 0.0663253 
212 0.453132 2.60916 1.67387 0.582914 0 0 0 -1.16158 1.49544 -0.741545 
213 0.821559 1.77282 1.80143 0.397828 0 0 0 -0.215218 0.01218 -1.25201 
242 0.400461 2.35909 2.29194 0.595598 0 0 0 -1.03597 -0.27233 1.19629 
231 0.848344 2.32006 2.12815 0.491557 0 0 0 -1.46648 0.000740875 2.18593 
216 1.16683 2.94849 2.0896 0.599368 0 0 0 -0.547759 1.81478 0.245509 
217 0.343203 2.85138 1.83538 0.671172 0 0 0 -1.07812 1.48817 -0.520573 
218 0.188135 2.60236 1.94756 0.653437 0 0 0 -1.42613 0.76557 -0.0978983 
468 0.852822 2.30966 1.85529 0.453563 0 0 0 -2.19989 1.12482 0.887573 
204 0.982445 2.13674 1.79705 0.40018 0 0 0 -3.11395 1.07115 0.48973 
221 0.781365 2.16855 1.99554 0.461677 0 0 0 -1.81781 -0.142125 1.89157 
222 0.87465 2.13024 1.82114 0.418687 0 0 0 -2.52249 0.608036 0.876312 
223 0.648262 1.75377 1.7334 0.42543 0 0 0 -0.647274 -0.244297 0.582308 
246 1.14636 1.78049 1.58 0.313137 0 0 0 -0.965166 1.31978 0.383851 
104 0.233991 1.55829 2.31381 0.605701 0 0 0 -0.273966 -0.332354 0.943822 
226 1.33009 3.06354 2.06162 0.626229 0 0 0 -0.383247 1.88234 0.0383589 
227 0.147303 1.58649 2.08044 0.590156 0 0 0 -0.739003 -0.333811 0.957698 
234 1.08919 1.77501 1.65727 0.327879 0 0 0 -0.110917 5.13788 -13.788 
238 1.01266 1.72345 1.58265 0.333681 0 0 0 1.23753 1.37743 -3.74659 
321 1.32126 2.33261 1.84131 0.409753 0 0 0 -2.19709 3.09489 1.05822 
475 0.852228 2.20785 1.83084 0.434528 0 0 0 -2.39333 0.831153 0.936035 
476 1.236 2.27058 2.30391 0.488503 0 0 0 -0.670084 -0.591783 2.29733 
189 0.782457 2.23929 1.56137 0.444168 0 0 0 -1.2252 1.24327 -1.1248 
239 1.34951 1.89791 1.62616 0.304186 0 0 0 -5.24261 3.48683 3.25115 
328 1.239 2.61189 1.80516 0.480289 0 0 0 -1.13665 2.5566 -0.28972 
185 0.0296397 2.45809 1.54539 0.667552 0 0 0 -1.48896 0.759407 -0.529478 
337 1.08117 2.12647 1.79494 0.384858 0 0 0 -3.71947 1.54276 0.134496 
462 1.49401 3.28882 1.96819 0.696855 0 0 0 -0.327516 1.9614 -0.25265 
168 1.33186 1.85861 1.63155 0.298784 0 0 0 -4.91572 3.881 2.86717 
247 1.21227 2.26016 1.82707 0.399113 0 0 0 -3.19408 2.60095 0.841893 
177 1.34232 2.09073 1.75652 0.35018 0 0 0 -4.1041 3.77393 -1.22947 
485 1.5067 2.80876 2.33205 0.58372 0 0 0 0.0957318 0.929001 1.38009 
264 1.3721 2.2453 1.827 0.387488 0 0 0 -2.45618 3.42764 0.951637 
69 1.4045 2.22361 1.82304 0.381679 0 0 0 -2.28865 3.58824 0.832443 
483 1.42127 2.31224 1.83497 0.402121 0 0 0 -1.57739 3.46077 1.19425 
350 1.439 2.29198 1.83174 0.397129 0 0 0 -1.5188 3.54181 1.19898 
249 0.810741 1.71806 2.34598 0.511764 0 0 0 1.12858 -0.642092 -0.195669 
420 1.11137 1.94425 1.68019 0.344427 0 0 0 -3.58152 1.60296 -2.54944 
240 1.4289 1.99381 1.67738 0.320757 0 0 0 -4.04907 3.95808 0.323823 
300 1.51917 1.67207 1.57346 0.245251 0 0 0 -3.20704 2.24151 -0.654972 
398 1.51864 1.67007 1.57264 0.244757 0 0 0 -3.21545 2.19096 -0.696958 
29 0.0998275 1.58839 1.57877 0.564952 0 0 0 -1.3413 0.01044 0.2517 
224 1.11369 1.66991 1.54005 0.307839 0 0 0 2.25696 1.35891 0.489382 
111 0.951807 1.52523 1.75501 0.365734 0 0 0 2.94897 3.99116 -11.4177 
105 1.42238 1.7449 1.56871 0.264088 0 0 0 -3.21248 2.29612 8.89146 
172 1.02342 1.85688 1.56822 0.344258 0 0 0 -0.614854 -1.55378 3.58438 
153 1.36635 1.72335 1.67666 0.280183 0 0 0 -1.66269 12.4712 -21.7888 
341 1.49773 1.55245 1.52725 0.220826 0 0 0 -2.06954 -1.20871 -1.11612 
144 1.49737 1.55543 1.52765 0.221191 0 0 0 -2.02488 -1.23637 -0.917558 
332 1.49424 1.56548 1.53147 0.222689 0 0 0 -0.540165 -0.877762 -0.94273 
486 1.5315 1.94567 2.1528 0.420411 0 0 0 -0.552494 0.806655 -5.18613 
336 1.53234 1.71296 1.59081 0.255617 0 0 0 -2.86222 3.06773 0.0555491 
80 1.4976 1.55014 1.52642 0.220532 0 0 0 -2.00229 -1.22067 -1.11116 
232 0.492161 2.02195 2.69548 0.64261 0 0 0 -0.0745517 -0.804797 1.41707 
233 0.819152 1.89518 2.82464 0.638635 0 0 0 0.440494 -0.774787 1.02629 
255 -0.0545554 2.84034 2.49112 0.830805 0 0 0 -1.33128 0.662497 0.395597 
266 0.366654 1.98499 2.58794 0.636922 0 0 0 -0.320955 -0.749401 1.30896 
236 1.10598 2.61864 2.76414 0.651239 0 0 0 -0.0563246 -0.167822 1.86496 
237 0.373431 2.44496 2.4469 0.637517 0 0 0 -0.879452 -0.195094 1.14202 
262 0.719178 1.67966 2.53177 0.568063 0 0 0 0.926257 -0.484218 0.339182 
254 0.214177 2.73861 3.11696 0.891495 0 0 0 -0.712478 0.273398 1.45051 
118 0.0283941 1.48111 2.6882 0.743107 0 0 0 -0.653588 -0.166582 1.01434 
241 0.939423 2.12978 3.11426 0.728297 0 0 0 0.137852 -0.661526 1.5426 
265 0.0329572 3.01139 2.61218 0.868522 0 0 0 -1.12544 0.909763 0.525481 
243 0.559649 3.01397 2.64266 0.760243 0 0 0 -0.508847 1.0028 0.858373 
244 -0.0538443 3.17008 2.96979 1.01469 0 0 0 -0.989225 0.906803 0.853318 
245 1.25688 2.18075 2.86042 0.631952 0 0 0 -0.0454015 -0.976665 1.37669 
256 0.0639234 2.93295 2.98771 0.92831 0 0 0 -0.938698 0.617745 1.10111 
260 -0.06846 2.86215 2.72929 0.88498 0 0 0 -1.22646 0.592823 0.736879 
248 0.535508 2.66342 2.98131 0.774498 0 0 0 -0.342589 0.0705738 1.64874 
507 1.514 2.78544 2.91086 0.71764 0 0 0 0.00160646 0.241191 1.77999 
258 0.563516 2.96535 3.08817 0.865751 0 0 0 -0.34453 0.623049 1.47813 
251 0.511305 2.47669 2.63315 0.654783 0 0 0 -0.499792 -0.285977 1.47389 
252 -0.111922 2.39186 2.39214 0.75658 0 0 0 -1.48802 -0.0397614 0.500068 
253 1.04036 3.18639 2.78128 0.794804 0 0 0 -0.14695 1.14523 1.12596 
267 1.82892 0.385598 0.477781 0.596852 0 0 0 -0.154233 -0.0364205 -2.08402 
268 2.77883 0.405526 0.286065 0.786131 0 0 0 1.25567 -0.459815 -1.24518 
269 2.2067 0.0402874 -0.170096 0.890931 0 0 0 0.374261 -0.769617 -1.63992 
270 2.56706 0.0594592 -0.0701715 0.91177 0 0 0 0.827071 -0.80159 -1.41336 
291 2.17938 0.517071 -0.0151453 0.745446 0 0 0 0.104543 -0.0265119 -1.80515 
272 2.88249 0.826455 0.434377 0.720699 0 0 0 1.24072 0.0309673 -1.12 
273 1.72709 1.05679 0.271323 0.594022 0 0 0 -0.639117 0.752343 0.272416 
295 2.1713 1.36023 0.380862 0.583848 0 0 0 -1.32071 0.225613 0.267945 
275 2.66357 -0.0269317 -0.0018165 0.933267 0 0 0 0.95208 -0.903046 -1.25184 
276 1.80978 0.0752488 0.048321 0.778948 0 0 0 -0.0838288 -0.687911 -1.77597 
294 1.7398 1.32132 0.468051 0.539316 0 0 0 -1.13501 0.0486561 2.88232 
278 1.84913 0.118939 -0.0193106 0.792008 0 0 0 -0.0537305 -0.613859 -1.7987 
279 2.175 0.767303 0.422034 0.586648 0 0 0 -0.127559 0.711322 -1.57241 
290 2.36632 1.24236 0.156961 0.668461 0 0 0 -0.46667 0.307248 -0.928695 
281 2.44926 1.10437 0.372458 0.618622 0 0 0 -0.226715 0.581784 -1.09595 
289 2.44023 0.7443 0.53965 0.597763 0 0 0 0.576945 0.387539 -1.48425 
292 2.33956 0.902122 0.628317 0.547957 0 0 0 0.151948 0.787026 -1.36184 
284 1.63517 0.788281 0.385012 0.57014 0 0 0 -0.509413 0.940158 -0.962225 
285 2.84963 1.17716 0.0625934 0.791308 0 0 0 0.715079 0.0555132 -1.2482 
286 1.78723 0.48572 0.444941 0.587349 0 0 0 -0.294071 0.282615 -2.06147 
287 2.57698 1.17322 0.482564 0.61156 0 0 0 0.0428273 0.539607 -1.02998 
288 2.12027 0.470308 0.103732 0.706466 0 0 0 0.0548179 -0.0096024 -1.83867 
283 2.43674 -0.0381365 0.797334 0.720709 0 0 0 1.11703 -1.28518 -0.55813 
297 2.10952 0.404044 1.31447 0.50788 0 0 0 1.90418 -1.28955 1.10996 
298 2.93 0.378402 1.22614 0.699641 0 0 0 1.80703 -0.768697 0.103676 
299 2.17784 0.794496 1.15772 0.446812 0 0 0 3.04159 -0.0321296 -0.486602 
326 2.16131 0.241583 1.27565 0.557614 0 0 0 1.36201 -1.47809 0.89772 
421 1.83955 1.44085 1.50274 0.295547 0 0 0 -2.29164 -3.41397 -0.0469281 
302 2.2023 0.171771 1.03879 0.593098 0 0 0 1.23412 -1.3282 -0.190313 
409 1.68109 1.13812 1.38277 0.302337 0 0 0 7.62339 -3.4749 0.201416 
304 2.56841 0.907698 0.967205 0.532659 0 0 0 1.36615 0.342831 -0.843718 
327 2.48296 0.0221921 1.06097 0.685998 0 0 0 1.27707 -1.34476 -0.00759007 
271 2.03989 0.860397 1.25086 0.407327 0 0 0 4.83332 -0.126286 -0.0685227 
325 1.98594 0.355554 1.00005 0.521513 0 0 0 1.37386 -1.15539 -1.03989 
308 1.84277 0.353848 1.39549 0.497793 0 0 0 1.14379 -1.6753 1.55098 
309 2.88629 1.00557 1.17505 0.59401 0 0 0 1.74578 0.142722 -0.10238 
352 2.8534 1.20475 1.47988 0.560577 0 0 0 1.76107 0.0542389 0.516978 
311 2.00273 0.716305 0.965151 0.458608 0 0 0 2.42612 -0.00756421 -1.77904 
312 2.53391 1.33844 0.846886 0.525579 0 0 0 -0.117253 0.54845 -0.597103 
293 2.42309 1.11164 0.861817 0.504926 0 0 0 0.210291 0.810975 -0.879138 
324 1.62813 -0.0597943 0.885017 0.633872 0 0 0 -0.114653 -1.61403 -0.685114 
315 2.60039 1.07859 1.23024 0.500886 0 0 0 1.63796 0.261153 -0.0845734 
316 2.72627 0.872234 1.06806 0.566481 0 0 0 1.68888 0.0840488 -0.3909 
317 2.17447 0.00895893 1.26039 0.630984 0 0 0 0.83351 -1.67302 0.738093 
345 2.10887 1.08501 1.35917 0.384713 0 0 0 3.1561 0.531141 0.357395 
323 2.38134 0.331228 1.45359 0.569985 0 0 0 1.39883 -1.12544 1.28539 
455 2.55583 1.28173 1.36755 0.472766 0 0 0 1.5134 0.132497 0.181881 
435 2.27638 1.22552 1.31462 0.411361 0 0 0 0.998434 0.0653715 0.565529 
448 2.20141 1.19778 1.32868 0.395788 0 0 0 1.29401 0.0629826 0.913631 
330 2.12818 0.96826 1.33153 0.403423 0 0 0 3.6932 0.31749 0.284998 
333 2.02458 1.08667 1.30522 0.371338 0 0 0 4.55197 0.0173717 1.82274 
320 2.05153 1.24466 1.39438 0.356997 0 0 0 1.45076 -0.218066 1.67611 
85 1.93765 0.688031 1.22732 0.424792 0 0 0 4.19065 -1.03478 -0.384193 
72 1.85277 0.835644 1.34412 0.381421 0 0 0 5.99019 -0.139306 -1.5847 
280 1.92793 1.15719 0.954505 0.41854 0 0 0 0.282084 -0.515794 5.51777 
282 1.82596 1.09003 1.37787 0.331793 0 0 0 7.6814 0.0356645 -2.08897 
58 1.53876 0.410764 0.794838 0.520964 0 0 0 -0.628858 -0.813616 -2.48369 
7 1.78036 0.749634 1.18988 0.399085 0 0 0 4.57943 -1.93014 -1.07285 
175 1.68619 0.702476 1.18442 0.402966 0 0 0 3.05546 -2.53242 -1.39665 
151 1.67337 0.694866 1.1842 0.404023 0 0 0 2.8038 -2.59515 -1.42881 
102 1.68173 0.685802 1.18739 0.406092 0 0 0 2.83241 -2.534 -1.39633 
401 1.68762 1.21331 1.38462 0.290457 0 0 0 6.15682 -7.39865 9.30986 
431 1.82256 1.38594 1.47812 0.294163 0 0 0 -1.17711 -3.90117 1.5039 
230 1.56872 0.814 1.19065 0.375188 0 0 0 1.90277 -3.5116 -0.549903 
402 1.95157 1.39056 1.18272 0.365166 0 0 0 -1.92906 -6.34771 17.6063 
61 2.0614 1.43225 1.48035 0.347743 0 0 0 -1.14327 -1.58252 0.681182 
305 2.1485 1.42894 1.51639 0.368185 0 0 0 -0.452546 -0.690371 -0.938505 
89 2.19201 1.4391 1.48267 0.378191 0 0 0 -0.208974 -1.02962 0.25772 
363 1.70563 1.42061 1.51264 0.263064 0 0 0 1.53705 23.0471 -69.057 
500 2.10569 1.32174 1.88392 0.412449 0 0 0 -1.33942 1.80845 -6.18361 
355 2.35839 0.184454 1.86312 0.634469 0 0 0 0.366738 -1.07698 1.05966 
381 3.11612 1.01979 2.35073 0.739095 0 0 0 1.30338 -0.262206 0.688373 
331 2.87923 0.0788086 2.06589 0.792852 0 0 0 1.08629 -1.15043 0.61145 
364 1.76963 0.735986 2.16029 0.517309 0 0 0 -0.565319 2.08265 -2.7699 
456 2.33967 1.28734 1.85279 0.452111 0 0 0 -0.021888 -0.0187247 -0.567961 
334 2.84871 0.650639 1.56623 0.619734 0 0 0 1.61387 -0.526183 0.796473 
379 2.85971 0.751268 2.16119 0.662739 0 0 0 0.956952 -0.296403 0.716311 
357 2.79171 1.1106 1.69074 0.555739 0 0 0 1.47421 -0.156925 0.974873 
349 2.50806 1.06994 1.68912 0.485856 0 0 0 1.0479 -0.242863 1.07404 
338 2.91328 1.04907 1.57017 0.592007 0 0 0 1.69158 -0.0901477 0.716274 
339 2.60637 0.208207 1.78259 0.663657 0 0 0 0.880232 -1.09939 0.930337 
340 2.03196 0.919073 1.73825 0.42777 0 0 0 0.609969 2.04136 -2.76098 
380 2.25571 1.36196 2.17207 0.492287 0 0 0 -0.922227 0.22702 -1.48846 
356 2.53184 0.904635 2.0194 0.548951 0 0 0 0.229636 -0.0732974 0.595441 
359 2.00327 -0.0960494 2.15981 0.722346 0 0 0 0.0087392 -1.20848 0.524028 
344 2.80142 -0.0437775 2.11852 0.816014 0 0 0 0.909449 -1.29323 0.606338 
348 3.04076 1.33757 1.60003 0.619055 0 0 0 1.74334 -0.105231 0.435843 
346 1.58773 0.374972 1.94495 0.544623 0 0 0 0.0740373 0.361005 0.0551721 
354 2.04635 0.843229 1.58868 0.422712 0 0 0 2.33696 1.06406 -0.593031 
368 2.37677 0.682568 2.36623 0.614731 0 0 0 -0.272389 0.0967312 0.0449331 
366 1.71032 1.38229 2.04881 0.405712 0 0 0 -1.48463 7.0636 -20.358 
371 2.18583 0.971473 2.33558 0.551661 0 0 0 -0.95156 0.813094 -1.29553 
377 1.74601 1.18744 1.97101 0.407226 0 0 0 -1.22675 7.54405 -18.0389 
360 1.90747 0.404478 2.3254 0.616732 0 0 0 -0.29093 0.209344 -0.467825 
361 2.15681 1.26107 2.27567 0.509606 0 0 0 -1.32497 0.772344 -2.2214 
335 2.54275 0.223582 1.52697 0.631493 0 0 0 1.20218 -1.16837 0.995509 
384 1.99729 -0.0776356 2.77942 0.849446 0 0 0 0.0754632 -0.817667 0.466725 
376 2.66835 0.594173 2.77916 0.779062 0 0 0 0.370181 -0.267653 0.787295 
375 2.39585 0.989106 2.70504 0.665023 0 0 0 -0.364335 0.253883 0.19019 
362 2.50173 1.42621 2.86667 0.696429 0 0 0 -0.126951 -0.207808 0.712521 
126 1.54709 0.230959 2.44275 0.669908 0 0 0 0.190621 -0.0431532 -0.289624 
383 3.11738 1.16306 2.83543 0.835523 0 0 0 1.03591 -0.275965 0.893806 
365 2.9694 -0.0926746 2.52754 0.942725 0 0 0 0.96467 -1.11937 0.625874 
374 2.49303 0.362288 2.5845 0.739404 0 0 0 0.163744 -0.518965 0.603553 
367 2.83512 -0.0952154 2.44692 0.894593 0 0 0 0.828573 -1.20574 0.63181 
382 2.46012 0.611973 2.90139 0.779646 0 0 0 0.0027849 -0.0960309 0.703894 
369 2.63777 0.58011 2.64824 0.739166 0 0 0 0.331717 -0.276011 0.688815 
373 2.14105 0.726532 2.45078 0.603868 0 0 0 -0.651294 0.5943 -0.680582 
406 2.09112 2.16897 0.430838 0.611265 0 0 0 -1.06552 -1.43413 0.48108 
386 2.0284 2.99123 0.37105 0.772704 0 0 0 -0.203152 0.499827 -0.469322 
387 2.72329 1.69898 0.609381 0.62061 0 0 0 0.125382 -0.139247 -0.670048 
408 1.85314 2.49566 0.317939 0.670082 0 0 0 -0.440772 -0.943478 0.18541 
389 2.18616 3.05826 0.428309 0.790715 0 0 0 -0.0941005 0.695836 -0.557211 
390 2.98317 1.77901 0.535157 0.70793 0 0 0 0.849919 -0.129262 -0.779548 
391 2.11535 1.83161 0.648481 0.532528 0 0 0 -2.13316 -1.78885 1.75413 
403 2.5459 2.18679 0.119718 0.751349 0 0 0 -0.0754439 -0.411451 -0.815081 
393 2.66093 2.28842 0.183067 0.764201 0 0 0 0.173617 -0.24673 -0.873341 
405 2.78811 3.02173 -0.12111 1.01931 0 0 0 0.448673 0.483325 -0.802746 
395 1.81381 2.31843 0.625906 0.567286 0 0 0 -0.975017 -2.06635 1.31379 
396 2.10804 2.72738 0.663082 0.647388 0 0 0 -0.447569 -0.023324 -0.398823 
397 2.16783 2.01056 -0.00250724 0.730131 0 0 0 -0.551793 -0.80893 -0.326934 
407 3.03609 2.65996 0.0661388 0.941519 0 0 0 0.752089 0.242115 -0.877936 
399 2.55634 2.07553 0.339482 0.678296 0 0 0 -0.217672 -0.510649 -0.662334 
400 3.03867 3.09633 0.0948072 1.03121 0 0 0 0.703317 0.615642 -0.726262 
404 2.54911 1.82912 0.135102 0.717734 0 0 0 -0.227235 -0.383332 -0.795856 
392 1.64898 1.70196 1.30221 0.313692 0 0 0 -4.39489 -24.5648 61.7666 
347 1.74968 2.58561 1.44171 0.482406 0 0 0 -0.442367 0.909035 -1.16965 
470 3.18034 2.73685 1.51285 0.777332 0 0 0 1.36502 0.545235 -0.283495 
412 2.83895 2.70487 0.904632 0.719795 0 0 0 0.791077 0.47695 -0.69504 
413 2.99686 2.31763 1.18363 0.663644 0 0 0 1.32584 -0.0830895 -0.625408 
414 2.35624 1.78558 1.13988 0.461764 0 0 0 -0.742106 -1.47686 0.0408118 
415 2.1873 1.95171 0.959636 0.482595 0 0 0 -2.14011 -2.22292 1.05729 
416 1.76813 2.56766 1.21183 0.503755 0 0 0 -0.959944 -0.469324 -0.75556 
454 1.96176 3.07035 1.40585 0.634753 0 0 0 -0.187829 1.48751 -0.880988 
427 1.90156 2.97811 1.41373 0.600579 0 0 0 -0.275439 1.39299 -1.01348 
419 3.09087 2.31628 1.28366 0.685428 0 0 0 1.47357 -0.09078 -0.50245 
457 2.18048 2.18526 1.39274 0.445662 0 0 0 0.664363 -0.848593 -0.804447 
411 1.77754 1.4971 1.51758 0.279061 0 0 0 -3.50445 -3.86771 0.147852 
422 2.52327 1.82722 0.892715 0.53417 0 0 0 -0.488508 -0.711624 -0.445575 
423 2.22281 3.17064 1.41836 0.692846 0 0 0 0.211832 1.49872 -0.625274 
424 1.98908 2.69972 0.785545 0.609122 0 0 0 -0.644643 -0.213526 -0.311736 
425 2.52502 2.65947 0.978217 0.634302 0 0 0 0.284958 0.379811 -0.819756 
426 2.16556 2.22827 1.02762 0.500696 0 0 0 -1.39632 -1.51877 -0.245639 
446 2.15404 1.47217 1.43062 0.370646 0 0 0 -0.758221 -2.07811 2.30961 
441 3.15009 2.03261 1.39372 0.670917 0 0 0 1.68532 -0.393166 -0.32168 
429 2.28301 3.01718 0.83094 0.710769 0 0 0 -0.0175299 0.880803 -0.645501 
430 3.24666 2.98694 1.29672 0.866167 0 0 0 1.22318 0.801656 -0.328426 
449 2.29124 2.24049 1.41349 0.472486 0 0 0 0.979806 -0.238193 -1.01197 
388 1.59812 2.19684 1.01815 0.463188 0 0 0 -1.12522 -4.52475 4.551 
433 2.03728 1.73802 1.21704 0.390802 0 0 0 -3.06219 -5.99427 9.07365 
434 1.60082 2.73668 1.06615 0.558629 0 0 0 -0.646773 -0.104373 -0.507379 
432 2.37388 1.88404 1.34991 0.447539 0 0 0 0.877472 -1.5596 -0.547241 
436 3.01036 2.09203 0.84311 0.681813 0 0 0 1.07792 -0.223396 -0.688413 
437 2.8462 1.57157 0.96614 0.587292 0 0 0 0.941015 0.0775407 -0.5855 
438 2.85549 2.16438 1.42914 0.5892 0 0 0 1.62874 -0.368375 -0.503897 
439 3.06985 3.26361 1.23339 0.897856 0 0 0 0.949551 1.11242 -0.325503 
440 2.10109 2.01539 0.939848 0.48386 0 0 0 -2.3446 -2.61684 1.56009 
458 2.1452 2.40779 1.42054 0.480222 0 0 0 0.452021 0.37592 -1.04742 
464 2.20089 2.07552 1.39204 0.431482 0 0 0 0.776257 -1.57499 -0.489551 
443 2.5877 1.94946 2.09056 0.53552 0 0 0 1.22741 -0.883238 1.06621 
444 2.84859 1.46505 1.86655 0.570206 0 0 0 1.47552 -0.495901 0.741075 
445 2.81527 2.21551 2.12929 0.614387 0 0 0 1.2189 -0.376545 0.618613 
310 1.78293 2.08928 1.76574 0.364645 0 0 0 2.92974 1.76754 -0.104242 
372 1.61022 2.19643 1.81033 0.377706 0 0 0 0.390861 3.52849 0.842819 
296 2.37676 1.99588 1.7502 0.454789 0 0 0 2.73145 -0.912859 0.691394 
471 1.98874 1.90614 1.68087 0.358624 0 0 0 3.68288 -2.27054 -0.855788 
450 2.67999 1.85887 1.96779 0.537545 0 0 0 1.57152 -0.979871 0.850325 
182 1.64286 1.88949 1.64867 0.302926 0 0 0 0.631917 1.14017 2.03372 
452 2.1188 2.90997 1.68517 0.592221 0 0 0 0.466514 1.44555 -0.398897 
453 1.56027 2.45095 2.19981 0.487033 0 0 0 0.35406 0.827446 2.32805 
469 2.08406 1.70843 2.0562 0.431066 0 0 0 0.0260415 -0.355298 -3.08901 
343 2.09717 1.70347 1.57754 0.360074 0 0 0 0.92176 -3.6062 0.0492597 
481 2.16302 2.25178 1.79843 0.451736 0 0 0 2.75701 0.771822 1.11109 
467 1.86345 2.6493 1.66668 0.49596 0 0 0 0.528526 1.845 -0.479492 
378 1.78868 2.33534 1.81544 0.420985 0 0 0 1.83517 2.73103 1.37879 
459 3.15663 2.7618 2.17728 0.803689 0 0 0 1.3311 0.599009 0.259745 
277 1.76728 1.99982 1.70693 0.340649 0 0 0 3.00521 0.914899 -1.08493 
461 1.65114 2.97998 1.7122 0.580967 0 0 0 -0.214527 1.91986 -0.769164 
263 1.87894 1.99472 1.72044 0.355844 0 0 0 3.87615 -0.294748 -0.870065 
261 1.68405 1.99278 1.69119 0.329301 0 0 0 1.71211 1.80487 -0.603901 
176 1.90639 1.54435 1.53657 0.311142 0 0 0 -2.19452 -3.76108 0.588454 
465 1.96042 2.96194 1.89533 0.597781 0 0 0 0.44138 1.55929 0.0162131 
466 2.24247 3.2713 1.79524 0.726834 0 0 0 0.419267 1.6269 -0.194179 
319 2.24974 1.91453 1.63878 0.411731 0 0 0 2.9167 -1.83122 0.106641 
478 2.18734 3.04935 2.25826 0.683236 0 0 0 0.539363 1.21412 0.572473 
484 1.90492 2.64751 2.31714 0.562311 0 0 0 0.647537 0.48975 1.45391 
187 2.1303 2.09995 1.70539 0.413708 0 0 0 3.45102 -0.361868 0.630721 
509 3.29296 2.84291 2.26144 0.875195 0 0 0 1.37373 0.653914 0.329602 
488 2.31766 1.87768 1.72535 0.42917 0 0 0 2.78256 -1.52838 0.406025 
492 2.70859 2.30871 2.28735 0.620861 0 0 0 0.893956 -0.213793 0.823941 
494 2.94686 2.34984 2.28063 0.684459 0 0 0 1.18416 -0.127239 0.575904 
504 2.87671 1.9456 2.27657 0.631952 0 0 0 1.10362 -0.739896 0.756517 
199 1.89314 1.96045 1.70229 0.351186 0 0 0 3.8954 -0.926793 -1.12825 
120 1.67258 1.96379 1.67438 0.321487 0 0 0 1.4592 1.53504 -0.0075237 
442 2.28183 1.67739 1.7112 0.410209 0 0 0 1.68408 -1.5951 -0.505128 
498 2.04613 1.55965 1.9778 0.409442 0 0 0 -0.910678 1.08492 -7.14692 
487 1.91916 2.03369 2.33112 0.488956 0 0 0 0.0326341 -0.698223 0.224873 
209 2.03145 1.7059 1.5911 0.345966 0 0 0 0.866138 -3.849 -0.484559 
36 2.10178 2.14084 1.72251 0.416344 0 0 0 3.40657 0.0971844 0.774117 
191 1.67811 1.96819 1.67706 0.323024 0 0 0 1.57661 1.52189 -0.149621 
417 2.33714 2.53508 1.7657 0.533533 0 0 0 1.30009 0.973369 0.259029 
451 2.99114 2.22371 1.53029 0.633451 0 0 0 1.65107 -0.275926 -0.312238 
259 1.58512 1.88707 1.64908 0.297929 0 0 0 -0.810635 2.34892 2.43836 
463 1.58447 1.95968 1.66739 0.313834 0 0 0 -0.644186 2.58972 1.3184 
307 1.54446 1.74375 1.60346 0.263562 0 0 0 -2.47021 3.24107 0.806224 
220 1.54373 1.74204 1.60278 0.263122 0 0 0 -2.49458 3.24122 0.762682 
496 2.03147 2.50601 2.78624 0.657584 0 0 0 0.031048 -0.181219 1.52989 
472 2.0747 1.79642 2.63684 0.574765 0 0 0 -0.77921 -0.595598 -0.076385 
473 1.75625 1.5959 2.58876 0.549215 0 0 0 -1.1777 0.121217 -2.34785 
474 2.95854 3.17647 2.68346 0.934253 0 0 0 0.901267 1.04183 0.755755 
497 1.61663 1.94128 2.57965 0.539007 0 0 0 -0.635572 -1.02515 -0.520631 
502 2.22662 2.57159 2.71503 0.667084 0 0 0 0.220397 0.0468184 1.38664 
477 3.17713 2.0138 2.59479 0.781977 0 0 0 1.29713 -0.453759 0.857129 
513 2.63016 3.02979 3.05944 0.919995 0 0 0 0.557671 0.805127 1.277 
479 1.80985 1.75127 2.417 0.49856 0 0 0 -1.15682 -0.3566 -2.63221 
501 1.6536 2.45381 3.00118 0.698249 0 0 0 -0.144848 -0.376349 1.73338 
503 2.03372 3.1535 2.47845 0.734324 0 0 0 0.328417 1.26102 0.849387 
482 1.57532 3.16057 3.12964 0.875847 0 0 0 0.0454362 0.862648 1.49568 
511 3.00814 2.13234 2.41307 0.70201 0 0 0 1.18574 -0.463516 0.754334 
510 2.10249 2.54653 2.61071 0.62352 0 0 0 0.225986 -0.0462937 1.38352 
508 2.62305 1.96044 3.05692 0.77212 0 0 0 0.282786 -0.409105 1.38037 
505 3.15567 2.91939 3.22206 1.06051 0 0 0 0.887148 0.587056 1.13087 
499 1.80691 1.78436 2.91322 0.645105 0 0 0 -0.705521 -0.515544 0.136789 
495 2.94831 1.72933 2.79659 0.75814 0 0 0 0.827139 -0.506839 1.07248 
489 3.12957 1.50361 3.00017 0.868008 0 0 0 0.959276 -0.334802 1.04647 
490 2.37284 2.40854 2.58346 0.629826 0 0 0 0.30474 -0.181172 1.22528 
491 2.27434 1.49882 2.74564 0.62995 0 0 0 -0.618183 -0.160353 0.104056 
506 1.97648 2.06882 3.04671 0.700277 0 0 0 -0.385137 -0.559223 1.21409 
493 3.07267 3.01074 2.79147 0.943092 0 0 0 1.00008 0.817251 0.886014 
480 2.35966 2.25058 2.39424 0.569219 0 0 0 0.406851 -0.387129 1.22442 
ITEM: TIMESTEP
800984
ITEM: NUMBER OF ATOMS
512
ITEM: BOX BOUNDS ss ss ss
-2.2775349561678951e-01 3.2932607586404616e+00
-4.0122540508749138e-01 3.2891132425832117e+00
-1.7039273299291779e-01 3.2223573019164853e+00
ITEM: ATOMS id x y z width_SPH x_COM y_COM z_COM vx vy vz 
23 0.539287 1.16104 0.372782 0.613015 0 0 0 0.633792 -0.0976485 -0.569984 
3 -0.140329 -0.124433 0.0939745 1.0357 0 0 0 -1.01066 -0.934131 -0.881349 
4 1.1215 0.71024 0.26551 0.622553 0 0 0 0.00936202 0.209777 -1.02935 
5 0.225459 1.27088 -0.0394006 0.782509 0 0 0 -0.197427 -0.301969 -0.966502 
6 0.0115269 1.14394 0.376959 0.727352 0 0 0 -0.762225 -0.268019 -0.705388 
22 0.128621 1.05029 0.0596008 0.785116 0 0 0 -0.507385 -0.42431 -0.970665 
8 0.686461 0.733455 -0.039195 0.747513 0 0 0 0.0953307 -0.433148 -1.18304 
9 1.3567 -0.241853 0.263493 0.804205 0 0 0 -0.298894 -1.18641 -1.40896 
10 -0.0863153 -0.263405 0.0260456 1.0737 0 0 0 -0.931972 -0.985732 -0.901909 
11 0.920705 1.15036 -0.028525 0.696436 0 0 0 0.752232 -0.165344 -0.4351 
12 0.461886 1.343 0.164184 0.674423 0 0 0 0.502727 -0.20417 -0.606947 
13 0.278629 -0.299308 0.200453 0.957906 0 0 0 -0.806303 -1.14363 -1.01852 
14 0.972038 1.22081 0.390069 0.568523 0 0 0 1.27038 0.142481 0.81274 
15 1.08249 0.66997 0.304809 0.617964 0 0 0 -0.0679015 0.142886 -1.16072 
16 0.612757 -0.235827 0.244741 0.869624 0 0 0 -0.630659 -1.16659 -1.20389 
17 0.87827 0.253888 0.00523006 0.783181 0 0 0 -0.29861 -0.660962 -1.49784 
18 0.562191 0.565603 0.356094 0.673121 0 0 0 -0.327156 -0.544901 -1.23564 
274 1.4895 1.31441 0.568085 0.508709 0 0 0 -0.206609 -0.281928 4.84904 
20 0.679389 0.94068 0.297781 0.628463 0 0 0 0.463989 -0.143625 -0.766455 
62 1.19143 1.02676 0.635985 0.499497 0 0 0 0.00573181 0.577716 1.37852 
50 0.549988 -0.38103 0.627224 0.850632 0 0 0 -0.738657 -1.36615 -0.856487 
31 -0.0666975 1.19079 0.657986 0.694831 0 0 0 -0.999903 -0.099949 -0.584642 
44 0.384567 0.857337 0.611346 0.611979 0 0 0 -0.31797 -0.37375 -1.12026 
24 1.01877 -0.213783 1.39568 0.679354 0 0 0 -0.123983 -1.69285 0.603276 
353 1.43469 1.07795 1.35086 0.306617 0 0 0 -0.477951 -3.56897 0.635974 
26 -0.135936 1.02548 1.49494 0.658913 0 0 0 -1.52793 0.0880292 0.0612303 
27 0.398738 1.14913 0.832391 0.54623 0 0 0 -0.0929872 0.0261906 -1.24835 
28 0.947156 0.225 1.38726 0.550773 0 0 0 -0.881507 -1.47364 0.742559 
91 0.800643 1.12867 1.21354 0.410233 0 0 0 -0.998722 -0.848648 -0.341456 
303 1.47401 1.06097 1.34497 0.308979 0 0 0 0.971354 -3.79485 0.770874 
65 0.669835 0.471783 1.33838 0.530129 0 0 0 -1.15561 -1.29714 0.0919621 
32 0.390327 -0.347397 1.28432 0.809109 0 0 0 -0.778098 -1.47594 -0.132803 
33 0.747582 -0.211897 1.15272 0.709653 0 0 0 -0.599484 -1.55106 -0.195153 
173 0.93622 0.960756 1.29479 0.396883 0 0 0 -3.46724 -1.14492 -0.810995 
35 1.49751 0.0185854 0.818713 0.616275 0 0 0 -0.421803 -1.4179 -1.15815 
21 1.50709 1.44184 1.49138 0.220515 0 0 0 0.244811 1.59313 0.621999 
154 1.32469 1.31545 1.43484 0.268891 0 0 0 1.65045 2.35725 -4.96253 
38 0.219852 1.02869 0.800811 0.601115 0 0 0 -0.640089 -0.169664 -1.01705 
39 -0.227457 0.894409 1.43968 0.703332 0 0 0 -1.58737 -0.0297044 -0.084907 
2 1.14968 0.675242 1.21354 0.426026 0 0 0 -4.14288 -2.31408 -1.38035 
351 0.859146 1.19146 1.32514 0.381097 0 0 0 -0.728028 -0.46424 0.443743 
42 0.799969 1.37177 1.32996 0.382826 0 0 0 0.818925 -0.146311 1.0549 
195 1.40658 0.799873 1.18838 0.381449 0 0 0 -2.14161 -3.62158 -0.893406 
318 1.4922 1.06871 1.34922 0.306649 0 0 0 1.80132 -3.84482 0.632987 
45 0.998555 0.22403 1.32982 0.545672 0 0 0 -1.04171 -1.56828 0.537139 
46 0.610447 0.267937 0.790685 0.635116 0 0 0 -0.974948 -0.894096 -1.36007 
47 1.21212 0.915316 0.835748 0.454217 0 0 0 -1.73103 -0.4852 0.98798 
48 0.52662 0.788821 1.37475 0.498783 0 0 0 -1.05291 -1.06537 0.0363311 
250 1.49187 1.08594 1.35641 0.302456 0 0 0 1.96536 -3.83495 0.34536 
79 1.49623 1.36941 1.46082 0.233518 0 0 0 3.64264 0.75802 0.551813 
51 0.476674 1.30496 0.949273 0.506038 0 0 0 0.169099 0.221639 -1.33577 
52 1.29203 0.226355 1.31754 0.525363 0 0 0 -0.907438 -1.9114 0.784915 
53 -0.0398836 0.626633 1.25892 0.678803 0 0 0 -1.45044 -0.441292 -0.414637 
54 1.02301 -0.400929 1.42876 0.74746 0 0 0 0.00505615 -1.74379 0.513757 
385 1.48525 1.28967 1.43147 0.252412 0 0 0 3.42425 -2.10621 0.491927 
56 1.27652 0.103594 1.02254 0.574014 0 0 0 -0.869686 -1.66904 -0.734838 
178 0.995025 1.43603 1.45857 0.329985 0 0 0 2.91027 1.35586 0.624059 
115 1.50526 1.15042 1.37639 0.287018 0 0 0 3.09593 -4.38421 0.778261 
59 0.618218 0.602603 1.24067 0.51739 0 0 0 -1.31681 -1.26835 -0.596054 
124 1.46275 1.03846 1.3335 0.31495 0 0 0 0.307967 -3.79356 1.08113 
306 1.50773 -0.285863 0.765566 0.723845 0 0 0 -0.127723 -1.6043 -0.682436 
64 0.863756 -0.339053 1.3046 0.736468 0 0 0 -0.275667 -1.69422 0.221024 
119 1.46935 1.29804 1.43364 0.251084 0 0 0 3.24203 -1.6697 0.901514 
313 1.06026 1.33633 1.41902 0.322543 0 0 0 1.09848 0.94699 2.21126 
149 1.36226 1.21564 1.35164 0.287128 0 0 0 -1.32939 -1.55628 -0.8033 
179 1.27092 0.655447 1.19794 0.42036 0 0 0 -3.49662 -2.75727 -1.57715 
106 1.48398 1.28129 1.42805 0.25453 0 0 0 3.33256 -2.41692 0.654391 
322 1.48977 1.08076 1.35422 0.30375 0 0 0 1.82435 -3.82932 0.433025 
19 1.48533 0.42385 1.00494 0.484894 0 0 0 -0.852816 -1.86256 -1.917 
512 1.49419 1.3562 1.4562 0.236441 0 0 0 3.67162 0.312083 0.468828 
301 0.93061 1.30713 1.40803 0.352103 0 0 0 0.844345 0.695867 0.473263 
214 1.39941 0.983957 1.30052 0.332294 0 0 0 -2.34863 -3.66491 1.32701 
77 0.453288 1.43621 1.29507 0.467504 0 0 0 -0.729911 0.322751 -0.756556 
358 0.802633 1.13455 1.1541 0.418094 0 0 0 -0.811623 -0.815761 -0.341108 
81 0.658633 0.594058 1.15419 0.517895 0 0 0 -1.43275 -1.24586 -1.06385 
71 0.654126 1.22741 1.34848 0.421632 0 0 0 -0.47266 -0.274605 -0.36685 
329 0.872551 1.19711 1.34631 0.376297 0 0 0 -0.664043 -0.284518 0.350734 
57 1.51229 0.644706 1.1874 0.412431 0 0 0 -0.122538 -3.05672 -1.62638 
122 1.21656 0.673193 1.20291 0.420713 0 0 0 -3.98097 -2.58499 -1.52532 
74 0.974802 0.845291 1.26176 0.411888 0 0 0 -4.06656 -1.59232 -1.05771 
228 1.19611 1.41564 1.46551 0.28585 0 0 0 3.66143 1.69336 2.54471 
198 0.988603 1.43717 1.45868 0.331366 0 0 0 2.87832 1.25708 0.754248 
165 1.32819 0.926635 1.25837 0.353438 0 0 0 -4.30448 -3.50953 0.956246 
101 1.00028 1.23476 1.37484 0.345701 0 0 0 -1.00814 0.365181 1.1649 
82 0.914214 0.731783 1.19891 0.446423 0 0 0 -3.04121 -1.67023 -1.1938 
229 1.43794 1.01784 1.32157 0.321263 0 0 0 -0.817492 -3.73949 1.25729 
66 0.0779137 -0.209391 2.31731 0.901787 0 0 0 -0.687961 -1.05208 0.580833 
67 0.896591 0.389783 1.98979 0.568993 0 0 0 0.535179 -0.0874258 0.637808 
68 1.03629 0.897861 1.78785 0.431441 0 0 0 0.893002 2.9862 -4.25745 
95 0.398485 -0.0109019 2.10984 0.741994 0 0 0 -0.249933 -0.999985 0.679923 
70 0.431861 1.36488 2.12842 0.534681 0 0 0 0.501936 -0.113959 0.726934 
88 0.0603622 0.335404 2.25425 0.754695 0 0 0 -0.785909 -0.437362 0.780301 
55 0.179153 0.110082 1.56622 0.715516 0 0 0 -0.990365 -1.03048 0.129737 
63 0.0686984 1.42391 1.57716 0.574449 0 0 0 -1.32732 0.122355 0.333585 
87 -0.124825 0.602197 1.97093 0.726215 0 0 0 -1.23339 -0.227807 0.58644 
75 0.134231 1.38274 2.08425 0.597902 0 0 0 -0.600588 -0.1111 0.927891 
86 1.52819 0.494281 1.73489 0.483928 0 0 0 0.0889582 0.601339 0.00429727 
90 0.772494 1.18916 2.00601 0.46751 0 0 0 2.16493 1.08644 -1.69323 
78 0.397217 -0.00262954 2.21456 0.755241 0 0 0 -0.216497 -0.931591 0.705688 
113 0.978003 1.36 2.06099 0.439919 0 0 0 2.96968 2.54523 -6.73467 
93 0.811339 0.804861 2.0233 0.511044 0 0 0 1.24664 0.892038 -0.290606 
92 0.388019 0.389794 1.87057 0.619935 0 0 0 -0.311901 -0.630196 0.888687 
108 1.18119 0.815743 2.12937 0.500497 0 0 0 1.03677 2.73473 -3.26146 
83 0.717763 1.15514 1.91968 0.462905 0 0 0 1.76403 0.737029 -0.786788 
84 0.247414 0.0622366 2.16075 0.758665 0 0 0 -0.490199 -0.85755 0.680794 
96 1.42755 0.839303 1.89149 0.437823 0 0 0 0.31102 5.24128 -7.87359 
127 1.45838 0.642884 2.04465 0.504505 0 0 0 0.179346 2.32783 -2.51019 
34 -0.00995004 0.530522 1.66397 0.680597 0 0 0 -1.25689 -0.447003 0.292411 
60 0.61672 0.958431 1.89369 0.49654 0 0 0 0.906042 0.186401 0.694807 
25 1.06931 0.282779 1.6188 0.537638 0 0 0 -0.332323 -0.974005 1.42412 
76 0.5695 0.905027 1.57236 0.476952 0 0 0 -0.410873 -0.726924 0.959413 
94 0.548014 0.812211 1.57409 0.49466 0 0 0 -0.474159 -0.79915 1.01573 
37 0.451647 1.06436 1.55401 0.483798 0 0 0 -0.71521 -0.3727 0.801551 
49 -0.225094 0.992379 1.53528 0.693612 0 0 0 -1.56995 0.0719924 0.0721438 
125 1.09267 1.35856 2.31577 0.494747 0 0 0 1.87397 1.87923 -4.76185 
370 1.52837 0.876187 2.34622 0.535458 0 0 0 -0.114065 2.66182 -3.73606 
121 1.2299 0.0557178 2.56175 0.739896 0 0 0 0.420628 -0.463436 0.188909 
97 0.741255 0.963635 2.6719 0.641807 0 0 0 0.791087 0.76951 -0.0276655 
98 0.311901 1.033 2.82434 0.738884 0 0 0 -0.0618692 0.189118 0.942203 
99 0.716606 0.024284 2.58279 0.779046 0 0 0 0.238143 -0.650587 0.65158 
100 0.647803 0.403616 2.84607 0.773451 0 0 0 0.218144 0.0516001 0.74854 
128 0.383363 1.44118 2.49723 0.615766 0 0 0 0.291507 -0.114643 0.746913 
131 0.549717 1.23793 2.93584 0.721723 0 0 0 0.375439 0.238878 0.767557 
103 1.03332 0.516067 2.74005 0.695682 0 0 0 0.557482 0.579621 -0.00874504 
130 1.37066 0.46521 2.56845 0.65114 0 0 0 0.363695 0.736506 -0.682338 
114 1.06694 0.880376 2.58087 0.60421 0 0 0 0.894366 1.4752 -1.26373 
129 0.508149 0.0503802 3.07878 0.938568 0 0 0 -0.094392 -0.45257 0.926431 
116 -0.091804 0.828692 2.48471 0.768907 0 0 0 -0.926298 -0.00656105 0.912683 
117 -0.112808 0.373906 2.52757 0.849198 0 0 0 -0.96399 -0.312895 0.858356 
109 0.427185 0.944434 3.03849 0.793868 0 0 0 0.0459965 0.256788 0.963242 
110 0.486302 -0.255057 2.78202 0.938172 0 0 0 -0.121547 -0.936641 0.764151 
123 1.28799 1.23656 2.37885 0.511355 0 0 0 0.834513 2.64146 -5.32616 
112 1.16532 0.424951 2.80165 0.724467 0 0 0 0.467837 0.431165 0.0413172 
162 0.457141 2.5951 0.566884 0.691736 0 0 0 -0.198983 0.795883 -0.433701 
132 0.66222 2.53027 0.217891 0.732798 0 0 0 0.175163 0.271945 -0.335464 
133 0.0922405 1.78605 0.558715 0.665837 0 0 0 -0.455914 0.139877 -0.504161 
134 0.162153 2.01557 0.24243 0.736259 0 0 0 -0.340435 0.197175 -0.589831 
135 1.32373 2.40948 0.4462 0.616066 0 0 0 0.357548 -1.41328 1.05042 
136 1.10481 2.57107 0.555834 0.622616 0 0 0 0.397432 -0.469655 0.464795 
137 0.0490371 2.5059 0.614627 0.758154 0 0 0 -0.886002 0.864015 -0.494783 
138 0.513595 2.21214 0.0647113 0.745661 0 0 0 0.26421 0.00928141 -0.511831 
139 0.291598 2.24804 0.292716 0.722672 0 0 0 -0.186689 0.334738 -0.526094 
140 0.883335 2.73443 0.162877 0.770975 0 0 0 0.129495 0.361211 -0.290009 
141 -0.0439154 2.3866 0.160641 0.86376 0 0 0 -0.835636 0.588509 -0.61265 
142 1.45321 2.54109 0.575779 0.605432 0 0 0 -0.0152764 -1.15817 0.848438 
143 1.27571 2.91643 0.597735 0.687648 0 0 0 -0.0928387 0.533061 -0.00197673 
160 0.794612 3.07601 0.428214 0.804013 0 0 0 -0.207694 1.16477 -0.290258 
145 0.495421 2.00223 0.0139398 0.74095 0 0 0 0.384892 -0.140982 -0.55135 
146 1.33715 2.00136 0.341051 0.601081 0 0 0 0.654429 -2.1093 2.10557 
147 0.766197 1.82077 0.226307 0.636295 0 0 0 1.1953 -0.680011 0.317614 
148 1.26681 3.02295 0.252031 0.79905 0 0 0 -0.0618179 0.640644 -0.233342 
156 0.0923353 1.95726 0.419737 0.705678 0 0 0 -0.503527 0.220006 -0.514311 
150 1.0832 1.84154 0.514012 0.549522 0 0 0 1.65376 -2.03897 2.64031 
155 0.802649 1.62672 0.139302 0.650624 0 0 0 1.20365 -0.523885 0.232136 
161 1.37471 2.00684 0.411128 0.582786 0 0 0 0.554473 -2.40396 2.53747 
159 0.0392296 1.48546 -0.0352887 0.821636 0 0 0 -0.532883 -0.159715 -0.891078 
170 1.13968 2.09623 1.09395 0.44055 0 0 0 1.46604 -3.77866 4.5788 
163 0.512819 2.85755 0.715427 0.721363 0 0 0 -0.362556 1.26009 -0.434139 
202 0.614151 2.0095 1.00203 0.503112 0 0 0 1.1 -0.139522 -1.05798 
167 0.867402 1.79174 1.05682 0.436403 0 0 0 2.56081 -1.83461 2.56783 
225 1.49735 1.51636 1.51443 0.217519 0 0 0 -0.855097 -0.816772 -0.886426 
169 0.925712 1.73867 1.43071 0.356736 0 0 0 1.84672 -1.94819 4.92859 
201 -0.0238963 2.74169 0.921928 0.787359 0 0 0 -1.10162 1.15804 -0.493653 
171 0.344799 1.88397 1.31499 0.510871 0 0 0 -0.752106 0.282538 -1.14346 
183 1.05569 1.45292 1.46249 0.315991 0 0 0 3.41762 1.60686 1.20735 
30 0.792088 1.64482 1.51741 0.376353 0 0 0 1.02632 0.0813639 0.162048 
174 0.20688 1.77876 1.03603 0.567114 0 0 0 -0.476509 0.230796 -1.02289 
210 1.50148 1.47892 1.50125 0.217349 0 0 0 0.564916 0.987529 0.144341 
157 1.18863 2.27084 1.02742 0.478471 0 0 0 0.927582 -2.54604 1.97872 
152 1.07997 2.08941 0.712463 0.523344 0 0 0 1.53882 -2.43134 2.37597 
314 1.50113 1.48138 1.50212 0.21725 0 0 0 0.470123 0.863559 0.0403817 
197 0.0748425 2.23525 1.08021 0.643442 0 0 0 -1.00238 0.595567 -0.809902 
180 0.421876 2.02562 1.49853 0.493812 0 0 0 -1.13647 0.339423 -0.727741 
181 0.627687 2.08579 1.41777 0.456516 0 0 0 -0.4668 0.710724 -1.41783 
428 1.18669 2.56475 1.42784 0.483302 0 0 0 -0.59818 1.18331 -1.62201 
410 1.4991 1.48774 1.50438 0.217078 0 0 0 0.802278 0.610639 -0.0306794 
184 0.816888 2.82807 1.23688 0.60367 0 0 0 -0.226956 1.5711 -1.11908 
460 1.49413 1.50152 1.50836 0.217103 0 0 0 -0.27357 -0.0787337 -0.507092 
186 0.975643 2.81774 1.04021 0.606021 0 0 0 -0.0236917 1.00238 -0.639713 
196 0.570965 1.70122 1.47318 0.43214 0 0 0 -0.553686 0.191681 -0.178876 
188 0.309626 2.5385 1.32084 0.613259 0 0 0 -0.88388 1.28405 -1.11732 
200 0.952341 2.70818 1.14964 0.565976 0 0 0 0.0652673 0.95965 -1.0381 
190 0.811565 1.85976 1.03819 0.453607 0 0 0 2.21277 -1.24135 0.978966 
166 0.578323 1.64115 0.820063 0.51415 0 0 0 1.3796 -0.126794 -0.491418 
192 0.613365 2.06273 1.28737 0.468807 0 0 0 0.152251 0.522651 -1.66709 
193 1.11512 2.50091 1.38662 0.476142 0 0 0 -0.418143 0.868651 -1.5248 
203 1.49709 1.53529 1.52114 0.218902 0 0 0 -1.53174 -1.18343 -1.05412 
208 1.50103 1.48233 1.50246 0.217216 0 0 0 0.443891 0.811345 0.00701717 
41 1.49969 1.49087 1.50544 0.217017 0 0 0 0.111278 0.31818 -0.332424 
342 1.4981 1.50466 1.51029 0.217087 0 0 0 -0.412935 -0.391803 -0.697861 
164 1.49914 1.49496 1.50687 0.216987 0 0 0 -0.043424 0.0850688 -0.462398 
40 1.49907 1.4955 1.50707 0.216987 0 0 0 -0.064143 0.0552043 -0.47818 
219 1.49839 1.50152 1.50918 0.217029 0 0 0 -0.293258 -0.250187 -0.631232 
73 1.49776 1.50903 1.51184 0.217209 0 0 0 -0.578894 -0.56899 -0.778143 
43 0.805602 1.44796 1.37081 0.376498 0 0 0 1.30551 -0.0245694 1.27889 
418 1.50719 1.47294 1.49917 0.217692 0 0 0 -0.374818 0.848131 0.0275273 
158 1.23226 1.80439 1.11314 0.389192 0 0 0 1.38725 -9.68929 21.2886 
394 1.50446 1.487 1.49865 0.217129 0 0 0 -0.307247 0.643341 -1.03986 
107 1.49844 1.45725 1.49537 0.218851 0 0 0 1.73308 1.28188 2.58817 
215 0.540872 2.16283 1.63005 0.479713 0 0 0 -1.42846 0.603989 -0.340471 
447 1.39749 2.80308 2.23838 0.567394 0 0 0 -0.109932 1.23069 1.24134 
205 0.0357112 1.958 2.06486 0.630639 0 0 0 -1.35402 -0.385493 0.701825 
206 1.02526 2.47209 2.29806 0.526081 0 0 0 -0.784607 0.0757833 2.24093 
207 0.438847 2.84841 1.72196 0.648681 0 0 0 -0.970143 1.70349 -0.7193 
257 1.1462 1.73854 1.5693 0.308093 0 0 0 0.151101 1.36675 0.79174 
194 0.555394 1.94539 1.63956 0.452293 0 0 0 -1.32455 0.0738245 0.248943 
235 1.21548 2.18612 2.35238 0.49366 0 0 0 -0.515724 -1.03702 1.78983 
211 0.95635 2.92221 2.05614 0.605035 0 0 0 -0.719779 1.80984 0.0663238 
212 0.453132 2.60916 1.67387 0.582914 0 0 0 -1.16158 1.49544 -0.741548 
213 0.821559 1.77282 1.80143 0.397828 0 0 0 -0.21523 0.0121953 -1.25203 
242 0.400461 2.35909 2.29194 0.595598 0 0 0 -1.03597 -0.27233 1.19629 
231 0.848343 2.32006 2.12815 0.491557 0 0 0 -1.46647 0.000740891 2.18593 
216 1.16683 2.94849 2.0896 0.599368 0 0 0 -0.547754 1.81478 0.245507 
217 0.343203 2.85139 1.83538 0.671172 0 0 0 -1.07812 1.48817 -0.520574 
218 0.188135 2.60236 1.94756 0.653437 0 0 0 -1.42614 0.765571 -0.0978999 
468 0.852822 2.30966 1.85529 0.453563 0 0 0 -2.19988 1.12483 0.887571 
204 0.982444 2.13674 1.79705 0.40018 0 0 0 -3.11393 1.07117 0.489726 
221 0.781365 2.16855 1.99554 0.461677 0 0 0 -1.8178 -0.142121 1.89156 
222 0.874649 2.13024 1.82114 0.418687 0 0 0 -2.52248 0.608052 0.876309 
223 0.648262 1.75377 1.7334 0.42543 0 0 0 -0.647292 -0.244293 0.582297 
246 1.14636 1.78049 1.58 0.313137 0 0 0 -0.965212 1.31982 0.383953 
104 0.233991 1.55829 2.31381 0.605701 0 0 0 -0.273968 -0.332355 0.943819 
226 1.33009 3.06354 2.06162 0.62623 0 0 0 -0.383242 1.88234 0.0383576 
227 0.147303 1.58649 2.08044 0.590156 0 0 0 -0.739007 -0.333811 0.957694 
234 1.08919 1.77501 1.65727 0.327879 0 0 0 -0.110956 5.13785 -13.7878 
238 1.01266 1.72345 1.58265 0.333681 0 0 0 1.2375 1.37744 -3.74651 
321 1.32126 2.33261 1.84131 0.409753 0 0 0 -2.19706 3.09489 1.05821 
475 0.852227 2.20785 1.83084 0.434528 0 0 0 -2.39332 0.831165 0.936033 
476 1.236 2.27058 2.30391 0.488503 0 0 0 -0.670069 -0.591786 2.29731 
189 0.782457 2.23929 1.56137 0.444168 0 0 0 -1.22521 1.24329 -1.12481 
239 1.34951 1.89791 1.62616 0.304187 0 0 0 -5.24265 3.48684 3.25126 
328 1.239 2.61189 1.80516 0.480289 0 0 0 -1.13664 2.5566 -0.289725 
185 0.0296393 2.45809 1.54539 0.667552 0 0 0 -1.48896 0.759407 -0.529481 
337 1.08117 2.12647 1.79494 0.384859 0 0 0 -3.71944 1.54278 0.134491 
462 1.494 3.28882 1.96819 0.696855 0 0 0 -0.327514 1.9614 -0.252651 
168 1.33186 1.85861 1.63155 0.298784 0 0 0 -4.91577 3.8811 2.86708 
247 1.21227 2.26016 1.82707 0.399113 0 0 0 -3.19405 2.60096 0.841884 
177 1.34232 2.09073 1.75652 0.350181 0 0 0 -4.10408 3.77393 -1.22946 
485 1.5067 2.80876 2.33205 0.58372 0 0 0 0.0957366 0.929 1.38008 
264 1.3721 2.2453 1.827 0.387488 0 0 0 -2.45616 3.42764 0.951625 
69 1.4045 2.22361 1.82304 0.38168 0 0 0 -2.28863 3.58824 0.832431 
483 1.42127 2.31224 1.83497 0.402122 0 0 0 -1.57736 3.46077 1.19424 
350 1.439 2.29199 1.83174 0.397129 0 0 0 -1.51878 3.5418 1.19896 
249 0.810742 1.71806 2.34598 0.511764 0 0 0 1.12858 -0.642089 -0.195681 
420 1.11136 1.94425 1.68019 0.344427 0 0 0 -3.5815 1.60299 -2.5494 
240 1.4289 1.99381 1.67738 0.320757 0 0 0 -4.04908 3.95808 0.323885 
300 1.51917 1.67207 1.57346 0.245251 0 0 0 -3.20715 2.24172 -0.65508 
398 1.51864 1.67007 1.57263 0.244757 0 0 0 -3.21556 2.19116 -0.697063 
29 0.0998272 1.58839 1.57877 0.564952 0 0 0 -1.3413 0.0104385 0.251697 
224 1.11369 1.66991 1.54005 0.307839 0 0 0 2.25689 1.35894 0.489493 
111 0.951807 1.52523 1.75501 0.365733 0 0 0 2.94895 3.9912 -11.4178 
105 1.42238 1.7449 1.56871 0.264088 0 0 0 -3.21265 2.29611 8.89199 
172 1.02342 1.85688 1.56822 0.344257 0 0 0 -0.614881 -1.55371 3.58432 
153 1.36635 1.72335 1.67665 0.280183 0 0 0 -1.66275 12.4718 -21.7901 
341 1.49773 1.55245 1.52725 0.220826 0 0 0 -2.06959 -1.20853 -1.11625 
144 1.49737 1.55543 1.52765 0.221191 0 0 0 -2.02494 -1.23622 -0.91764 
332 1.49424 1.56547 1.53147 0.222689 0 0 0 -0.540287 -0.877596 -0.942829 
486 1.5315 1.94567 2.1528 0.420411 0 0 0 -0.55248 0.806676 -5.18618 
336 1.53234 1.71296 1.59081 0.255617 0 0 0 -2.86232 3.06795 0.0553914 
80 1.4976 1.55014 1.52642 0.220532 0 0 0 -2.00234 -1.22049 -1.11131 
232 0.492161 2.02195 2.69548 0.64261 0 0 0 -0.0745509 -0.804797 1.41707 
233 0.819152 1.89518 2.82464 0.638635 0 0 0 0.440497 -0.774786 1.02628 
255 -0.0545557 2.84034 2.49112 0.830806 0 0 0 -1.33128 0.662498 0.395596 
266 0.366654 1.98499 2.58794 0.636922 0 0 0 -0.320955 -0.749401 1.30896 
236 1.10598 2.61864 2.76414 0.651239 0 0 0 -0.0563207 -0.167822 1.86496 
237 0.373431 2.44496 2.4469 0.637517 0 0 0 -0.879451 -0.195093 1.14201 
262 0.719178 1.67966 2.53177 0.568063 0 0 0 0.926258 -0.484217 0.339175 
254 0.214176 2.73861 3.11696 0.891495 0 0 0 -0.712477 0.273399 1.4505 
118 0.0283939 1.48111 2.6882 0.743107 0 0 0 -0.653589 -0.166582 1.01434 
241 0.939423 2.12978 3.11426 0.728297 0 0 0 0.137855 -0.661526 1.5426 
265 0.0329569 3.01139 2.61218 0.868522 0 0 0 -1.12544 0.909764 0.52548 
243 0.559649 3.01397 2.64266 0.760243 0 0 0 -0.508845 1.0028 0.858371 
244 -0.0538445 3.17009 2.96979 1.01469 0 0 0 -0.989225 0.906804 0.853317 
245 1.25688 2.18075 2.86042 0.631952 0 0 0 -0.045397 -0.976664 1.37668 
256 0.0639231 2.93295 2.98771 0.92831 0 0 0 -0.938698 0.617746 1.10111 
260 -0.0684603 2.86215 2.72929 0.88498 0 0 0 -1.22646 0.592824 0.736877 
248 0.535508 2.66342 2.98131 0.774498 0 0 0 -0.342587 0.070574 1.64874 
507 1.514 2.78544 2.91086 0.717641 0 0 0 0.00160907 0.241191 1.77998 
258 0.563516 2.96535 3.08817 0.865751 0 0 0 -0.344528 0.623049 1.47813 
251 0.511305 2.47669 2.63315 0.654783 0 0 0 -0.49979 -0.285976 1.47389 
252 -0.111922 2.39186 2.39214 0.756581 0 0 0 -1.48802 -0.0397612 0.500066 
253 1.04036 3.18639 2.78129 0.794804 0 0 0 -0.146948 1.14523 1.12596 
267 1.82892 0.385598 0.47778 0.596852 0 0 0 -0.154236 -0.0364216 -2.08401 
268 2.77883 0.405526 0.286064 0.786132 0 0 0 1.25567 -0.459818 -1.24518 
269 2.2067 0.0402872 -0.170096 0.890931 0 0 0 0.374261 -0.769617 -1.63992 
270 2.56706 0.059459 -0.0701719 0.91177 0 0 0 0.827071 -0.801591 -1.41336 
291 2.17938 0.517071 -0.0151457 0.745446 0 0 0 0.104542 -0.0265127 -1.80515 
272 2.88249 0.826455 0.434376 0.720699 0 0 0 1.24072 0.0309657 -1.12 
273 1.72709 1.05679 0.271323 0.594022 0 0 0 -0.639119 0.752345 0.272421 
295 2.1713 1.36023 0.380862 0.583848 0 0 0 -1.32072 0.225616 0.267949 
275 2.66357 -0.026932 -0.00181681 0.933267 0 0 0 0.95208 -0.903047 -1.25184 
276 1.80978 0.0752486 0.0483206 0.778948 0 0 0 -0.0838288 -0.687911 -1.77597 
294 1.7398 1.32132 0.468052 0.539316 0 0 0 -1.13501 0.0486597 2.88233 
278 1.84913 0.118939 -0.0193111 0.792008 0 0 0 -0.0537306 -0.613859 -1.7987 
279 2.175 0.767303 0.422034 0.586648 0 0 0 -0.127563 0.711321 -1.57241 
290 2.36632 1.24236 0.156961 0.668461 0 0 0 -0.466671 0.307249 -0.928693 
281 2.44926 1.10437 0.372458 0.618622 0 0 0 -0.226716 0.581784 -1.09595 
289 2.44023 0.7443 0.539649 0.597763 0 0 0 0.576943 0.387537 -1.48425 
292 2.33956 0.902123 0.628316 0.547957 0 0 0 0.151945 0.787024 -1.36185 
284 1.63517 0.788281 0.385012 0.57014 0 0 0 -0.509415 0.940159 -0.96222 
285 2.84963 1.17716 0.0625931 0.791309 0 0 0 0.71508 0.0555133 -1.2482 
286 1.78723 0.48572 0.444941 0.587349 0 0 0 -0.294074 0.282615 -2.06147 
287 2.57698 1.17322 0.482564 0.61156 0 0 0 0.0428274 0.539608 -1.02999 
288 2.12027 0.470308 0.103732 0.706466 0 0 0 0.0548165 -0.00960339 -1.83867 
283 2.43674 -0.0381368 0.797334 0.720709 0 0 0 1.11703 -1.28518 -0.55813 
297 2.10952 0.404044 1.31447 0.50788 0 0 0 1.90417 -1.28957 1.10997 
298 2.93 0.378402 1.22614 0.699641 0 0 0 1.80703 -0.768703 0.103676 
299 2.17785 0.794496 1.15772 0.446812 0 0 0 3.04158 -0.0321544 -0.486607 
326 2.16131 0.241583 1.27565 0.557614 0 0 0 1.362 -1.4781 0.897721 
421 1.83955 1.44085 1.50274 0.295547 0 0 0 -2.29155 -3.41399 -0.0470589 
302 2.2023 0.171771 1.03879 0.593098 0 0 0 1.23412 -1.32821 -0.190313 
409 1.6811 1.13812 1.38277 0.302337 0 0 0 7.62341 -3.47498 0.201328 
304 2.56841 0.907698 0.967205 0.532659 0 0 0 1.36616 0.342826 -0.843724 
327 2.48296 0.0221918 1.06097 0.685998 0 0 0 1.27707 -1.34477 -0.00758996 
271 2.0399 0.860397 1.25086 0.407327 0 0 0 4.83329 -0.126323 -0.068523 
325 1.98594 0.355554 1.00005 0.521513 0 0 0 1.37385 -1.1554 -1.03989 
308 1.84277 0.353848 1.39549 0.497793 0 0 0 1.14378 -1.67531 1.55098 
309 2.88629 1.00557 1.17505 0.59401 0 0 0 1.74579 0.14272 -0.102381 
352 2.8534 1.20475 1.47988 0.560577 0 0 0 1.76109 0.0542377 0.516981 
311 2.00273 0.716305 0.96515 0.458608 0 0 0 2.4261 -0.00757681 -1.77905 
312 2.53391 1.33844 0.846886 0.525579 0 0 0 -0.117249 0.548453 -0.597107 
293 2.42309 1.11164 0.861817 0.504926 0 0 0 0.210293 0.810973 -0.879144 
324 1.62813 -0.0597947 0.885017 0.633872 0 0 0 -0.114652 -1.61403 -0.685112 
315 2.60039 1.07859 1.23024 0.500886 0 0 0 1.63798 0.261147 -0.0845754 
316 2.72627 0.872234 1.06806 0.566481 0 0 0 1.68888 0.0840437 -0.390903 
317 2.17447 0.00895851 1.26039 0.630985 0 0 0 0.833507 -1.67303 0.738094 
345 2.10887 1.08501 1.35917 0.384713 0 0 0 3.1561 0.531092 0.357399 
323 2.38134 0.331228 1.45359 0.569985 0 0 0 1.39883 -1.12545 1.28539 
455 2.55583 1.28173 1.36755 0.472766 0 0 0 1.51342 0.132497 0.181883 
435 2.27638 1.22552 1.31462 0.411361 0 0 0 0.998462 0.0653575 0.565531 
448 2.20141 1.19778 1.32868 0.395787 0 0 0 1.29404 0.0629581 0.913633 
330 2.12818 0.96826 1.33153 0.403423 0 0 0 3.69319 0.317447 0.284997 
333 2.02458 1.08667 1.30522 0.371338 0 0 0 4.55194 0.01732 1.82273 
320 2.05153 1.24466 1.39438 0.356997 0 0 0 1.45079 -0.218118 1.67612 
85 1.93765 0.688031 1.22732 0.424792 0 0 0 4.19062 -1.0348 -0.384191 
72 1.85277 0.835644 1.34412 0.381421 0 0 0 5.99016 -0.139361 -1.58468 
280 1.92793 1.15719 0.954506 0.41854 0 0 0 0.282073 -0.515819 5.51779 
282 1.82596 1.09003 1.37787 0.331794 0 0 0 7.68137 0.0355784 -2.08895 
58 1.53876 0.410764 0.794837 0.520964 0 0 0 -0.628861 -0.813614 -2.48369 
7 1.78036 0.749634 1.18988 0.399086 0 0 0 4.57939 -1.93016 -1.07284 
175 1.68619 0.702475 1.18442 0.402967 0 0 0 3.05544 -2.53243 -1.39664 
151 1.67337 0.694865 1.1842 0.404024 0 0 0 2.80378 -2.59516 -1.4288 
102 1.68173 0.685801 1.18739 0.406093 0 0 0 2.83238 -2.53402 -1.39632 
401 1.68762 1.21331 1.38462 0.290457 0 0 0 6.15689 -7.3988 9.30984 
431 1.82256 1.38593 1.47812 0.294162 0 0 0 -1.177 -3.90123 1.50377 
230 1.56873 0.813999 1.19065 0.375188 0 0 0 1.90274 -3.51161 -0.549893 
402 1.95157 1.39055 1.18273 0.365165 0 0 0 -1.92903 -6.34782 17.6065 
61 2.0614 1.43224 1.48035 0.347742 0 0 0 -1.14322 -1.58253 0.681215 
305 2.1485 1.42894 1.51639 0.368185 0 0 0 -0.452502 -0.690372 -0.938482 
89 2.19201 1.4391 1.48267 0.378191 0 0 0 -0.208933 -1.02961 0.257736 
363 1.70564 1.42062 1.51262 0.263062 0 0 0 1.537 23.0462 -69.0552 
500 2.10569 1.32174 1.88392 0.412448 0 0 0 -1.33939 1.80846 -6.18366 
355 2.35839 0.184454 1.86313 0.634469 0 0 0 0.366738 -1.07699 1.05966 
381 3.11612 1.01979 2.35073 0.739096 0 0 0 1.30339 -0.262208 0.688378 
331 2.87923 0.0788084 2.06589 0.792853 0 0 0 1.0863 -1.15044 0.611453 
364 1.76963 0.735987 2.16029 0.517309 0 0 0 -0.565313 2.08265 -2.76991 
456 2.33967 1.28734 1.85279 0.452111 0 0 0 -0.0218664 -0.0187287 -0.567952 
334 2.84871 0.650639 1.56623 0.619734 0 0 0 1.61388 -0.52619 0.796477 
379 2.85971 0.751268 2.16119 0.662739 0 0 0 0.956957 -0.296407 0.716316 
357 2.79171 1.1106 1.69074 0.555739 0 0 0 1.47422 -0.15693 0.97488 
349 2.50806 1.06994 1.68912 0.485856 0 0 0 1.04792 -0.242873 1.07405 
338 2.91328 1.04907 1.57017 0.592008 0 0 0 1.69159 -0.0901511 0.716278 
339 2.60637 0.208207 1.78259 0.663657 0 0 0 0.880234 -1.0994 0.93034 
340 2.03196 0.919074 1.73825 0.42777 0 0 0 0.609986 2.04134 -2.76101 
380 2.25571 1.36196 2.17207 0.492287 0 0 0 -0.922221 0.227018 -1.48846 
356 2.53184 0.904635 2.0194 0.548951 0 0 0 0.229643 -0.0733046 0.59545 
359 2.00327 -0.0960497 2.15981 0.722346 0 0 0 0.00874069 -1.20848 0.52403 
344 2.80142 -0.0437778 2.11852 0.816014 0 0 0 0.909451 -1.29323 0.606341 
348 3.04076 1.33757 1.60003 0.619055 0 0 0 1.74334 -0.105231 0.435846 
346 1.58773 0.374972 1.94495 0.544623 0 0 0 0.0740409 0.360997 0.0551686 
354 2.04635 0.843229 1.58868 0.422712 0 0 0 2.33697 1.06403 -0.593036 
368 2.37677 0.682568 2.36623 0.614731 0 0 0 -0.272387 0.0967274 0.0449374 
366 1.71032 1.3823 2.04881 0.405711 0 0 0 -1.4846 7.06378 -20.3586 
371 2.18583 0.971473 2.33558 0.551661 0 0 0 -0.951557 0.813091 -1.29553 
377 1.74601 1.18744 1.971 0.407224 0 0 0 -1.22672 7.54419 -18.0393 
360 1.90747 0.404478 2.3254 0.616732 0 0 0 -0.290927 0.209341 -0.467824 
361 2.15681 1.26107 2.27567 0.509606 0 0 0 -1.32497 0.772342 -2.2214 
335 2.54275 0.223581 1.52697 0.631493 0 0 0 1.20218 -1.16838 0.995511 
384 1.99729 -0.0776358 2.77942 0.849446 0 0 0 0.0754655 -0.81767 0.466726 
376 2.66835 0.594173 2.77916 0.779062 0 0 0 0.370183 -0.267656 0.787298 
375 2.39585 0.989106 2.70504 0.665023 0 0 0 -0.364333 0.253881 0.190192 
362 2.50173 1.42621 2.86667 0.69643 0 0 0 -0.126949 -0.20781 0.712522 
126 1.54709 0.230959 2.44275 0.669908 0 0 0 0.190625 -0.0431563 -0.289624 
383 3.11738 1.16306 2.83543 0.835523 0 0 0 1.03592 -0.275966 0.893809 
365 2.9694 -0.0926749 2.52754 0.942725 0 0 0 0.964672 -1.11937 0.625876 
374 2.49303 0.362288 2.5845 0.739404 0 0 0 0.163746 -0.518968 0.603556 
367 2.83512 -0.0952157 2.44692 0.894593 0 0 0 0.828575 -1.20575 0.631813 
382 2.46012 0.611973 2.90139 0.779646 0 0 0 0.00278738 -0.0960334 0.703896 
369 2.63777 0.58011 2.64824 0.739166 0 0 0 0.331719 -0.276014 0.688819 
373 2.14105 0.726532 2.45078 0.603868 0 0 0 -0.651291 0.594298 -0.680581 
406 2.09112 2.16897 0.430838 0.611265 0 0 0 -1.06552 -1.43413 0.481084 
386 2.0284 2.99123 0.37105 0.772704 0 0 0 -0.203152 0.499828 -0.469322 
387 2.72329 1.69898 0.609381 0.62061 0 0 0 0.125383 -0.139243 -0.670049 
408 1.85314 2.49566 0.317939 0.670082 0 0 0 -0.440773 -0.943476 0.185412 
389 2.18616 3.05826 0.428309 0.790715 0 0 0 -0.0941005 0.695836 -0.557211 
390 2.98317 1.77901 0.535157 0.70793 0 0 0 0.849922 -0.129259 -0.779548 
391 2.11535 1.83161 0.648481 0.532527 0 0 0 -2.13317 -1.78885 1.75414 
403 2.5459 2.18678 0.119718 0.751349 0 0 0 -0.0754437 -0.411449 -0.815079 
393 2.66093 2.28842 0.183066 0.764201 0 0 0 0.173618 -0.246728 -0.873339 
405 2.78811 3.02173 -0.12111 1.01931 0 0 0 0.448673 0.483326 -0.802746 
395 1.81381 2.31843 0.625907 0.567286 0 0 0 -0.975019 -2.06635 1.31379 
396 2.10804 2.72738 0.663082 0.647388 0 0 0 -0.447569 -0.0233234 -0.398822 
397 2.16783 2.01056 -0.00250732 0.730131 0 0 0 -0.551794 -0.808928 -0.32693 
407 3.03609 2.65996 0.0661386 0.94152 0 0 0 0.752089 0.242117 -0.877936 
399 2.55634 2.07553 0.339482 0.678296 0 0 0 -0.217672 -0.510646 -0.662333 
400 3.03867 3.09633 0.094807 1.03121 0 0 0 0.703317 0.615643 -0.726262 
404 2.54911 1.82912 0.135101 0.717734 0 0 0 -0.227235 -0.38333 -0.795854 
392 1.64898 1.70195 1.30222 0.313687 0 0 0 -4.39504 -24.5658 61.7696 
347 1.74968 2.58561 1.44171 0.482406 0 0 0 -0.44237 0.909033 -1.16965 
470 3.18034 2.73685 1.51285 0.777332 0 0 0 1.36502 0.545237 -0.283495 
412 2.83895 2.70487 0.904631 0.719795 0 0 0 0.791077 0.476952 -0.695041 
413 2.99686 2.31763 1.18363 0.663644 0 0 0 1.32584 -0.083086 -0.62541 
414 2.35624 1.78558 1.13988 0.461764 0 0 0 -0.742103 -1.47684 0.0408168 
415 2.1873 1.95171 0.959636 0.482595 0 0 0 -2.14012 -2.22292 1.0573 
416 1.76813 2.56766 1.21183 0.503755 0 0 0 -0.959946 -0.469325 -0.755557 
454 1.96176 3.07035 1.40585 0.634753 0 0 0 -0.187829 1.48751 -0.880988 
427 1.90156 2.97811 1.41373 0.600579 0 0 0 -0.275438 1.39299 -1.01348 
419 3.09087 2.31628 1.28366 0.685429 0 0 0 1.47357 -0.0907769 -0.502451 
457 2.18048 2.18526 1.39274 0.445662 0 0 0 0.664351 -0.848581 -0.804442 
411 1.77754 1.4971 1.51758 0.27906 0 0 0 -3.50438 -3.86773 0.147759 
422 2.52327 1.82722 0.892715 0.53417 0 0 0 -0.488508 -0.711617 -0.445576 
423 2.22281 3.17064 1.41836 0.692846 0 0 0 0.211831 1.49872 -0.625275 
424 1.98908 2.69972 0.785545 0.609122 0 0 0 -0.644643 -0.213526 -0.311736 
425 2.52502 2.65947 0.978217 0.634302 0 0 0 0.284957 0.379813 -0.819756 
426 2.16556 2.22827 1.02762 0.500696 0 0 0 -1.39633 -1.51877 -0.245633 
446 2.15404 1.47217 1.43062 0.370646 0 0 0 -0.758182 -2.0781 2.30962 
441 3.15009 2.03261 1.39372 0.670917 0 0 0 1.68532 -0.393163 -0.321681 
429 2.28301 3.01718 0.83094 0.710769 0 0 0 -0.0175299 0.880804 -0.645502 
430 3.24666 2.98694 1.29672 0.866167 0 0 0 1.22318 0.801657 -0.328426 
449 2.29124 2.24049 1.41349 0.472486 0 0 0 0.979798 -0.238182 -1.01197 
388 1.59812 2.19684 1.01816 0.463187 0 0 0 -1.12522 -4.52476 4.55104 
433 2.03728 1.73802 1.21704 0.390802 0 0 0 -3.06219 -5.9943 9.0738 
434 1.60082 2.73668 1.06615 0.558629 0 0 0 -0.646772 -0.104373 -0.50738 
432 2.37388 1.88404 1.34991 0.447539 0 0 0 0.877476 -1.55958 -0.547238 
436 3.01036 2.09203 0.84311 0.681813 0 0 0 1.07793 -0.223393 -0.688414 
437 2.8462 1.57157 0.96614 0.587292 0 0 0 0.941021 0.0775452 -0.585503 
438 2.85549 2.16438 1.42914 0.589201 0 0 0 1.62874 -0.368369 -0.503898 
439 3.06985 3.26361 1.23339 0.897856 0 0 0 0.949551 1.11242 -0.325503 
440 2.10109 2.01539 0.939849 0.48386 0 0 0 -2.34461 -2.61684 1.56011 
458 2.1452 2.40779 1.42054 0.480222 0 0 0 0.452011 0.375925 -1.04742 
464 2.20089 2.07552 1.39204 0.431482 0 0 0 0.776247 -1.57497 -0.489544 
443 2.5877 1.94946 2.09056 0.53552 0 0 0 1.22741 -0.883234 1.06622 
444 2.84859 1.46505 1.86655 0.570206 0 0 0 1.47553 -0.495901 0.741082 
445 2.81527 2.21551 2.12929 0.614387 0 0 0 1.2189 -0.376543 0.618615 
310 1.78293 2.08928 1.76574 0.364646 0 0 0 2.92972 1.76754 -0.104242 
372 1.61022 2.19643 1.81033 0.377707 0 0 0 0.390863 3.52849 0.842809 
296 2.37676 1.99588 1.7502 0.454789 0 0 0 2.73144 -0.912846 0.691401 
471 1.98874 1.90614 1.68087 0.358624 0 0 0 3.68284 -2.27053 -0.85578 
450 2.67999 1.85887 1.96779 0.537545 0 0 0 1.57153 -0.979867 0.850331 
182 1.64286 1.88949 1.64867 0.302927 0 0 0 0.631871 1.1402 2.03371 
452 2.1188 2.90997 1.68517 0.592221 0 0 0 0.466512 1.44554 -0.398898 
453 1.56027 2.45095 2.19981 0.487033 0 0 0 0.354067 0.827439 2.32804 
469 2.08406 1.70843 2.0562 0.431066 0 0 0 0.026044 -0.355287 -3.08902 
343 2.09717 1.70347 1.57754 0.360074 0 0 0 0.921753 -3.60616 0.0492728 
481 2.16302 2.25178 1.79843 0.451736 0 0 0 2.75699 0.771829 1.11109 
467 1.86345 2.6493 1.66668 0.495961 0 0 0 0.528522 1.845 -0.479493 
378 1.78868 2.33535 1.81544 0.420985 0 0 0 1.83516 2.73103 1.37878 
459 3.15663 2.7618 2.17728 0.803689 0 0 0 1.3311 0.59901 0.259745 
277 1.76728 1.99982 1.70693 0.340649 0 0 0 3.00517 0.914887 -1.0849 
461 1.65114 2.97998 1.7122 0.580967 0 0 0 -0.214525 1.91985 -0.769165 
263 1.87894 1.99472 1.72044 0.355844 0 0 0 3.87611 -0.294748 -0.870056 
261 1.68405 1.99278 1.69119 0.329301 0 0 0 1.71208 1.80485 -0.603855 
176 1.90639 1.54435 1.53657 0.311142 0 0 0 -2.19448 -3.76105 0.588412 
465 1.96042 2.96194 1.89533 0.597781 0 0 0 0.44138 1.55929 0.0162119 
466 2.24247 3.2713 1.79524 0.726834 0 0 0 0.419266 1.6269 -0.19418 
319 2.24975 1.91453 1.63878 0.411731 0 0 0 2.91669 -1.8312 0.10665 
478 2.18734 3.04935 2.25827 0.683236 0 0 0 0.539363 1.21412 0.572472 
484 1.90492 2.64751 2.31714 0.562311 0 0 0 0.647537 0.489749 1.45391 
187 2.13031 2.09995 1.70539 0.413708 0 0 0 3.45099 -0.361853 0.630724 
509 3.29296 2.84291 2.26144 0.875195 0 0 0 1.37373 0.653914 0.329602 
488 2.31766 1.87768 1.72535 0.42917 0 0 0 2.78255 -1.52836 0.406035 
492 2.70859 2.30871 2.28735 0.620861 0 0 0 0.893955 -0.213792 0.823943 
494 2.94686 2.34984 2.28063 0.684459 0 0 0 1.18416 -0.127238 0.575906 
504 2.87671 1.9456 2.27657 0.631952 0 0 0 1.10362 -0.739895 0.756522 
199 1.89314 1.96045 1.70229 0.351186 0 0 0 3.89536 -0.926793 -1.12823 
120 1.67258 1.96379 1.67438 0.321487 0 0 0 1.45916 1.53503 -0.00746955 
442 2.28183 1.67739 1.7112 0.410209 0 0 0 1.68409 -1.59508 -0.505113 
498 2.04613 1.55965 1.97779 0.409441 0 0 0 -0.910664 1.08494 -7.14698 
487 1.91916 2.03369 2.33112 0.488956 0 0 0 0.0326316 -0.69822 0.224867 
209 2.03145 1.7059 1.5911 0.345966 0 0 0 0.866121 -3.84896 -0.484545 
36 2.10178 2.14084 1.72251 0.416344 0 0 0 3.40655 0.0971964 0.774119 
191 1.67811 1.96819 1.67706 0.323024 0 0 0 1.57658 1.52188 -0.149569 
417 2.33714 2.53508 1.7657 0.533533 0 0 0 1.30009 0.973372 0.259029 
451 2.99114 2.22371 1.53029 0.633451 0 0 0 1.65107 -0.275922 -0.312238 
259 1.58512 1.88708 1.64908 0.297929 0 0 0 -0.810686 2.34897 2.43832 
463 1.58447 1.95968 1.66739 0.313834 0 0 0 -0.64422 2.58973 1.31845 
307 1.54446 1.74375 1.60346 0.263563 0 0 0 -2.47031 3.24127 0.806047 
220 1.54373 1.74205 1.60278 0.263122 0 0 0 -2.49468 3.24142 0.762505 
496 2.03147 2.50601 2.78624 0.657584 0 0 0 0.0310488 -0.181219 1.52989 
472 2.0747 1.79642 2.63684 0.574765 0 0 0 -0.779208 -0.595598 -0.0763881 
473 1.75625 1.5959 2.58876 0.549215 0 0 0 -1.17769 0.121218 -2.34786 
474 2.95854 3.17647 2.68346 0.934253 0 0 0 0.901266 1.04183 0.755754 
497 1.61663 1.94128 2.57965 0.539007 0 0 0 -0.635567 -1.02515 -0.520642 
502 2.22662 2.57159 2.71503 0.667084 0 0 0 0.220396 0.046818 1.38663 
477 3.17713 2.0138 2.59479 0.781977 0 0 0 1.29713 -0.453759 0.857131 
513 2.63016 3.02979 3.05944 0.919996 0 0 0 0.557671 0.805127 1.27699 
479 1.80985 1.75127 2.417 0.49856 0 0 0 -1.15681 -0.356597 -2.63223 
501 1.6536 2.45381 3.00118 0.698249 0 0 0 -0.144845 -0.376349 1.73338 
503 2.03372 3.1535 2.47845 0.734324 0 0 0 0.328417 1.26102 0.849385 
482 1.57532 3.16057 3.12964 0.875847 0 0 0 0.0454378 0.862648 1.49568 
511 3.00814 2.13234 2.41307 0.70201 0 0 0 1.18574 -0.463515 0.754336 
510 2.10249 2.54653 2.61072 0.62352 0 0 0 0.225986 -0.0462939 1.38352 
508 2.62305 1.96044 3.05692 0.77212 0 0 0 0.282787 -0.409106 1.38037 
505 3.15567 2.91939 3.22206 1.06051 0 0 0 0.887148 0.587056 1.13087 
499 1.80691 1.78436 2.91322 0.645105 0 0 0 -0.705516 -0.515545 0.136783 
495 2.94831 1.72933 2.79659 0.758141 0 0 0 0.82714 -0.506839 1.07248 
489 3.12957 1.50361 3.00017 0.868008 0 0 0 0.959278 -0.334803 1.04647 
490 2.37284 2.40854 2.58346 0.629826 0 0 0 0.304738 -0.181172 1.22528 
491 2.27434 1.49882 2.74564 0.62995 0 0 0 -0.618181 -0.160355 0.104055 
506 1.97648 2.06882 3.04671 0.700278 0 0 0 -0.385135 -0.559224 1.21409 
493 3.07267 3.01074 2.79147 0.943093 0 0 0 1.00008 0.817251 0.886014 
480 2.35966 2.25058 2.39424 0.569219 0 0 0 0.406848 -0.387127 1.22442 
ITEM: TIMESTEP
800985
ITEM: NUMBER OF ATOMS
512
ITEM: BOX BOUNDS ss ss ss
-2.2775349561678951e-01 3.2932607586404616e+00
-4.0122540508749138e-01 3.2891132425832117e+00
-1.7039273299291779e-01 3.2223573019164853e+00
ITEM: ATOMS id x y z width_SPH x_COM y_COM z_COM vx vy vz 
23 0.539287 1.16104 0.372781 0.613015 0 0 0 0.633792 -0.0976466 -0.569981 
3 -0.140329 -0.124433 0.0939743 1.0357 0 0 0 -1.01065 -0.93413 -0.881347 
4 1.1215 0.71024 0.26551 0.622553 0 0 0 0.00936359 0.209778 -1.02934 
5 0.225459 1.27088 -0.0394009 0.782509 0 0 0 -0.197427 -0.301968 -0.966501 
6 0.0115268 1.14394 0.376959 0.727352 0 0 0 -0.762225 -0.268017 -0.705387 
22 0.128621 1.05029 0.0596006 0.785116 0 0 0 -0.507385 -0.424308 -0.970664 
8 0.686461 0.733455 -0.0391953 0.747513 0 0 0 0.0953315 -0.433146 -1.18304 
9 1.3567 -0.241853 0.263492 0.804205 0 0 0 -0.298892 -1.18641 -1.40896 
10 -0.0863155 -0.263405 0.0260453 1.07371 0 0 0 -0.931971 -0.98573 -0.901907 
11 0.920705 1.15036 -0.0285252 0.696436 0 0 0 0.752232 -0.165343 -0.435097 
12 0.461886 1.343 0.164184 0.674423 0 0 0 0.502727 -0.204168 -0.606945 
13 0.278629 -0.299308 0.200453 0.957906 0 0 0 -0.806302 -1.14363 -1.01852 
14 0.972038 1.22081 0.390069 0.568523 0 0 0 1.27038 0.142484 0.812746 
15 1.08249 0.66997 0.304809 0.617964 0 0 0 -0.0678996 0.142887 -1.16071 
16 0.612757 -0.235827 0.244741 0.869625 0 0 0 -0.630657 -1.16659 -1.20389 
17 0.87827 0.253888 0.00522969 0.783181 0 0 0 -0.298608 -0.660961 -1.49784 
18 0.562191 0.565603 0.356093 0.673121 0 0 0 -0.327155 -0.544899 -1.23563 
274 1.4895 1.31441 0.568086 0.508709 0 0 0 -0.206612 -0.281927 4.84907 
20 0.679389 0.94068 0.297781 0.628463 0 0 0 0.46399 -0.143623 -0.766452 
62 1.19143 1.02676 0.635985 0.499497 0 0 0 0.00573439 0.577719 1.37853 
50 0.549988 -0.38103 0.627224 0.850632 0 0 0 -0.738655 -1.36615 -0.856485 
31 -0.0666978 1.19079 0.657985 0.694831 0 0 0 -0.999904 -0.0999478 -0.584641 
44 0.384567 0.857337 0.611346 0.611979 0 0 0 -0.31797 -0.373748 -1.12026 
24 1.01877 -0.213783 1.39568 0.679354 0 0 0 -0.123979 -1.69285 0.603278 
353 1.43469 1.07795 1.35086 0.306618 0 0 0 -0.477956 -3.56901 0.635881 
26 -0.135936 1.02548 1.49494 0.658913 0 0 0 -1.52793 0.08803 0.0612301 
27 0.398738 1.14913 0.83239 0.54623 0 0 0 -0.0929878 0.0261925 -1.24835 
28 0.947156 0.224999 1.38726 0.550773 0 0 0 -0.8815 -1.47364 0.742561 
91 0.800643 1.12867 1.21354 0.410233 0 0 0 -0.998713 -0.848655 -0.341457 
303 1.47401 1.06097 1.34497 0.308979 0 0 0 0.971355 -3.79489 0.770783 
65 0.669834 0.471783 1.33838 0.530129 0 0 0 -1.15561 -1.29714 0.0919645 
32 0.390327 -0.347398 1.28432 0.80911 0 0 0 -0.778096 -1.47594 -0.132802 
33 0.747582 -0.211898 1.15272 0.709654 0 0 0 -0.59948 -1.55106 -0.195151 
173 0.936219 0.960756 1.29479 0.396883 0 0 0 -3.46721 -1.14492 -0.810988 
35 1.49751 0.018585 0.818713 0.616275 0 0 0 -0.421802 -1.4179 -1.15815 
21 1.50709 1.44184 1.49138 0.220515 0 0 0 0.244861 1.59331 0.621435 
154 1.32469 1.31545 1.43484 0.268891 0 0 0 1.65046 2.35716 -4.9624 
38 0.219852 1.02869 0.800811 0.601115 0 0 0 -0.64009 -0.169662 -1.01705 
39 -0.227457 0.894409 1.43968 0.703333 0 0 0 -1.58737 -0.0297034 -0.0849068 
2 1.14968 0.675242 1.21354 0.426026 0 0 0 -4.14286 -2.31407 -1.38034 
351 0.859146 1.19146 1.32514 0.381097 0 0 0 -0.728017 -0.464256 0.443737 
42 0.799969 1.37177 1.32996 0.382826 0 0 0 0.818917 -0.146332 1.0549 
195 1.40658 0.799872 1.18838 0.381449 0 0 0 -2.14163 -3.62158 -0.893394 
318 1.4922 1.06871 1.34922 0.306649 0 0 0 1.80133 -3.84486 0.632892 
45 0.998554 0.22403 1.32982 0.545672 0 0 0 -1.0417 -1.56828 0.537141 
46 0.610447 0.267937 0.790684 0.635117 0 0 0 -0.974945 -0.894094 -1.36006 
47 1.21212 0.915315 0.835748 0.454217 0 0 0 -1.73103 -0.485192 0.987984 
48 0.52662 0.788821 1.37475 0.498783 0 0 0 -1.05291 -1.06537 0.0363323 
250 1.49187 1.08593 1.35641 0.302456 0 0 0 1.96537 -3.835 0.345263 
79 1.49623 1.36941 1.46082 0.233518 0 0 0 3.64268 0.757964 0.551642 
51 0.476674 1.30496 0.949273 0.506038 0 0 0 0.169097 0.221639 -1.33577 
52 1.29203 0.226355 1.31754 0.525363 0 0 0 -0.907431 -1.9114 0.784917 
53 -0.039884 0.626633 1.25892 0.678803 0 0 0 -1.45044 -0.44129 -0.414636 
54 1.02301 -0.40093 1.42876 0.74746 0 0 0 0.00505896 -1.74379 0.513758 
385 1.48525 1.28967 1.43147 0.252412 0 0 0 3.42431 -2.10632 0.49175 
56 1.27652 0.103593 1.02254 0.574014 0 0 0 -0.869681 -1.66904 -0.734836 
178 0.995026 1.43603 1.45857 0.329985 0 0 0 2.91026 1.35585 0.624057 
115 1.50526 1.15041 1.3764 0.287018 0 0 0 3.09597 -4.38433 0.778202 
59 0.618218 0.602603 1.24067 0.51739 0 0 0 -1.3168 -1.26835 -0.596052 
124 1.46275 1.03846 1.3335 0.314951 0 0 0 0.30796 -3.79359 1.08105 
306 1.50773 -0.285863 0.765566 0.723845 0 0 0 -0.127722 -1.6043 -0.682434 
64 0.863756 -0.339054 1.3046 0.736468 0 0 0 -0.275664 -1.69422 0.221026 
119 1.46935 1.29804 1.43364 0.251084 0 0 0 3.24209 -1.66979 0.901339 
313 1.06026 1.33633 1.41902 0.322543 0 0 0 1.0985 0.946973 2.21125 
149 1.36226 1.21564 1.35164 0.287129 0 0 0 -1.32943 -1.5567 -0.802345 
179 1.27092 0.655446 1.19794 0.42036 0 0 0 -3.49661 -2.75727 -1.57714 
106 1.48398 1.28129 1.42805 0.254531 0 0 0 3.33262 -2.41703 0.654221 
322 1.48977 1.08076 1.35422 0.30375 0 0 0 1.82436 -3.82937 0.432929 
19 1.48533 0.423849 1.00494 0.484894 0 0 0 -0.852819 -1.86256 -1.917 
512 1.49419 1.3562 1.4562 0.236441 0 0 0 3.67167 0.312019 0.468641 
301 0.93061 1.30713 1.40803 0.352103 0 0 0 0.844351 0.695841 0.473257 
214 1.39941 0.983957 1.30052 0.332294 0 0 0 -2.34865 -3.66491 1.32697 
77 0.453288 1.43621 1.29507 0.467504 0 0 0 -0.729921 0.322745 -0.756559 
358 0.802633 1.13455 1.1541 0.418095 0 0 0 -0.811615 -0.815766 -0.341108 
81 0.658633 0.594058 1.15419 0.517895 0 0 0 -1.43274 -1.24585 -1.06385 
71 0.654126 1.22741 1.34848 0.421632 0 0 0 -0.472664 -0.274615 -0.366855 
329 0.872551 1.19711 1.34631 0.376298 0 0 0 -0.664031 -0.284536 0.350727 
57 1.51229 0.644705 1.1874 0.412431 0 0 0 -0.122551 -3.05673 -1.62637 
122 1.21656 0.673192 1.20291 0.420713 0 0 0 -3.98096 -2.58498 -1.52531 
74 0.974801 0.84529 1.26176 0.411888 0 0 0 -4.06653 -1.59231 -1.05771 
228 1.19611 1.41564 1.46552 0.28585 0 0 0 3.66142 1.69344 2.54458 
198 0.988603 1.43717 1.45868 0.331365 0 0 0 2.87831 1.25706 0.754238 
165 1.32819 0.926634 1.25837 0.353438 0 0 0 -4.30449 -3.50952 0.956234 
101 1.00028 1.23476 1.37484 0.345701 0 0 0 -1.00811 0.365155 1.1649 
82 0.914213 0.731782 1.19891 0.446423 0 0 0 -3.04119 -1.67022 -1.1938 
229 1.43794 1.01783 1.32157 0.321264 0 0 0 -0.817507 -3.73951 1.25722 
66 0.0779135 -0.209392 2.31731 0.901787 0 0 0 -0.68796 -1.05208 0.580833 
67 0.896591 0.389783 1.98979 0.568993 0 0 0 0.535182 -0.0874282 0.637806 
68 1.03629 0.897862 1.78785 0.431441 0 0 0 0.893001 2.98621 -4.25749 
95 0.398485 -0.0109021 2.10984 0.741994 0 0 0 -0.249932 -0.999985 0.679923 
70 0.431861 1.36488 2.12842 0.534681 0 0 0 0.501933 -0.113958 0.726929 
88 0.060362 0.335404 2.25425 0.754695 0 0 0 -0.785909 -0.437361 0.780301 
55 0.179153 0.110082 1.56622 0.715516 0 0 0 -0.990364 -1.03048 0.129738 
63 0.0686981 1.42391 1.57716 0.574449 0 0 0 -1.32733 0.122354 0.333583 
87 -0.124825 0.602197 1.97093 0.726215 0 0 0 -1.23339 -0.227806 0.58644 
75 0.134231 1.38274 2.08425 0.597903 0 0 0 -0.600592 -0.1111 0.927889 
86 1.52819 0.494281 1.73489 0.483928 0 0 0 0.088962 0.601328 0.00428559 
90 0.772494 1.18916 2.00601 0.467509 0 0 0 2.16493 1.08644 -1.69325 
78 0.397217 -0.00262977 2.21456 0.755241 0 0 0 -0.216495 -0.931591 0.705689 
113 0.978003 1.36 2.06099 0.439919 0 0 0 2.96969 2.54525 -6.73476 
93 0.81134 0.804861 2.0233 0.511044 0 0 0 1.24664 0.892038 -0.290614 
92 0.388019 0.389794 1.87057 0.619935 0 0 0 -0.3119 -0.630196 0.888688 
108 1.18119 0.815744 2.12937 0.500497 0 0 0 1.03677 2.73473 -3.26148 
83 0.717763 1.15514 1.91968 0.462905 0 0 0 1.76403 0.737031 -0.786807 
84 0.247414 0.0622364 2.16075 0.758665 0 0 0 -0.490198 -0.857549 0.680795 
96 1.42755 0.839304 1.89149 0.437823 0 0 0 0.31103 5.2413 -7.8737 
127 1.45838 0.642885 2.04465 0.504505 0 0 0 0.179352 2.32783 -2.51021 
34 -0.00995035 0.530522 1.66397 0.680597 0 0 0 -1.25689 -0.447002 0.292412 
60 0.61672 0.958431 1.89369 0.49654 0 0 0 0.90604 0.186401 0.6948 
25 1.06931 0.282779 1.61881 0.537638 0 0 0 -0.332316 -0.974008 1.42412 
76 0.5695 0.905027 1.57236 0.476952 0 0 0 -0.410873 -0.726924 0.959411 
94 0.548014 0.812211 1.57409 0.49466 0 0 0 -0.474159 -0.799149 1.01573 
37 0.451647 1.06436 1.55401 0.483798 0 0 0 -0.715212 -0.372701 0.801549 
49 -0.225094 0.992379 1.53528 0.693613 0 0 0 -1.56995 0.0719931 0.0721436 
125 1.09267 1.35856 2.31577 0.494746 0 0 0 1.87398 1.87924 -4.76189 
370 1.52837 0.876188 2.34621 0.535458 0 0 0 -0.114058 2.66182 -3.73607 
121 1.2299 0.0557177 2.56175 0.739897 0 0 0 0.42063 -0.463438 0.188909 
97 0.741255 0.963635 2.6719 0.641807 0 0 0 0.791089 0.76951 -0.0276707 
98 0.311901 1.033 2.82434 0.738884 0 0 0 -0.0618689 0.189118 0.9422 
99 0.716606 0.0242839 2.58279 0.779046 0 0 0 0.238145 -0.650588 0.651579 
100 0.647803 0.403616 2.84607 0.773451 0 0 0 0.218146 0.0515996 0.748539 
128 0.383363 1.44118 2.49724 0.615766 0 0 0 0.291506 -0.114643 0.746909 
131 0.549718 1.23793 2.93584 0.721723 0 0 0 0.37544 0.238878 0.767553 
103 1.03332 0.516067 2.74005 0.695682 0 0 0 0.557485 0.57962 -0.00874779 
130 1.37067 0.46521 2.56845 0.65114 0 0 0 0.363699 0.736504 -0.682341 
114 1.06694 0.880377 2.58087 0.60421 0 0 0 0.89437 1.4752 -1.26373 
129 0.508149 0.0503801 3.07878 0.938568 0 0 0 -0.0943907 -0.452571 0.92643 
116 -0.0918043 0.828692 2.48471 0.768907 0 0 0 -0.926299 -0.00656093 0.912682 
117 -0.112808 0.373906 2.52757 0.849198 0 0 0 -0.96399 -0.312895 0.858355 
109 0.427185 0.944434 3.03849 0.793868 0 0 0 0.0459974 0.256788 0.963239 
110 0.486302 -0.255057 2.78202 0.938172 0 0 0 -0.121546 -0.936642 0.764151 
123 1.28799 1.23656 2.37885 0.511354 0 0 0 0.834521 2.64147 -5.3262 
112 1.16532 0.424952 2.80165 0.724467 0 0 0 0.46784 0.431164 0.0413152 
162 0.457141 2.5951 0.566883 0.691737 0 0 0 -0.198985 0.795885 -0.433703 
132 0.66222 2.53027 0.217891 0.732798 0 0 0 0.175162 0.271947 -0.335465 
133 0.0922404 1.78605 0.558715 0.665837 0 0 0 -0.455916 0.139879 -0.504162 
134 0.162152 2.01557 0.24243 0.736259 0 0 0 -0.340437 0.197177 -0.589831 
135 1.32373 2.40948 0.4462 0.616066 0 0 0 0.357547 -1.41328 1.05043 
136 1.10481 2.57107 0.555834 0.622616 0 0 0 0.397431 -0.469654 0.464794 
137 0.0490369 2.5059 0.614627 0.758154 0 0 0 -0.886004 0.864016 -0.494785 
138 0.513595 2.21214 0.0647112 0.745661 0 0 0 0.264209 0.00928357 -0.51183 
139 0.291598 2.24804 0.292716 0.722672 0 0 0 -0.18669 0.33474 -0.526095 
140 0.883335 2.73443 0.162877 0.770975 0 0 0 0.129494 0.361213 -0.29001 
141 -0.0439156 2.3866 0.160641 0.86376 0 0 0 -0.835637 0.588511 -0.612651 
142 1.45321 2.54109 0.575779 0.605432 0 0 0 -0.0152771 -1.15817 0.848439 
143 1.27571 2.91643 0.597735 0.687648 0 0 0 -0.0928393 0.533062 -0.00197868 
160 0.794612 3.07601 0.428214 0.804013 0 0 0 -0.207694 1.16478 -0.290259 
145 0.495421 2.00223 0.0139396 0.74095 0 0 0 0.384891 -0.14098 -0.551349 
146 1.33715 2.00136 0.341052 0.601081 0 0 0 0.654428 -2.10929 2.10558 
147 0.766197 1.82077 0.226307 0.636295 0 0 0 1.1953 -0.680008 0.317617 
148 1.26681 3.02295 0.252031 0.79905 0 0 0 -0.0618186 0.640646 -0.233342 
156 0.0923352 1.95726 0.419736 0.705678 0 0 0 -0.503529 0.220008 -0.514312 
150 1.0832 1.84154 0.514012 0.549522 0 0 0 1.65376 -2.03896 2.64032 
155 0.80265 1.62672 0.139302 0.650624 0 0 0 1.20365 -0.523882 0.23214 
161 1.37471 2.00684 0.411129 0.582786 0 0 0 0.554472 -2.40396 2.53748 
159 0.0392295 1.48546 -0.0352889 0.821637 0 0 0 -0.532883 -0.159714 -0.891077 
170 1.13968 2.09623 1.09396 0.440549 0 0 0 1.46604 -3.77866 4.57885 
163 0.512819 2.85755 0.715427 0.721363 0 0 0 -0.362557 1.2601 -0.434141 
202 0.614152 2.0095 1.00203 0.503112 0 0 0 1.09999 -0.139521 -1.05798 
167 0.867403 1.79174 1.05682 0.436402 0 0 0 2.56079 -1.83461 2.56786 
225 1.49735 1.51636 1.51443 0.217518 0 0 0 -0.855119 -0.816598 -0.886613 
169 0.925712 1.73867 1.43071 0.356736 0 0 0 1.84668 -1.94817 4.9286 
201 -0.0238966 2.74169 0.921928 0.78736 0 0 0 -1.10162 1.15804 -0.493655 
171 0.344799 1.88397 1.31499 0.510871 0 0 0 -0.752117 0.282537 -1.14347 
183 1.05569 1.45292 1.46249 0.315991 0 0 0 3.4176 1.60684 1.20739 
30 0.792089 1.64482 1.51741 0.376353 0 0 0 1.02629 0.0813593 0.162035 
174 0.20688 1.77876 1.03603 0.567114 0 0 0 -0.476515 0.230796 -1.02289 
210 1.50148 1.47893 1.50125 0.217348 0 0 0 0.564891 0.987644 0.144099 
157 1.18863 2.27084 1.02742 0.47847 0 0 0 0.92758 -2.54604 1.97873 
152 1.07997 2.08941 0.712463 0.523344 0 0 0 1.53883 -2.43134 2.37598 
314 1.50113 1.48138 1.50212 0.21725 0 0 0 0.470099 0.863679 0.0401436 
197 0.0748422 2.23525 1.0802 0.643443 0 0 0 -1.00239 0.595568 -0.809905 
180 0.421876 2.02562 1.49853 0.493813 0 0 0 -1.13648 0.339425 -0.727746 
181 0.627687 2.08579 1.41777 0.456517 0 0 0 -0.466815 0.710732 -1.41783 
428 1.18669 2.56475 1.42784 0.483302 0 0 0 -0.598174 1.18331 -1.62201 
410 1.4991 1.48774 1.50438 0.217078 0 0 0 0.802239 0.610775 -0.0309199 
184 0.816888 2.82807 1.23688 0.60367 0 0 0 -0.226957 1.5711 -1.11909 
460 1.49413 1.50152 1.50836 0.217103 0 0 0 -0.273561 -0.0785944 -0.507228 
186 0.975643 2.81774 1.04021 0.606021 0 0 0 -0.0236921 1.00238 -0.639717 
196 0.570965 1.70122 1.47318 0.43214 0 0 0 -0.553709 0.191677 -0.178883 
188 0.309626 2.5385 1.32084 0.613259 0 0 0 -0.883883 1.28405 -1.11732 
200 0.952341 2.70818 1.14964 0.565976 0 0 0 0.0652669 0.959653 -1.0381 
190 0.811566 1.85976 1.03819 0.453607 0 0 0 2.21276 -1.24135 0.978982 
166 0.578323 1.64115 0.820063 0.51415 0 0 0 1.37959 -0.126795 -0.491413 
192 0.613365 2.06273 1.28737 0.468808 0 0 0 0.152237 0.522656 -1.6671 
193 1.11512 2.50091 1.38662 0.476142 0 0 0 -0.418138 0.868658 -1.5248 
203 1.49709 1.53529 1.52114 0.218902 0 0 0 -1.53177 -1.18325 -1.05428 
208 1.50103 1.48233 1.50246 0.217216 0 0 0 0.443867 0.811468 0.00677994 
41 1.49969 1.49087 1.50544 0.217016 0 0 0 0.111257 0.318321 -0.332644 
342 1.4981 1.50466 1.51029 0.217087 0 0 0 -0.412954 -0.391639 -0.698061 
164 1.49914 1.49496 1.50687 0.216987 0 0 0 -0.0434433 0.0852182 -0.462611 
40 1.49907 1.4955 1.50707 0.216986 0 0 0 -0.0641623 0.0553548 -0.478393 
219 1.49839 1.50152 1.50918 0.217029 0 0 0 -0.293277 -0.250027 -0.631436 
73 1.49776 1.50903 1.51184 0.217209 0 0 0 -0.578914 -0.568821 -0.778338 
43 0.805602 1.44796 1.37081 0.376498 0 0 0 1.30549 -0.0245906 1.27888 
418 1.50719 1.47294 1.49917 0.217691 0 0 0 -0.374828 0.848233 0.0273029 
158 1.23226 1.80439 1.11315 0.38919 0 0 0 1.3872 -9.68946 21.2892 
394 1.50446 1.487 1.49865 0.217129 0 0 0 -0.307295 0.64325 -1.03947 
107 1.49844 1.45725 1.49537 0.21885 0 0 0 1.73308 1.28207 2.58763 
215 0.540872 2.16283 1.63005 0.479713 0 0 0 -1.42847 0.603995 -0.340476 
447 1.39749 2.80308 2.23838 0.567394 0 0 0 -0.109925 1.23069 1.24134 
205 0.0357108 1.958 2.06486 0.630639 0 0 0 -1.35402 -0.385493 0.701822 
206 1.02526 2.47209 2.29806 0.526081 0 0 0 -0.784597 0.075782 2.24093 
207 0.438847 2.84841 1.72196 0.648681 0 0 0 -0.970143 1.70349 -0.719302 
257 1.1462 1.73854 1.5693 0.308092 0 0 0 0.15104 1.36681 0.791806 
194 0.555394 1.94539 1.63956 0.452293 0 0 0 -1.32456 0.0738289 0.248938 
235 1.21548 2.18612 2.35238 0.493661 0 0 0 -0.51571 -1.03702 1.78982 
211 0.95635 2.92221 2.05614 0.605035 0 0 0 -0.719775 1.80984 0.0663223 
212 0.453132 2.60916 1.67387 0.582914 0 0 0 -1.16158 1.49545 -0.741551 
213 0.821559 1.77282 1.80143 0.397828 0 0 0 -0.215242 0.0122106 -1.25205 
242 0.400461 2.35909 2.29194 0.595599 0 0 0 -1.03597 -0.27233 1.19629 
231 0.848343 2.32006 2.12816 0.491557 0 0 0 -1.46646 0.000740907 2.18593 
216 1.16683 2.94849 2.0896 0.599368 0 0 0 -0.547749 1.81478 0.245506 
217 0.343203 2.85139 1.83538 0.671172 0 0 0 -1.07812 1.48817 -0.520576 
218 0.188134 2.60236 1.94756 0.653437 0 0 0 -1.42614 0.765572 -0.0979014 
468 0.852821 2.30966 1.85529 0.453563 0 0 0 -2.19987 1.12484 0.887568 
204 0.982444 2.13675 1.79705 0.40018 0 0 0 -3.11391 1.07119 0.489723 
221 0.781364 2.16855 1.99554 0.461677 0 0 0 -1.8178 -0.142117 1.89156 
222 0.874649 2.13024 1.82114 0.418687 0 0 0 -2.52247 0.608067 0.876307 
223 0.648262 1.75377 1.7334 0.42543 0 0 0 -0.64731 -0.244289 0.582286 
246 1.14636 1.78049 1.58 0.313137 0 0 0 -0.965258 1.31986 0.384055 
104 0.233991 1.55829 2.31381 0.605701 0 0 0 -0.27397 -0.332355 0.943815 
226 1.33009 3.06354 2.06162 0.62623 0 0 0 -0.383238 1.88234 0.0383562 
227 0.147302 1.58649 2.08044 0.590156 0 0 0 -0.739011 -0.333812 0.957691 
234 1.08919 1.77501 1.65727 0.327878 0 0 0 -0.110995 5.13783 -13.7875 
238 1.01266 1.72345 1.58264 0.33368 0 0 0 1.23747 1.37744 -3.74644 
321 1.32126 2.33262 1.84131 0.409753 0 0 0 -2.19703 3.09489 1.0582 
475 0.852227 2.20785 1.83084 0.434529 0 0 0 -2.39331 0.831177 0.936031 
476 1.236 2.27058 2.30391 0.488503 0 0 0 -0.670054 -0.59179 2.2973 
189 0.782456 2.23929 1.56137 0.444168 0 0 0 -1.22521 1.2433 -1.12481 
239 1.34951 1.89791 1.62616 0.304187 0 0 0 -5.24269 3.48685 3.25137 
328 1.239 2.61189 1.80516 0.480289 0 0 0 -1.13662 2.5566 -0.28973 
185 0.0296389 2.45809 1.54539 0.667552 0 0 0 -1.48897 0.759408 -0.529483 
337 1.08117 2.12647 1.79494 0.384859 0 0 0 -3.71941 1.5428 0.134486 
462 1.494 3.28882 1.96819 0.696855 0 0 0 -0.327511 1.9614 -0.252652 
168 1.33186 1.85861 1.63155 0.298785 0 0 0 -4.91582 3.88119 2.867 
247 1.21227 2.26017 1.82707 0.399114 0 0 0 -3.19401 2.60096 0.841876 
177 1.34232 2.09073 1.75652 0.350181 0 0 0 -4.10405 3.77394 -1.22944 
485 1.5067 2.80876 2.33205 0.58372 0 0 0 0.0957415 0.928998 1.38008 
264 1.3721 2.24531 1.827 0.387488 0 0 0 -2.45613 3.42764 0.951614 
69 1.4045 2.22361 1.82304 0.38168 0 0 0 -2.2886 3.58824 0.83242 
483 1.42127 2.31224 1.83497 0.402122 0 0 0 -1.57734 3.46077 1.19422 
350 1.439 2.29199 1.83174 0.397129 0 0 0 -1.51876 3.5418 1.19895 
249 0.810742 1.71806 2.34598 0.511764 0 0 0 1.12858 -0.642086 -0.195693 
420 1.11136 1.94425 1.68019 0.344427 0 0 0 -3.58149 1.60301 -2.54937 
240 1.4289 1.99381 1.67738 0.320758 0 0 0 -4.0491 3.95808 0.323947 
300 1.51916 1.67207 1.57346 0.245251 0 0 0 -3.20727 2.24192 -0.655187 
398 1.51864 1.67007 1.57263 0.244757 0 0 0 -3.21567 2.19137 -0.697168 
29 0.0998268 1.58839 1.57877 0.564952 0 0 0 -1.34131 0.0104369 0.251694 
224 1.11369 1.66991 1.54005 0.307839 0 0 0 2.25682 1.35898 0.489604 
111 0.951808 1.52523 1.75501 0.365732 0 0 0 2.94894 3.99125 -11.4179 
105 1.42238 1.7449 1.56871 0.264088 0 0 0 -3.21282 2.2961 8.89252 
172 1.02342 1.85688 1.56822 0.344257 0 0 0 -0.614908 -1.55364 3.58426 
153 1.36635 1.72336 1.67665 0.280182 0 0 0 -1.66281 12.4725 -21.7914 
341 1.49772 1.55245 1.52725 0.220825 0 0 0 -2.06964 -1.20835 -1.11639 
144 1.49737 1.55543 1.52765 0.22119 0 0 0 -2.02499 -1.23606 -0.917723 
332 1.49424 1.56547 1.53147 0.222689 0 0 0 -0.540409 -0.877431 -0.942928 
486 1.5315 1.94567 2.1528 0.420411 0 0 0 -0.552466 0.806697 -5.18623 
336 1.53233 1.71296 1.59081 0.255617 0 0 0 -2.86243 3.06816 0.0552338 
80 1.49759 1.55014 1.52642 0.220532 0 0 0 -2.00239 -1.22032 -1.11145 
232 0.492161 2.02195 2.69548 0.64261 0 0 0 -0.0745501 -0.804797 1.41707 
233 0.819152 1.89518 2.82464 0.638635 0 0 0 0.440499 -0.774786 1.02628 
255 -0.0545561 2.84034 2.49112 0.830806 0 0 0 -1.33128 0.662498 0.395595 
266 0.366654 1.98499 2.58794 0.636922 0 0 0 -0.320955 -0.7494 1.30896 
236 1.10598 2.61864 2.76414 0.651239 0 0 0 -0.0563169 -0.167822 1.86496 
237 0.373431 2.44496 2.4469 0.637517 0 0 0 -0.879451 -0.195093 1.14201 
262 0.719178 1.67966 2.53177 0.568063 0 0 0 0.926259 -0.484216 0.339168 
254 0.214176 2.73861 3.11696 0.891495 0 0 0 -0.712476 0.273399 1.4505 
118 0.0283938 1.48111 2.6882 0.743107 0 0 0 -0.65359 -0.166582 1.01434 
241 0.939423 2.12978 3.11426 0.728297 0 0 0 0.137857 -0.661525 1.5426 
265 0.0329567 3.01139 2.61218 0.868522 0 0 0 -1.12544 0.909764 0.525479 
243 0.559649 3.01397 2.64267 0.760243 0 0 0 -0.508843 1.0028 0.85837 
244 -0.0538448 3.17009 2.96979 1.01469 0 0 0 -0.989225 0.906804 0.853315 
245 1.25688 2.18075 2.86042 0.631952 0 0 0 -0.0453925 -0.976663 1.37668 
256 0.0639229 2.93296 2.98771 0.92831 0 0 0 -0.938697 0.617746 1.1011 
260 -0.0684606 2.86215 2.72929 0.88498 0 0 0 -1.22646 0.592824 0.736876 
248 0.535508 2.66342 2.98131 0.774499 0 0 0 -0.342586 0.0705743 1.64873 
507 1.514 2.78544 2.91086 0.717641 0 0 0 0.00161167 0.24119 1.77998 
258 0.563516 2.96535 3.08817 0.865751 0 0 0 -0.344527 0.623049 1.47812 
251 0.511305 2.47669 2.63315 0.654783 0 0 0 -0.499789 -0.285976 1.47388 
252 -0.111922 2.39186 2.39214 0.756581 0 0 0 -1.48802 -0.039761 0.500065 
253 1.04036 3.18639 2.78129 0.794805 0 0 0 -0.146946 1.14523 1.12596 
267 1.82892 0.385598 0.47778 0.596852 0 0 0 -0.154239 -0.0364227 -2.08401 
268 2.77883 0.405526 0.286064 0.786132 0 0 0 1.25567 -0.45982 -1.24518 
269 2.2067 0.040287 -0.170097 0.890931 0 0 0 0.374261 -0.769618 -1.63992 
270 2.56706 0.0594588 -0.0701722 0.91177 0 0 0 0.827071 -0.801592 -1.41335 
291 2.17938 0.517071 -0.0151462 0.745447 0 0 0 0.104541 -0.0265134 -1.80515 
272 2.88249 0.826455 0.434376 0.720699 0 0 0 1.24072 0.0309641 -1.12 
273 1.72709 1.05679 0.271323 0.594022 0 0 0 -0.639121 0.752346 0.272426 
295 2.1713 1.36023 0.380863 0.583848 0 0 0 -1.32072 0.225619 0.267952 
275 2.66357 -0.0269322 -0.00181712 0.933268 0 0 0 0.95208 -0.903049 -1.25184 
276 1.80978 0.0752484 0.0483202 0.778948 0 0 0 -0.0838287 -0.687911 -1.77597 
294 1.7398 1.32132 0.468053 0.539316 0 0 0 -1.13502 0.0486633 2.88234 
278 1.84913 0.118939 -0.0193115 0.792008 0 0 0 -0.0537307 -0.61386 -1.79869 
279 2.175 0.767303 0.422033 0.586648 0 0 0 -0.127567 0.711319 -1.57241 
290 2.36632 1.24236 0.156961 0.668461 0 0 0 -0.466672 0.30725 -0.928692 
281 2.44926 1.10437 0.372457 0.618622 0 0 0 -0.226717 0.581784 -1.09595 
289 2.44023 0.744301 0.539649 0.597763 0 0 0 0.576941 0.387534 -1.48425 
292 2.33956 0.902123 0.628316 0.547957 0 0 0 0.151941 0.787021 -1.36185 
284 1.63517 0.788282 0.385011 0.57014 0 0 0 -0.509417 0.94016 -0.962216 
285 2.84963 1.17716 0.0625928 0.791309 0 0 0 0.715081 0.0555135 -1.2482 
286 1.78723 0.48572 0.44494 0.587349 0 0 0 -0.294077 0.282614 -2.06146 
287 2.57698 1.17322 0.482563 0.61156 0 0 0 0.0428274 0.539609 -1.02999 
288 2.12027 0.470308 0.103731 0.706466 0 0 0 0.0548152 -0.00960439 -1.83867 
283 2.43674 -0.0381371 0.797334 0.720709 0 0 0 1.11703 -1.28519 -0.55813 
297 2.10953 0.404044 1.31447 0.50788 0 0 0 1.90416 -1.28958 1.10997 
298 2.93 0.378401 1.22614 0.699641 0 0 0 1.80704 -0.768708 0.103677 
299 2.17785 0.794496 1.15772 0.446812 0 0 0 3.04156 -0.0321792 -0.486612 
326 2.16131 0.241582 1.27565 0.557614 0 0 0 1.36199 -1.47811 0.897723 
421 1.83955 1.44085 1.50274 0.295546 0 0 0 -2.29146 -3.41401 -0.0471898 
302 2.2023 0.171771 1.03879 0.593099 0 0 0 1.23411 -1.32822 -0.190313 
409 1.6811 1.13812 1.38277 0.302338 0 0 0 7.62344 -3.47507 0.201241 
304 2.56841 0.907698 0.967204 0.532659 0 0 0 1.36616 0.34282 -0.843729 
327 2.48296 0.0221914 1.06097 0.685999 0 0 0 1.27707 -1.34477 -0.00758984 
271 2.0399 0.860397 1.25086 0.407327 0 0 0 4.83325 -0.126361 -0.0685234 
325 1.98594 0.355554 1.00005 0.521513 0 0 0 1.37384 -1.15541 -1.03989 
308 1.84277 0.353848 1.39549 0.497793 0 0 0 1.14377 -1.67533 1.55098 
309 2.88629 1.00557 1.17505 0.59401 0 0 0 1.74579 0.142717 -0.102382 
352 2.8534 1.20475 1.47988 0.560577 0 0 0 1.7611 0.0542364 0.516984 
311 2.00273 0.716305 0.96515 0.458608 0 0 0 2.42607 -0.00758941 -1.77905 
312 2.53391 1.33844 0.846886 0.525579 0 0 0 -0.117245 0.548457 -0.597111 
293 2.42309 1.11164 0.861817 0.504926 0 0 0 0.210295 0.810971 -0.87915 
324 1.62813 -0.0597951 0.885017 0.633872 0 0 0 -0.114652 -1.61403 -0.68511 
315 2.60039 1.07859 1.23024 0.500886 0 0 0 1.63799 0.261142 -0.0845773 
316 2.72627 0.872234 1.06806 0.566481 0 0 0 1.68889 0.0840387 -0.390905 
317 2.17447 0.00895809 1.26039 0.630985 0 0 0 0.833504 -1.67303 0.738095 
345 2.10887 1.08501 1.35917 0.384713 0 0 0 3.1561 0.531042 0.357402 
323 2.38134 0.331228 1.45359 0.569985 0 0 0 1.39883 -1.12546 1.28539 
455 2.55583 1.28173 1.36755 0.472766 0 0 0 1.51344 0.132498 0.181885 
435 2.27638 1.22552 1.31462 0.411361 0 0 0 0.998489 0.0653435 0.565532 
448 2.20141 1.19778 1.32868 0.395787 0 0 0 1.29406 0.0629336 0.913634 
330 2.12818 0.96826 1.33153 0.403423 0 0 0 3.69318 0.317403 0.284997 
333 2.02458 1.08667 1.30522 0.371338 0 0 0 4.55191 0.0172683 1.82272 
320 2.05153 1.24466 1.39438 0.356996 0 0 0 1.45082 -0.218169 1.67613 
85 1.93766 0.688031 1.22732 0.424793 0 0 0 4.19059 -1.03483 -0.384189 
72 1.85277 0.835644 1.34412 0.381421 0 0 0 5.99013 -0.139416 -1.58465 
280 1.92793 1.15719 0.954508 0.418539 0 0 0 0.282062 -0.515845 5.51782 
282 1.82597 1.09003 1.37787 0.331794 0 0 0 7.68134 0.0354924 -2.08892 
58 1.53876 0.410763 0.794837 0.520964 0 0 0 -0.628864 -0.813612 -2.48368 
7 1.78036 0.749633 1.18988 0.399086 0 0 0 4.57936 -1.93018 -1.07283 
175 1.68619 0.702474 1.18442 0.402967 0 0 0 3.05541 -2.53245 -1.39663 
151 1.67337 0.694865 1.1842 0.404024 0 0 0 2.80375 -2.59517 -1.42879 
102 1.68173 0.685801 1.18739 0.406093 0 0 0 2.83236 -2.53403 -1.39632 
401 1.68762 1.21331 1.38462 0.290457 0 0 0 6.15695 -7.39895 9.30981 
431 1.82256 1.38593 1.47812 0.294162 0 0 0 -1.17689 -3.90129 1.50364 
230 1.56873 0.813998 1.19065 0.375189 0 0 0 1.90272 -3.51162 -0.549883 
402 1.95157 1.39055 1.18273 0.365164 0 0 0 -1.92899 -6.34793 17.6067 
61 2.0614 1.43224 1.48036 0.347742 0 0 0 -1.14318 -1.58254 0.681248 
305 2.1485 1.42894 1.51639 0.368185 0 0 0 -0.452459 -0.690372 -0.938459 
89 2.19201 1.4391 1.48267 0.378191 0 0 0 -0.208893 -1.02961 0.257753 
363 1.70564 1.42062 1.5126 0.263061 0 0 0 1.53695 23.0453 -69.0533 
500 2.10569 1.32174 1.88392 0.412448 0 0 0 -1.33937 1.80847 -6.18371 
355 2.35839 0.184454 1.86313 0.634469 0 0 0 0.366739 -1.07699 1.05966 
381 3.11612 1.01979 2.35073 0.739096 0 0 0 1.30339 -0.262211 0.688382 
331 2.87923 0.0788081 2.06589 0.792853 0 0 0 1.0863 -1.15044 0.611456 
364 1.76963 0.735987 2.16029 0.517309 0 0 0 -0.565307 2.08265 -2.76993 
456 2.33967 1.28734 1.85279 0.452111 0 0 0 -0.0218447 -0.0187327 -0.567944 
334 2.84871 0.650638 1.56623 0.619735 0 0 0 1.61389 -0.526197 0.79648 
379 2.85971 0.751268 2.16119 0.662739 0 0 0 0.956961 -0.296411 0.716322 
357 2.79171 1.1106 1.69074 0.555739 0 0 0 1.47424 -0.156934 0.974886 
349 2.50806 1.06994 1.68912 0.485856 0 0 0 1.04794 -0.242884 1.07406 
338 2.91329 1.04907 1.57017 0.592008 0 0 0 1.69161 -0.0901544 0.716282 
339 2.60637 0.208207 1.78259 0.663658 0 0 0 0.880236 -1.0994 0.930343 
340 2.03196 0.919074 1.73825 0.427769 0 0 0 0.610003 2.04131 -2.76103 
380 2.25571 1.36196 2.17207 0.492287 0 0 0 -0.922214 0.227017 -1.48845 
356 2.53184 0.904635 2.0194 0.548951 0 0 0 0.22965 -0.0733118 0.595458 
359 2.00327 -0.09605 2.15981 0.722346 0 0 0 0.00874217 -1.20849 0.524032 
344 2.80142 -0.0437782 2.11852 0.816014 0 0 0 0.909454 -1.29324 0.606343 
348 3.04076 1.33757 1.60003 0.619055 0 0 0 1.74335 -0.105231 0.435848 
346 1.58773 0.374972 1.94495 0.544623 0 0 0 0.0740445 0.36099 0.0551651 
354 2.04635 0.84323 1.58868 0.422712 0 0 0 2.33697 1.06399 -0.593041 
368 2.37677 0.682568 2.36623 0.614731 0 0 0 -0.272385 0.0967237 0.0449417 
366 1.71032 1.3823 2.0488 0.405709 0 0 0 -1.48456 7.06396 -20.3591 
371 2.18583 0.971473 2.33558 0.551661 0 0 0 -0.951554 0.813088 -1.29553 
377 1.74601 1.18744 1.971 0.407223 0 0 0 -1.22668 7.54433 -18.0398 
360 1.90747 0.404478 2.3254 0.616733 0 0 0 -0.290924 0.209337 -0.467823 
361 2.15681 1.26107 2.27567 0.509606 0 0 0 -1.32496 0.77234 -2.2214 
335 2.54275 0.223581 1.52697 0.631493 0 0 0 1.20218 -1.16839 0.995514 
384 1.99729 -0.077636 2.77942 0.849446 0 0 0 0.0754677 -0.817673 0.466727 
376 2.66835 0.594173 2.77916 0.779062 0 0 0 0.370186 -0.267659 0.787301 
375 2.39585 0.989106 2.70504 0.665023 0 0 0 -0.364331 0.253878 0.190195 
362 2.50173 1.42621 2.86667 0.69643 0 0 0 -0.126948 -0.207812 0.712524 
126 1.54709 0.230959 2.44275 0.669909 0 0 0 0.190628 -0.0431593 -0.289624 
383 3.11738 1.16306 2.83543 0.835523 0 0 0 1.03592 -0.275968 0.893812 
365 2.9694 -0.0926752 2.52754 0.942725 0 0 0 0.964675 -1.11938 0.625878 
374 2.49303 0.362287 2.5845 0.739404 0 0 0 0.163748 -0.518972 0.603559 
367 2.83512 -0.095216 2.44692 0.894593 0 0 0 0.828577 -1.20575 0.631815 
382 2.46012 0.611973 2.90139 0.779647 0 0 0 0.00278987 -0.0960358 0.703898 
369 2.63777 0.58011 2.64824 0.739166 0 0 0 0.331722 -0.276017 0.688822 
373 2.14105 0.726532 2.45078 0.603868 0 0 0 -0.651289 0.594296 -0.68058 
406 2.09112 2.16897 0.430838 0.611265 0 0 0 -1.06552 -1.43413 0.481088 
386 2.0284 2.99123 0.371049 0.772705 0 0 0 -0.203152 0.499829 -0.469321 
387 2.72329 1.69898 0.60938 0.62061 0 0 0 0.125384 -0.139238 -0.67005 
408 1.85314 2.49566 0.317939 0.670082 0 0 0 -0.440774 -0.943475 0.185414 
389 2.18616 3.05826 0.428308 0.790716 0 0 0 -0.0941005 0.695837 -0.557211 
390 2.98317 1.77901 0.535156 0.707931 0 0 0 0.849924 -0.129256 -0.779549 
391 2.11535 1.83161 0.648482 0.532527 0 0 0 -2.13317 -1.78885 1.75415 
403 2.5459 2.18678 0.119717 0.751349 0 0 0 -0.0754436 -0.411447 -0.815078 
393 2.66093 2.28842 0.183066 0.764201 0 0 0 0.173618 -0.246725 -0.873338 
405 2.78811 3.02173 -0.12111 1.01931 0 0 0 0.448673 0.483327 -0.802745 
395 1.81381 2.31843 0.625907 0.567286 0 0 0 -0.975021 -2.06636 1.3138 
396 2.10804 2.72738 0.663082 0.647388 0 0 0 -0.447569 -0.0233228 -0.398822 
397 2.16783 2.01056 -0.0025074 0.730131 0 0 0 -0.551794 -0.808925 -0.326927 
407 3.03609 2.65996 0.0661384 0.94152 0 0 0 0.752089 0.242118 -0.877935 
399 2.55634 2.07553 0.339482 0.678296 0 0 0 -0.217672 -0.510643 -0.662331 
400 3.03867 3.09633 0.0948068 1.03121 0 0 0 0.703317 0.615644 -0.726261 
404 2.54911 1.82912 0.135101 0.717734 0 0 0 -0.227235 -0.383327 -0.795853 
392 1.64898 1.70195 1.30224 0.313681 0 0 0 -4.3952 -24.5667 61.7726 
347 1.74968 2.58561 1.44171 0.482406 0 0 0 -0.442374 0.909032 -1.16965 
470 3.18034 2.73685 1.51285 0.777332 0 0 0 1.36502 0.545239 -0.283495 
412 2.83895 2.70487 0.904631 0.719795 0 0 0 0.791077 0.476953 -0.695042 
413 2.99686 2.31763 1.18363 0.663644 0 0 0 1.32584 -0.0830824 -0.625411 
414 2.35624 1.78558 1.13988 0.461764 0 0 0 -0.7421 -1.47683 0.0408219 
415 2.1873 1.95171 0.959636 0.482595 0 0 0 -2.14013 -2.22291 1.05732 
416 1.76813 2.56766 1.21183 0.503755 0 0 0 -0.959948 -0.469326 -0.755553 
454 1.96176 3.07035 1.40585 0.634754 0 0 0 -0.187829 1.48751 -0.880989 
427 1.90156 2.97811 1.41373 0.60058 0 0 0 -0.275438 1.39299 -1.01348 
419 3.09087 2.31628 1.28366 0.685429 0 0 0 1.47357 -0.0907737 -0.502452 
457 2.18048 2.18526 1.39274 0.445662 0 0 0 0.664339 -0.84857 -0.804438 
411 1.77754 1.4971 1.51758 0.27906 0 0 0 -3.50431 -3.86774 0.147667 
422 2.52327 1.82722 0.892715 0.53417 0 0 0 -0.488508 -0.711609 -0.445577 
423 2.22281 3.17064 1.41836 0.692847 0 0 0 0.211831 1.49872 -0.625275 
424 1.98908 2.69972 0.785545 0.609122 0 0 0 -0.644644 -0.213526 -0.311736 
425 2.52502 2.65947 0.978217 0.634303 0 0 0 0.284956 0.379815 -0.819757 
426 2.16556 2.22827 1.02762 0.500696 0 0 0 -1.39634 -1.51877 -0.245628 
446 2.15404 1.47217 1.43062 0.370646 0 0 0 -0.758143 -2.07808 2.30964 
441 3.15009 2.03261 1.39372 0.670917 0 0 0 1.68533 -0.39316 -0.321682 
429 2.28301 3.01718 0.83094 0.71077 0 0 0 -0.01753 0.880804 -0.645502 
430 3.24666 2.98694 1.29672 0.866167 0 0 0 1.22318 0.801658 -0.328427 
449 2.29124 2.24049 1.41349 0.472486 0 0 0 0.979789 -0.238172 -1.01197 
388 1.59812 2.19684 1.01816 0.463187 0 0 0 -1.12523 -4.52477 4.55109 
433 2.03728 1.73802 1.21704 0.390801 0 0 0 -3.06219 -5.99432 9.07394 
434 1.60082 2.73668 1.06615 0.558629 0 0 0 -0.646771 -0.104374 -0.50738 
432 2.37388 1.88404 1.34991 0.447539 0 0 0 0.877479 -1.55956 -0.547234 
436 3.01036 2.09203 0.84311 0.681814 0 0 0 1.07793 -0.223389 -0.688415 
437 2.8462 1.57157 0.96614 0.587292 0 0 0 0.941027 0.0775498 -0.585506 
438 2.85549 2.16438 1.42914 0.589201 0 0 0 1.62874 -0.368364 -0.503899 
439 3.06985 3.26361 1.23339 0.897856 0 0 0 0.94955 1.11242 -0.325503 
440 2.10109 2.01539 0.939849 0.483859 0 0 0 -2.34462 -2.61684 1.56013 
458 2.1452 2.40779 1.42054 0.480222 0 0 0 0.452001 0.375931 -1.04742 
464 2.20089 2.07552 1.39204 0.431482 0 0 0 0.776236 -1.57496 -0.489538 
443 2.5877 1.94946 2.09056 0.535521 0 0 0 1.22741 -0.88323 1.06622 
444 2.84859 1.46505 1.86655 0.570206 0 0 0 1.47554 -0.495901 0.741088 
445 2.81527 2.21551 2.1293 0.614387 0 0 0 1.2189 -0.376541 0.618618 
310 1.78293 2.08928 1.76574 0.364646 0 0 0 2.92969 1.76754 -0.104242 
372 1.61022 2.19643 1.81033 0.377707 0 0 0 0.390866 3.52849 0.842799 
296 2.37676 1.99588 1.7502 0.454789 0 0 0 2.73144 -0.912832 0.691407 
471 1.98874 1.90614 1.68087 0.358624 0 0 0 3.6828 -2.27051 -0.855771 
450 2.67999 1.85887 1.96779 0.537545 0 0 0 1.57153 -0.979863 0.850337 
182 1.64286 1.88949 1.64867 0.302927 0 0 0 0.631826 1.14022 2.0337 
452 2.1188 2.90997 1.68517 0.592221 0 0 0 0.466511 1.44554 -0.398899 
453 1.56027 2.45095 2.19981 0.487034 0 0 0 0.354075 0.827433 2.32803 
469 2.08406 1.70843 2.0562 0.431066 0 0 0 0.0260466 -0.355276 -3.08902 
343 2.09717 1.70347 1.57754 0.360074 0 0 0 0.921746 -3.60612 0.0492859 
481 2.16302 2.25178 1.79843 0.451736 0 0 0 2.75697 0.771836 1.11109 
467 1.86345 2.6493 1.66668 0.495961 0 0 0 0.528517 1.84499 -0.479494 
378 1.78868 2.33535 1.81544 0.420985 0 0 0 1.83514 2.73102 1.37878 
459 3.15663 2.7618 2.17728 0.80369 0 0 0 1.3311 0.59901 0.259745 
277 1.76728 1.99982 1.70693 0.340649 0 0 0 3.00514 0.914875 -1.08488 
461 1.65114 2.97998 1.7122 0.580967 0 0 0 -0.214522 1.91985 -0.769166 
263 1.87894 1.99472 1.72044 0.355844 0 0 0 3.87607 -0.294749 -0.870047 
261 1.68405 1.99278 1.69119 0.329301 0 0 0 1.71206 1.80484 -0.60381 
176 1.90639 1.54435 1.53657 0.311142 0 0 0 -2.19444 -3.76102 0.588371 
465 1.96042 2.96194 1.89533 0.597782 0 0 0 0.44138 1.55928 0.0162107 
466 2.24247 3.2713 1.79524 0.726834 0 0 0 0.419266 1.6269 -0.19418 
319 2.24975 1.91453 1.63878 0.411731 0 0 0 2.91668 -1.83118 0.106658 
478 2.18734 3.04935 2.25827 0.683236 0 0 0 0.539362 1.21412 0.572471 
484 1.90492 2.64751 2.31714 0.562311 0 0 0 0.647537 0.489748 1.45391 
187 2.13031 2.09995 1.70539 0.413708 0 0 0 3.45097 -0.361838 0.630728 
509 3.29296 2.84291 2.26144 0.875195 0 0 0 1.37373 0.653915 0.329602 
488 2.31766 1.87768 1.72535 0.42917 0 0 0 2.78255 -1.52834 0.406045 
492 2.70859 2.30871 2.28735 0.620862 0 0 0 0.893953 -0.21379 0.823945 
494 2.94686 2.34984 2.28063 0.684459 0 0 0 1.18416 -0.127237 0.575907 
504 2.87671 1.9456 2.27657 0.631952 0 0 0 1.10362 -0.739894 0.756526 
199 1.89314 1.96045 1.70229 0.351186 0 0 0 3.89532 -0.926793 -1.12822 
120 1.67258 1.96379 1.67438 0.321488 0 0 0 1.45913 1.53501 -0.0074154 
442 2.28183 1.67739 1.7112 0.410209 0 0 0 1.6841 -1.59506 -0.505098 
498 2.04613 1.55965 1.97779 0.409441 0 0 0 -0.91065 1.08497 -7.14703 
487 1.91916 2.03369 2.33112 0.488956 0 0 0 0.032629 -0.698218 0.224861 
209 2.03145 1.7059 1.5911 0.345966 0 0 0 0.866103 -3.84892 -0.484531 
36 2.10178 2.14084 1.72251 0.416344 0 0 0 3.40652 0.0972085 0.774122 
191 1.67811 1.96819 1.67706 0.323024 0 0 0 1.57655 1.52186 -0.149517 
417 2.33714 2.53508 1.7657 0.533533 0 0 0 1.30008 0.973376 0.259028 
451 2.99114 2.22371 1.53029 0.633451 0 0 0 1.65107 -0.275918 -0.312239 
259 1.58512 1.88708 1.64908 0.297929 0 0 0 -0.810737 2.34902 2.43828 
463 1.58447 1.95969 1.66739 0.313834 0 0 0 -0.644253 2.58973 1.3185 
307 1.54446 1.74375 1.60346 0.263563 0 0 0 -2.4704 3.24147 0.80587 
220 1.54373 1.74205 1.60278 0.263122 0 0 0 -2.49477 3.24162 0.762328 
496 2.03147 2.50601 2.78625 0.657585 0 0 0 0.0310497 -0.18122 1.52989 
472 2.0747 1.79642 2.63684 0.574765 0 0 0 -0.779206 -0.595599 -0.0763913 
473 1.75625 1.5959 2.58876 0.549215 0 0 0 -1.17769 0.121218 -2.34787 
474 2.95854 3.17647 2.68346 0.934253 0 0 0 0.901266 1.04183 0.755754 
497 1.61663 1.94128 2.57965 0.539007 0 0 0 -0.635561 -1.02515 -0.520652 
502 2.22662 2.57159 2.71503 0.667084 0 0 0 0.220396 0.0468177 1.38663 
477 3.17713 2.0138 2.59479 0.781977 0 0 0 1.29713 -0.453759 0.857134 
513 2.63016 3.02979 3.05944 0.919996 0 0 0 0.557671 0.805126 1.27699 
479 1.80985 1.75127 2.417 0.49856 0 0 0 -1.15681 -0.356593 -2.63224 
501 1.6536 2.45381 3.00118 0.698249 0 0 0 -0.144842 -0.376349 1.73337 
503 2.03372 3.1535 2.47845 0.734325 0 0 0 0.328418 1.26102 0.849384 
482 1.57532 3.16057 3.12964 0.875847 0 0 0 0.0454393 0.862647 1.49567 
511 3.00814 2.13234 2.41307 0.70201 0 0 0 1.18574 -0.463515 0.754338 
510 2.10249 2.54653 2.61072 0.62352 0 0 0 0.225986 -0.0462942 1.38352 
508 2.62305 1.96044 3.05692 0.77212 0 0 0 0.282788 -0.409107 1.38037 
505 3.15567 2.91939 3.22206 1.06051 0 0 0 0.887148 0.587056 1.13087 
499 1.80691 1.78436 2.91322 0.645105 0 0 0 -0.705512 -0.515546 0.136778 
495 2.94831 1.72933 2.79659 0.758141 0 0 0 0.827141 -0.50684 1.07249 
489 3.12957 1.50361 3.00017 0.868008 0 0 0 0.95928 -0.334805 1.04647 
490 2.37284 2.40854 2.58346 0.629826 0 0 0 0.304737 -0.181172 1.22528 
491 2.27434 1.49882 2.74564 0.62995 0 0 0 -0.618179 -0.160357 0.104055 
506 1.97648 2.06882 3.04671 0.700278 0 0 0 -0.385132 -0.559224 1.21409 
493 3.07267 3.01074 2.79147 0.943093 0 0 0 1.00008 0.817251 0.886014 
480 2.35966 2.25058 2.39424 0.569219 0 0 0 0.406846 -0.387126 1.22442 
ITEM: TIMESTEP
800986
ITEM: NUMBER OF ATOMS
512
ITEM: BOX BOUNDS ss ss ss
-2.2775349561678951e-01 3.2932607586404616e+00
-4.0122540508749138e-01 3.2891132425832117e+00
-1.7039273299291779e-01 3.2223573019164853e+00
ITEM: ATOMS id x y z width_SPH x_COM y_COM z_COM vx vy vz 
23 0.539287 1.16104 0.372781 0.613015 0 0 0 0.633792 -0.0976447 -0.569979 
3 -0.140329 -0.124433 0.0939741 1.0357 0 0 0 -1.01065 -0.934129 -0.881346 
4 1.1215 0.71024 0.26551 0.622553 0 0 0 0.00936516 0.20978 -1.02934 
5 0.225459 1.27088 -0.0394011 0.782509 0 0 0 -0.197427 -0.301966 -0.966499 
6 0.0115266 1.14394 0.376959 0.727352 0 0 0 -0.762226 -0.268016 -0.705386 
22 0.128621 1.05029 0.0596003 0.785116 0 0 0 -0.507385 -0.424306 -0.970662 
8 0.686461 0.733455 -0.0391956 0.747513 0 0 0 0.0953322 -0.433145 -1.18304 
9 1.3567 -0.241853 0.263492 0.804205 0 0 0 -0.298891 -1.18641 -1.40896 
10 -0.0863158 -0.263405 0.0260451 1.07371 0 0 0 -0.93197 -0.985729 -0.901906 
11 0.920705 1.15036 -0.0285253 0.696436 0 0 0 0.752232 -0.165341 -0.435094 
12 0.461886 1.343 0.164184 0.674423 0 0 0 0.502727 -0.204166 -0.606943 
13 0.278629 -0.299309 0.200452 0.957906 0 0 0 -0.8063 -1.14363 -1.01852 
14 0.972038 1.22081 0.390069 0.568523 0 0 0 1.27038 0.142486 0.812752 
15 1.08249 0.66997 0.304808 0.617964 0 0 0 -0.0678977 0.142889 -1.16071 
16 0.612757 -0.235827 0.244741 0.869625 0 0 0 -0.630655 -1.16659 -1.20389 
17 0.87827 0.253888 0.00522931 0.783181 0 0 0 -0.298607 -0.660959 -1.49784 
18 0.562191 0.565603 0.356093 0.673121 0 0 0 -0.327153 -0.544897 -1.23563 
274 1.4895 1.31441 0.568087 0.508708 0 0 0 -0.206615 -0.281925 4.84909 
20 0.679389 0.94068 0.297781 0.628464 0 0 0 0.463991 -0.143621 -0.76645 
62 1.19143 1.02676 0.635985 0.499497 0 0 0 0.00573697 0.577722 1.37854 
50 0.549987 -0.38103 0.627223 0.850632 0 0 0 -0.738652 -1.36615 -0.856483 
31 -0.066698 1.19079 0.657985 0.694831 0 0 0 -0.999906 -0.0999466 -0.58464 
44 0.384567 0.857337 0.611346 0.611979 0 0 0 -0.31797 -0.373746 -1.12026 
24 1.01877 -0.213784 1.39568 0.679354 0 0 0 -0.123976 -1.69285 0.603279 
353 1.43469 1.07795 1.35086 0.306618 0 0 0 -0.47796 -3.56904 0.635789 
26 -0.135937 1.02548 1.49494 0.658914 0 0 0 -1.52793 0.0880308 0.0612299 
27 0.398738 1.14913 0.83239 0.546231 0 0 0 -0.0929883 0.0261943 -1.24834 
28 0.947156 0.224999 1.38726 0.550774 0 0 0 -0.881492 -1.47364 0.742563 
91 0.800642 1.12867 1.21354 0.410233 0 0 0 -0.998704 -0.848662 -0.341458 
303 1.47401 1.06097 1.34497 0.308979 0 0 0 0.971355 -3.79493 0.770693 
65 0.669834 0.471782 1.33838 0.530129 0 0 0 -1.1556 -1.29714 0.0919668 
32 0.390327 -0.347398 1.28432 0.80911 0 0 0 -0.778094 -1.47594 -0.132801 
33 0.747582 -0.211898 1.15272 0.709654 0 0 0 -0.599477 -1.55105 -0.195149 
173 0.936218 0.960756 1.29479 0.396884 0 0 0 -3.46717 -1.14493 -0.810982 
35 1.49751 0.0185847 0.818713 0.616276 0 0 0 -0.421801 -1.4179 -1.15815 
21 1.50709 1.44185 1.49138 0.220515 0 0 0 0.244912 1.59348 0.62087 
154 1.32469 1.31545 1.43484 0.268891 0 0 0 1.65047 2.35708 -4.96227 
38 0.219852 1.02869 0.800811 0.601115 0 0 0 -0.640091 -0.16966 -1.01705 
39 -0.227458 0.894409 1.43968 0.703333 0 0 0 -1.58737 -0.0297023 -0.0849067 
2 1.14968 0.675241 1.21354 0.426027 0 0 0 -4.14283 -2.31406 -1.38033 
351 0.859146 1.19146 1.32514 0.381097 0 0 0 -0.728007 -0.464273 0.44373 
42 0.799969 1.37177 1.32996 0.382826 0 0 0 0.818909 -0.146353 1.0549 
195 1.40658 0.799871 1.18838 0.381449 0 0 0 -2.14164 -3.62158 -0.893381 
318 1.4922 1.0687 1.34922 0.30665 0 0 0 1.80133 -3.84491 0.632797 
45 0.998554 0.22403 1.32982 0.545672 0 0 0 -1.04169 -1.56828 0.537143 
46 0.610447 0.267937 0.790684 0.635117 0 0 0 -0.974942 -0.894092 -1.36006 
47 1.21211 0.915315 0.835749 0.454217 0 0 0 -1.73102 -0.485184 0.987987 
48 0.52662 0.788821 1.37475 0.498783 0 0 0 -1.0529 -1.06536 0.0363336 
250 1.49187 1.08593 1.35641 0.302457 0 0 0 1.96539 -3.83506 0.345167 
79 1.49623 1.36941 1.46082 0.233518 0 0 0 3.64272 0.757907 0.55147 
51 0.476674 1.30496 0.949272 0.506038 0 0 0 0.169095 0.221638 -1.33576 
52 1.29203 0.226355 1.31754 0.525363 0 0 0 -0.907424 -1.9114 0.784919 
53 -0.0398844 0.626633 1.25892 0.678804 0 0 0 -1.45044 -0.441288 -0.414635 
54 1.02301 -0.40093 1.42876 0.74746 0 0 0 0.00506177 -1.74379 0.51376 
385 1.48525 1.28967 1.43147 0.252412 0 0 0 3.42438 -2.10643 0.491572 
56 1.27651 0.103593 1.02254 0.574015 0 0 0 -0.869676 -1.66904 -0.734833 
178 0.995026 1.43603 1.45857 0.329985 0 0 0 2.91025 1.35583 0.624055 
115 1.50526 1.15041 1.3764 0.287018 0 0 0 3.096 -4.38444 0.778143 
59 0.618217 0.602602 1.24067 0.51739 0 0 0 -1.3168 -1.26835 -0.59605 
124 1.46275 1.03846 1.3335 0.314951 0 0 0 0.307953 -3.79361 1.08097 
306 1.50773 -0.285864 0.765566 0.723846 0 0 0 -0.12772 -1.6043 -0.682432 
64 0.863756 -0.339054 1.3046 0.736468 0 0 0 -0.275661 -1.69422 0.221027 
119 1.46935 1.29803 1.43364 0.251084 0 0 0 3.24214 -1.66989 0.901164 
313 1.06026 1.33634 1.41902 0.322543 0 0 0 1.09851 0.946956 2.21124 
149 1.36226 1.21564 1.35164 0.287129 0 0 0 -1.32946 -1.55712 -0.80139 
179 1.27092 0.655445 1.19794 0.42036 0 0 0 -3.4966 -2.75726 -1.57713 
106 1.48398 1.28129 1.42805 0.254531 0 0 0 3.33269 -2.41715 0.654052 
322 1.48977 1.08076 1.35422 0.303751 0 0 0 1.82437 -3.82942 0.432833 
19 1.48533 0.423849 1.00494 0.484894 0 0 0 -0.852822 -1.86256 -1.917 
512 1.49419 1.3562 1.4562 0.236441 0 0 0 3.67172 0.311954 0.468455 
301 0.93061 1.30713 1.40803 0.352103 0 0 0 0.844358 0.695816 0.473251 
214 1.39941 0.983956 1.30052 0.332294 0 0 0 -2.34867 -3.66492 1.32693 
77 0.453288 1.43621 1.29507 0.467504 0 0 0 -0.729931 0.32274 -0.756562 
358 0.802632 1.13455 1.1541 0.418095 0 0 0 -0.811607 -0.815772 -0.341107 
81 0.658633 0.594058 1.15419 0.517895 0 0 0 -1.43273 -1.24585 -1.06384 
71 0.654126 1.22741 1.34848 0.421632 0 0 0 -0.472668 -0.274625 -0.36686 
329 0.872551 1.19711 1.34631 0.376298 0 0 0 -0.66402 -0.284554 0.350721 
57 1.51229 0.644704 1.1874 0.412431 0 0 0 -0.122564 -3.05673 -1.62636 
122 1.21656 0.673191 1.20291 0.420714 0 0 0 -3.98094 -2.58498 -1.5253 
74 0.9748 0.84529 1.26176 0.411888 0 0 0 -4.06649 -1.59231 -1.0577 
228 1.19611 1.41564 1.46552 0.285849 0 0 0 3.66141 1.69352 2.54445 
198 0.988604 1.43717 1.45868 0.331365 0 0 0 2.8783 1.25705 0.754229 
165 1.32819 0.926633 1.25837 0.353439 0 0 0 -4.3045 -3.50951 0.956221 
101 1.00028 1.23476 1.37484 0.345701 0 0 0 -1.00808 0.36513 1.1649 
82 0.914212 0.731782 1.19891 0.446424 0 0 0 -3.04117 -1.67022 -1.19379 
229 1.43794 1.01783 1.32157 0.321264 0 0 0 -0.817521 -3.73952 1.25716 
66 0.0779133 -0.209392 2.31731 0.901787 0 0 0 -0.687959 -1.05208 0.580833 
67 0.896592 0.389783 1.98979 0.568993 0 0 0 0.535184 -0.0874306 0.637805 
68 1.03629 0.897863 1.78784 0.431441 0 0 0 0.893 2.98621 -4.25754 
95 0.398485 -0.0109024 2.10984 0.741994 0 0 0 -0.24993 -0.999985 0.679924 
70 0.431861 1.36488 2.12842 0.534681 0 0 0 0.50193 -0.113957 0.726923 
88 0.0603618 0.335404 2.25425 0.754695 0 0 0 -0.785908 -0.437361 0.7803 
55 0.179153 0.110082 1.56622 0.715516 0 0 0 -0.990362 -1.03048 0.129739 
63 0.0686978 1.42391 1.57716 0.574449 0 0 0 -1.32733 0.122353 0.333581 
87 -0.124825 0.602197 1.97093 0.726215 0 0 0 -1.23339 -0.227806 0.58644 
75 0.134231 1.38274 2.08425 0.597903 0 0 0 -0.600595 -0.1111 0.927886 
86 1.52819 0.494281 1.73489 0.483928 0 0 0 0.0889658 0.601316 0.0042739 
90 0.772495 1.18916 2.00601 0.467509 0 0 0 2.16493 1.08645 -1.69327 
78 0.397217 -0.00263 2.21456 0.755241 0 0 0 -0.216494 -0.931591 0.705689 
113 0.978004 1.36 2.06099 0.439918 0 0 0 2.96969 2.54528 -6.73484 
93 0.81134 0.804862 2.0233 0.511044 0 0 0 1.24664 0.892038 -0.290622 
92 0.388019 0.389794 1.87057 0.619935 0 0 0 -0.311899 -0.630195 0.888689 
108 1.18119 0.815745 2.12937 0.500496 0 0 0 1.03678 2.73474 -3.2615 
83 0.717764 1.15514 1.91968 0.462905 0 0 0 1.76403 0.737033 -0.786826 
84 0.247414 0.0622361 2.16075 0.758665 0 0 0 -0.490197 -0.857549 0.680795 
96 1.42755 0.839305 1.89149 0.437822 0 0 0 0.31104 5.24133 -7.8738 
127 1.45838 0.642886 2.04465 0.504504 0 0 0 0.179359 2.32783 -2.51022 
34 -0.00995067 0.530522 1.66397 0.680598 0 0 0 -1.25689 -0.447001 0.292413 
60 0.61672 0.958431 1.89369 0.49654 0 0 0 0.906038 0.186401 0.694793 
25 1.06931 0.282779 1.61881 0.537638 0 0 0 -0.332309 -0.974011 1.42412 
76 0.5695 0.905026 1.57236 0.476953 0 0 0 -0.410872 -0.726924 0.959409 
94 0.548014 0.81221 1.57409 0.49466 0 0 0 -0.474158 -0.799148 1.01573 
37 0.451647 1.06436 1.55401 0.483798 0 0 0 -0.715215 -0.372701 0.801546 
49 -0.225095 0.992379 1.53528 0.693613 0 0 0 -1.56995 0.0719938 0.0721434 
125 1.09267 1.35857 2.31577 0.494746 0 0 0 1.87399 1.87925 -4.76192 
370 1.52837 0.876188 2.34621 0.535458 0 0 0 -0.11405 2.66183 -3.73609 
121 1.2299 0.0557176 2.56175 0.739897 0 0 0 0.420633 -0.46344 0.188909 
97 0.741255 0.963635 2.6719 0.641808 0 0 0 0.79109 0.769511 -0.027676 
98 0.311901 1.033 2.82434 0.738884 0 0 0 -0.0618687 0.189117 0.942197 
99 0.716606 0.0242837 2.58279 0.779046 0 0 0 0.238147 -0.650589 0.651579 
100 0.647803 0.403616 2.84607 0.773451 0 0 0 0.218148 0.0515991 0.748537 
128 0.383363 1.44118 2.49724 0.615766 0 0 0 0.291505 -0.114643 0.746904 
131 0.549718 1.23793 2.93584 0.721723 0 0 0 0.375441 0.238877 0.767549 
103 1.03332 0.516067 2.74005 0.695682 0 0 0 0.557488 0.579619 -0.00875055 
130 1.37067 0.46521 2.56845 0.65114 0 0 0 0.363704 0.736503 -0.682343 
114 1.06694 0.880377 2.58087 0.60421 0 0 0 0.894374 1.4752 -1.26374 
129 0.508149 0.0503799 3.07878 0.938568 0 0 0 -0.0943893 -0.452572 0.926429 
116 -0.0918045 0.828692 2.48471 0.768908 0 0 0 -0.926299 -0.00656081 0.91268 
117 -0.112809 0.373906 2.52757 0.849198 0 0 0 -0.96399 -0.312895 0.858355 
109 0.427185 0.944434 3.03849 0.793868 0 0 0 0.0459983 0.256787 0.963236 
110 0.486302 -0.255057 2.78202 0.938172 0 0 0 -0.121545 -0.936643 0.76415 
123 1.28799 1.23656 2.37885 0.511354 0 0 0 0.83453 2.64148 -5.32623 
112 1.16532 0.424952 2.80165 0.724467 0 0 0 0.467843 0.431163 0.0413132 
162 0.457141 2.5951 0.566883 0.691737 0 0 0 -0.198987 0.795887 -0.433705 
132 0.66222 2.53027 0.217891 0.732799 0 0 0 0.175161 0.271949 -0.335466 
133 0.0922403 1.78605 0.558715 0.665837 0 0 0 -0.455919 0.13988 -0.504162 
134 0.162152 2.01557 0.24243 0.736259 0 0 0 -0.340438 0.197179 -0.589831 
135 1.32373 2.40948 0.4462 0.616066 0 0 0 0.357546 -1.41328 1.05043 
136 1.10481 2.57107 0.555834 0.622616 0 0 0 0.39743 -0.469653 0.464793 
137 0.0490366 2.5059 0.614627 0.758155 0 0 0 -0.886007 0.864018 -0.494786 
138 0.513596 2.21214 0.064711 0.745661 0 0 0 0.264208 0.00928573 -0.51183 
139 0.291598 2.24804 0.292716 0.722672 0 0 0 -0.186691 0.334742 -0.526096 
140 0.883335 2.73443 0.162877 0.770975 0 0 0 0.129493 0.361215 -0.29001 
141 -0.0439158 2.3866 0.160641 0.86376 0 0 0 -0.835639 0.588512 -0.612651 
142 1.45321 2.54109 0.575779 0.605432 0 0 0 -0.0152778 -1.15817 0.848439 
143 1.27571 2.91643 0.597735 0.687648 0 0 0 -0.0928398 0.533064 -0.00198062 
160 0.794612 3.07601 0.428214 0.804013 0 0 0 -0.207695 1.16478 -0.290261 
145 0.495421 2.00223 0.0139395 0.74095 0 0 0 0.384891 -0.140978 -0.551348 
146 1.33715 2.00136 0.341052 0.601081 0 0 0 0.654428 -2.10929 2.10558 
147 0.766197 1.82077 0.226307 0.636295 0 0 0 1.1953 -0.680006 0.31762 
148 1.26681 3.02295 0.25203 0.799051 0 0 0 -0.0618193 0.640647 -0.233343 
156 0.0923351 1.95726 0.419736 0.705678 0 0 0 -0.503531 0.220009 -0.514312 
150 1.0832 1.84154 0.514013 0.549522 0 0 0 1.65376 -2.03896 2.64033 
155 0.80265 1.62672 0.139302 0.650624 0 0 0 1.20365 -0.52388 0.232143 
161 1.37471 2.00684 0.41113 0.582786 0 0 0 0.554472 -2.40396 2.53749 
159 0.0392293 1.48546 -0.0352892 0.821637 0 0 0 -0.532884 -0.159712 -0.891076 
170 1.13968 2.09623 1.09396 0.440549 0 0 0 1.46603 -3.77867 4.57889 
163 0.512819 2.85755 0.715427 0.721363 0 0 0 -0.362559 1.2601 -0.434144 
202 0.614152 2.0095 1.00203 0.503112 0 0 0 1.09999 -0.139519 -1.05798 
167 0.867403 1.79174 1.05682 0.436402 0 0 0 2.56078 -1.83462 2.56789 
225 1.49735 1.51636 1.51443 0.217518 0 0 0 -0.855141 -0.816424 -0.886799 
169 0.925713 1.73867 1.43071 0.356735 0 0 0 1.84665 -1.94816 4.9286 
201 -0.0238969 2.74169 0.921928 0.78736 0 0 0 -1.10163 1.15804 -0.493657 
171 0.344799 1.88397 1.31499 0.510871 0 0 0 -0.752128 0.282537 -1.14347 
183 1.05569 1.45292 1.4625 0.315991 0 0 0 3.41758 1.60683 1.20742 
30 0.792089 1.64482 1.51741 0.376353 0 0 0 1.02626 0.0813547 0.162022 
174 0.20688 1.77876 1.03603 0.567114 0 0 0 -0.47652 0.230795 -1.02289 
210 1.50148 1.47893 1.50125 0.217348 0 0 0 0.564866 0.98776 0.143858 
157 1.18863 2.27084 1.02742 0.47847 0 0 0 0.927579 -2.54604 1.97875 
152 1.07997 2.08941 0.712464 0.523343 0 0 0 1.53883 -2.43134 2.37599 
314 1.50113 1.48138 1.50212 0.21725 0 0 0 0.470075 0.8638 0.0399055 
197 0.074842 2.23525 1.0802 0.643443 0 0 0 -1.00239 0.595569 -0.809907 
180 0.421875 2.02562 1.49853 0.493813 0 0 0 -1.1365 0.339427 -0.727752 
181 0.627686 2.08579 1.41777 0.456517 0 0 0 -0.46683 0.710741 -1.41784 
428 1.18669 2.56475 1.42784 0.483302 0 0 0 -0.598168 1.18332 -1.62201 
410 1.4991 1.48774 1.50438 0.217077 0 0 0 0.802201 0.61091 -0.0311604 
184 0.816888 2.82807 1.23688 0.60367 0 0 0 -0.226957 1.57111 -1.11909 
460 1.49413 1.50152 1.50836 0.217103 0 0 0 -0.273551 -0.078455 -0.507364 
186 0.975643 2.81774 1.04021 0.606021 0 0 0 -0.0236926 1.00238 -0.63972 
196 0.570965 1.70122 1.47318 0.43214 0 0 0 -0.553733 0.191673 -0.17889 
188 0.309625 2.5385 1.32084 0.613259 0 0 0 -0.883886 1.28405 -1.11732 
200 0.952341 2.70818 1.14964 0.565977 0 0 0 0.0652665 0.959655 -1.0381 
190 0.811567 1.85976 1.03819 0.453607 0 0 0 2.21275 -1.24135 0.978997 
166 0.578323 1.64115 0.820062 0.51415 0 0 0 1.37959 -0.126796 -0.491409 
192 0.613365 2.06273 1.28737 0.468808 0 0 0 0.152224 0.522661 -1.6671 
193 1.11512 2.50091 1.38662 0.476142 0 0 0 -0.418134 0.868665 -1.5248 
203 1.49709 1.53529 1.52114 0.218902 0 0 0 -1.53181 -1.18308 -1.05444 
208 1.50103 1.48233 1.50246 0.217216 0 0 0 0.443843 0.811591 0.00654268 
41 1.49969 1.49087 1.50544 0.217016 0 0 0 0.111237 0.318463 -0.332864 
342 1.4981 1.50466 1.51029 0.217087 0 0 0 -0.412972 -0.391475 -0.698261 
164 1.49914 1.49496 1.50687 0.216987 0 0 0 -0.0434627 0.0853676 -0.462824 
40 1.49907 1.4955 1.50707 0.216986 0 0 0 -0.0641815 0.0555052 -0.478605 
219 1.49839 1.50152 1.50918 0.217029 0 0 0 -0.293296 -0.249867 -0.63164 
73 1.49776 1.50903 1.51184 0.217209 0 0 0 -0.578933 -0.568652 -0.778533 
43 0.805602 1.44796 1.37081 0.376498 0 0 0 1.30548 -0.0246118 1.27888 
418 1.50719 1.47294 1.49917 0.217691 0 0 0 -0.374839 0.848335 0.0270784 
158 1.23226 1.80439 1.11315 0.389189 0 0 0 1.38715 -9.68962 21.2898 
394 1.50446 1.487 1.49865 0.217128 0 0 0 -0.307344 0.643159 -1.03908 
107 1.49844 1.45725 1.49537 0.21885 0 0 0 1.73308 1.28225 2.58709 
215 0.540871 2.16283 1.63005 0.479714 0 0 0 -1.42848 0.604 -0.340481 
447 1.39749 2.80308 2.23838 0.567394 0 0 0 -0.109919 1.23069 1.24134 
205 0.0357105 1.958 2.06486 0.630639 0 0 0 -1.35403 -0.385494 0.70182 
206 1.02526 2.47209 2.29806 0.526081 0 0 0 -0.784587 0.0757806 2.24093 
207 0.438847 2.84841 1.72196 0.648681 0 0 0 -0.970143 1.70349 -0.719304 
257 1.1462 1.73854 1.5693 0.308092 0 0 0 0.15098 1.36687 0.791872 
194 0.555394 1.94539 1.63956 0.452293 0 0 0 -1.32458 0.0738332 0.248933 
235 1.21548 2.18612 2.35238 0.493661 0 0 0 -0.515696 -1.03702 1.78981 
211 0.95635 2.92221 2.05614 0.605035 0 0 0 -0.719771 1.80985 0.0663208 
212 0.453131 2.60916 1.67387 0.582914 0 0 0 -1.16158 1.49545 -0.741554 
213 0.821559 1.77282 1.80143 0.397827 0 0 0 -0.215255 0.0122259 -1.25207 
242 0.400461 2.35909 2.29194 0.595599 0 0 0 -1.03597 -0.27233 1.19629 
231 0.848343 2.32006 2.12816 0.491557 0 0 0 -1.46645 0.000740924 2.18592 
216 1.16683 2.94849 2.0896 0.599368 0 0 0 -0.547744 1.81478 0.245504 
217 0.343203 2.85139 1.83538 0.671172 0 0 0 -1.07812 1.48817 -0.520577 
218 0.188134 2.60236 1.94756 0.653437 0 0 0 -1.42614 0.765572 -0.0979029 
468 0.852821 2.30967 1.85529 0.453564 0 0 0 -2.19986 1.12485 0.887565 
204 0.982443 2.13675 1.79705 0.40018 0 0 0 -3.11389 1.07121 0.489719 
221 0.781364 2.16855 1.99554 0.461678 0 0 0 -1.81779 -0.142114 1.89156 
222 0.874648 2.13024 1.82114 0.418687 0 0 0 -2.52246 0.608083 0.876304 
223 0.648262 1.75377 1.73341 0.42543 0 0 0 -0.647329 -0.244285 0.582275 
246 1.14636 1.78049 1.58 0.313137 0 0 0 -0.965304 1.3199 0.384157 
104 0.233991 1.55829 2.31381 0.605701 0 0 0 -0.273973 -0.332355 0.943812 
226 1.33009 3.06354 2.06162 0.62623 0 0 0 -0.383234 1.88233 0.0383548 
227 0.147302 1.58649 2.08044 0.590157 0 0 0 -0.739015 -0.333813 0.957688 
234 1.08919 1.77502 1.65726 0.327878 0 0 0 -0.111034 5.1378 -13.7873 
238 1.01266 1.72345 1.58264 0.33368 0 0 0 1.23743 1.37745 -3.74636 
321 1.32126 2.33262 1.84131 0.409753 0 0 0 -2.19701 3.09489 1.05819 
475 0.852226 2.20785 1.83084 0.434529 0 0 0 -2.39331 0.831189 0.936028 
476 1.236 2.27058 2.30391 0.488504 0 0 0 -0.670038 -0.591793 2.29729 
189 0.782456 2.23929 1.56137 0.444168 0 0 0 -1.22522 1.24332 -1.12482 
239 1.3495 1.89791 1.62616 0.304187 0 0 0 -5.24273 3.48686 3.25149 
328 1.239 2.61189 1.80516 0.480289 0 0 0 -1.13661 2.5566 -0.289736 
185 0.0296385 2.45809 1.54539 0.667553 0 0 0 -1.48897 0.759408 -0.529485 
337 1.08117 2.12647 1.79494 0.384859 0 0 0 -3.71937 1.54282 0.134481 
462 1.494 3.28882 1.96819 0.696855 0 0 0 -0.327509 1.96139 -0.252653 
168 1.33186 1.85861 1.63155 0.298785 0 0 0 -4.91587 3.88128 2.86692 
247 1.21227 2.26017 1.82707 0.399114 0 0 0 -3.19398 2.60097 0.841867 
177 1.34232 2.09073 1.75652 0.350181 0 0 0 -4.10403 3.77394 -1.22942 
485 1.5067 2.80876 2.33205 0.58372 0 0 0 0.0957463 0.928997 1.38008 
264 1.3721 2.24531 1.827 0.387488 0 0 0 -2.4561 3.42764 0.951602 
69 1.4045 2.22362 1.82304 0.38168 0 0 0 -2.28857 3.58825 0.832408 
483 1.42127 2.31224 1.83497 0.402122 0 0 0 -1.57732 3.46077 1.19421 
350 1.439 2.29199 1.83174 0.397129 0 0 0 -1.51873 3.5418 1.19894 
249 0.810742 1.71806 2.34598 0.511764 0 0 0 1.12858 -0.642084 -0.195704 
420 1.11136 1.94425 1.68019 0.344427 0 0 0 -3.58147 1.60303 -2.54933 
240 1.4289 1.99382 1.67738 0.320758 0 0 0 -4.04911 3.95808 0.324008 
300 1.51916 1.67207 1.57346 0.245251 0 0 0 -3.20738 2.24213 -0.655295 
398 1.51863 1.67007 1.57263 0.244757 0 0 0 -3.21579 2.19158 -0.697273 
29 0.0998265 1.58839 1.57877 0.564952 0 0 0 -1.34132 0.0104354 0.251691 
224 1.11369 1.66991 1.54005 0.307838 0 0 0 2.25675 1.35902 0.489714 
111 0.951809 1.52523 1.755 0.365731 0 0 0 2.94893 3.99129 -11.418 
105 1.42238 1.7449 1.56871 0.264088 0 0 0 -3.21298 2.29609 8.89305 
172 1.02342 1.85688 1.56822 0.344257 0 0 0 -0.614935 -1.55357 3.5842 
153 1.36635 1.72336 1.67664 0.280181 0 0 0 -1.66287 12.4732 -21.7928 
341 1.49772 1.55245 1.52725 0.220825 0 0 0 -2.06969 -1.20818 -1.11653 
144 1.49737 1.55543 1.52765 0.22119 0 0 0 -2.02505 -1.2359 -0.917805 
332 1.49424 1.56547 1.53147 0.222689 0 0 0 -0.540531 -0.877266 -0.943027 
486 1.5315 1.94567 2.1528 0.42041 0 0 0 -0.552453 0.806718 -5.18628 
336 1.53233 1.71296 1.59081 0.255617 0 0 0 -2.86253 3.06837 0.0550762 
80 1.49759 1.55014 1.52642 0.220532 0 0 0 -2.00243 -1.22014 -1.11159 
232 0.492161 2.02195 2.69548 0.64261 0 0 0 -0.0745493 -0.804796 1.41706 
233 0.819152 1.89518 2.82464 0.638636 0 0 0 0.440501 -0.774785 1.02627 
255 -0.0545564 2.84034 2.49112 0.830806 0 0 0 -1.33128 0.662498 0.395594 
266 0.366653 1.98499 2.58794 0.636922 0 0 0 -0.320955 -0.7494 1.30895 
236 1.10598 2.61864 2.76414 0.651239 0 0 0 -0.0563131 -0.167822 1.86495 
237 0.373431 2.44496 2.4469 0.637517 0 0 0 -0.879451 -0.195093 1.14201 
262 0.719178 1.67966 2.53177 0.568063 0 0 0 0.926261 -0.484216 0.339161 
254 0.214176 2.73861 3.11696 0.891495 0 0 0 -0.712476 0.273399 1.4505 
118 0.0283936 1.48111 2.6882 0.743107 0 0 0 -0.653592 -0.166582 1.01434 
241 0.939423 2.12978 3.11426 0.728298 0 0 0 0.13786 -0.661525 1.54259 
265 0.0329564 3.01139 2.61218 0.868522 0 0 0 -1.12544 0.909764 0.525477 
243 0.559649 3.01397 2.64267 0.760243 0 0 0 -0.508842 1.0028 0.858368 
244 -0.053845 3.17009 2.96979 1.01469 0 0 0 -0.989224 0.906804 0.853314 
245 1.25688 2.18075 2.86042 0.631952 0 0 0 -0.0453879 -0.976663 1.37667 
256 0.0639227 2.93296 2.98771 0.928311 0 0 0 -0.938697 0.617746 1.1011 
260 -0.0684609 2.86215 2.72929 0.88498 0 0 0 -1.22646 0.592824 0.736874 
248 0.535508 2.66342 2.98131 0.774499 0 0 0 -0.342584 0.0705746 1.64873 
507 1.514 2.78544 2.91086 0.717641 0 0 0 0.00161427 0.24119 1.77998 
258 0.563516 2.96535 3.08817 0.865752 0 0 0 -0.344525 0.623049 1.47812 
251 0.511305 2.47669 2.63315 0.654783 0 0 0 -0.499787 -0.285976 1.47388 
252 -0.111923 2.39186 2.39214 0.756581 0 0 0 -1.48802 -0.0397608 0.500063 
253 1.04036 3.18639 2.78129 0.794805 0 0 0 -0.146944 1.14523 1.12596 
267 1.82892 0.385598 0.477779 0.596853 0 0 0 -0.154242 -0.0364239 -2.08401 
268 2.77883 0.405526 0.286064 0.786132 0 0 0 1.25567 -0.459822 -1.24518 
269 2.2067 0.0402868 -0.170097 0.890931 0 0 0 0.374261 -0.769619 -1.63992 
270 2.56706 0.0594586 -0.0701726 0.91177 0 0 0 0.827071 -0.801594 -1.41335 
291 2.17938 0.517071 -0.0151467 0.745447 0 0 0 0.10454 -0.0265142 -1.80514 
272 2.88249 0.826455 0.434376 0.720699 0 0 0 1.24072 0.0309624 -1.12 
273 1.72709 1.05679 0.271323 0.594022 0 0 0 -0.639123 0.752347 0.272431 
295 2.1713 1.36023 0.380863 0.583848 0 0 0 -1.32072 0.225622 0.267956 
275 2.66357 -0.0269324 -0.00181744 0.933268 0 0 0 0.95208 -0.90305 -1.25184 
276 1.80978 0.0752483 0.0483197 0.778948 0 0 0 -0.0838287 -0.687911 -1.77597 
294 1.7398 1.32132 0.468053 0.539316 0 0 0 -1.13502 0.0486669 2.88236 
278 1.84913 0.118939 -0.019312 0.792009 0 0 0 -0.0537308 -0.61386 -1.79869 
279 2.175 0.767303 0.422033 0.586648 0 0 0 -0.127571 0.711318 -1.57241 
290 2.36631 1.24236 0.15696 0.668462 0 0 0 -0.466673 0.307251 -0.928691 
281 2.44926 1.10437 0.372457 0.618622 0 0 0 -0.226719 0.581785 -1.09595 
289 2.44023 0.744301 0.539648 0.597763 0 0 0 0.576939 0.387531 -1.48426 
292 2.33956 0.902123 0.628315 0.547957 0 0 0 0.151938 0.787019 -1.36185 
284 1.63517 0.788282 0.385011 0.57014 0 0 0 -0.509419 0.94016 -0.962212 
285 2.84963 1.17716 0.0625925 0.791309 0 0 0 0.715082 0.0555136 -1.2482 
286 1.78723 0.48572 0.44494 0.587349 0 0 0 -0.29408 0.282613 -2.06146 
287 2.57698 1.17322 0.482563 0.61156 0 0 0 0.0428275 0.53961 -1.02999 
288 2.12027 0.470308 0.103731 0.706467 0 0 0 0.0548139 -0.00960538 -1.83867 
283 2.43674 -0.0381375 0.797334 0.720709 0 0 0 1.11703 -1.28519 -0.55813 
297 2.10953 0.404043 1.31447 0.50788 0 0 0 1.90416 -1.2896 1.10997 
298 2.93 0.378401 1.22614 0.699641 0 0 0 1.80704 -0.768714 0.103677 
299 2.17785 0.794496 1.15772 0.446812 0 0 0 3.04155 -0.032204 -0.486617 
326 2.16131 0.241582 1.27565 0.557614 0 0 0 1.36199 -1.47812 0.897725 
421 1.83955 1.44085 1.50274 0.295546 0 0 0 -2.29137 -3.41402 -0.0473207 
302 2.2023 0.17177 1.03879 0.593099 0 0 0 1.23411 -1.32822 -0.190313 
409 1.6811 1.13812 1.38277 0.302338 0 0 0 7.62347 -3.47515 0.201153 
304 2.56841 0.907698 0.967204 0.532659 0 0 0 1.36617 0.342815 -0.843734 
327 2.48296 0.0221911 1.06097 0.685999 0 0 0 1.27707 -1.34478 -0.00758973 
271 2.0399 0.860397 1.25086 0.407327 0 0 0 4.83322 -0.126398 -0.0685237 
325 1.98594 0.355554 1.00005 0.521513 0 0 0 1.37383 -1.15542 -1.03989 
308 1.84277 0.353847 1.39549 0.497793 0 0 0 1.14376 -1.67534 1.55099 
309 2.88629 1.00557 1.17505 0.594011 0 0 0 1.7458 0.142715 -0.102383 
352 2.8534 1.20475 1.47988 0.560577 0 0 0 1.76111 0.0542352 0.516987 
311 2.00273 0.716305 0.965149 0.458608 0 0 0 2.42605 -0.00760202 -1.77905 
312 2.53391 1.33844 0.846886 0.525579 0 0 0 -0.117241 0.54846 -0.597115 
293 2.42309 1.11164 0.861817 0.504926 0 0 0 0.210297 0.810969 -0.879156 
324 1.62813 -0.0597955 0.885017 0.633873 0 0 0 -0.114652 -1.61404 -0.685108 
315 2.60039 1.07859 1.23024 0.500886 0 0 0 1.63801 0.261137 -0.0845793 
316 2.72627 0.872234 1.06806 0.566481 0 0 0 1.6889 0.0840336 -0.390908 
317 2.17447 0.00895768 1.26039 0.630985 0 0 0 0.833502 -1.67304 0.738096 
345 2.10887 1.08501 1.35917 0.384712 0 0 0 3.1561 0.530993 0.357406 
323 2.38134 0.331227 1.4536 0.569985 0 0 0 1.39883 -1.12548 1.2854 
455 2.55583 1.28173 1.36755 0.472766 0 0 0 1.51347 0.132498 0.181887 
435 2.27638 1.22552 1.31462 0.411361 0 0 0 0.998517 0.0653295 0.565534 
448 2.20141 1.19778 1.32868 0.395787 0 0 0 1.29409 0.0629091 0.913636 
330 2.12818 0.96826 1.33153 0.403423 0 0 0 3.69317 0.317359 0.284996 
333 2.02458 1.08667 1.30522 0.371338 0 0 0 4.55188 0.0172167 1.82272 
320 2.05153 1.24466 1.39438 0.356996 0 0 0 1.45085 -0.21822 1.67614 
85 1.93766 0.68803 1.22732 0.424793 0 0 0 4.19056 -1.03486 -0.384187 
72 1.85277 0.835644 1.34412 0.381422 0 0 0 5.99011 -0.139472 -1.58463 
280 1.92793 1.15719 0.954509 0.418539 0 0 0 0.282051 -0.515871 5.51785 
282 1.82597 1.09003 1.37787 0.331794 0 0 0 7.6813 0.0354063 -2.08889 
58 1.53876 0.410763 0.794836 0.520964 0 0 0 -0.628867 -0.81361 -2.48368 
7 1.78036 0.749633 1.18988 0.399086 0 0 0 4.57932 -1.9302 -1.07283 
175 1.68619 0.702474 1.18442 0.402967 0 0 0 3.05538 -2.53246 -1.39663 
151 1.67337 0.694864 1.1842 0.404024 0 0 0 2.80373 -2.59519 -1.42878 
102 1.68173 0.6858 1.18739 0.406093 0 0 0 2.83233 -2.53404 -1.39631 
401 1.68762 1.21331 1.38463 0.290458 0 0 0 6.15701 -7.39909 9.30979 
431 1.82256 1.38593 1.47812 0.294162 0 0 0 -1.17678 -3.90134 1.5035 
230 1.56873 0.813997 1.19065 0.375189 0 0 0 1.9027 -3.51163 -0.549874 
402 1.95157 1.39055 1.18274 0.365163 0 0 0 -1.92896 -6.34803 17.607 
61 2.0614 1.43224 1.48036 0.347742 0 0 0 -1.14313 -1.58255 0.681281 
305 2.1485 1.42894 1.51639 0.368184 0 0 0 -0.452415 -0.690372 -0.938436 
89 2.192 1.4391 1.48267 0.378191 0 0 0 -0.208852 -1.0296 0.257769 
363 1.70564 1.42063 1.51259 0.26306 0 0 0 1.53689 23.0444 -69.0515 
500 2.10569 1.32174 1.88392 0.412447 0 0 0 -1.33934 1.80848 -6.18376 
355 2.35839 0.184453 1.86313 0.634469 0 0 0 0.36674 -1.077 1.05967 
381 3.11612 1.01979 2.35073 0.739096 0 0 0 1.30339 -0.262213 0.688387 
331 2.87923 0.0788078 2.06589 0.792853 0 0 0 1.0863 -1.15044 0.611458 
364 1.76963 0.735988 2.16029 0.517309 0 0 0 -0.565301 2.08265 -2.76994 
456 2.33967 1.28734 1.85279 0.45211 0 0 0 -0.021823 -0.0187367 -0.567935 
334 2.84871 0.650638 1.56623 0.619735 0 0 0 1.61389 -0.526204 0.796483 
379 2.85971 0.751268 2.16119 0.662739 0 0 0 0.956965 -0.296416 0.716328 
357 2.79171 1.1106 1.69074 0.555739 0 0 0 1.47425 -0.156938 0.974893 
349 2.50806 1.06994 1.68912 0.485856 0 0 0 1.04796 -0.242895 1.07407 
338 2.91329 1.04907 1.57017 0.592008 0 0 0 1.69162 -0.0901578 0.716286 
339 2.60637 0.208206 1.78259 0.663658 0 0 0 0.880238 -1.09941 0.930346 
340 2.03196 0.919075 1.73824 0.427769 0 0 0 0.61002 2.04129 -2.76105 
380 2.25571 1.36196 2.17207 0.492286 0 0 0 -0.922207 0.227015 -1.48845 
356 2.53184 0.904635 2.0194 0.548951 0 0 0 0.229656 -0.073319 0.595467 
359 2.00327 -0.0960503 2.15981 0.722346 0 0 0 0.00874365 -1.20849 0.524033 
344 2.80142 -0.0437785 2.11852 0.816014 0 0 0 0.909456 -1.29324 0.606346 
348 3.04076 1.33757 1.60003 0.619055 0 0 0 1.74336 -0.105231 0.435851 
346 1.58773 0.374972 1.94495 0.544623 0 0 0 0.0740481 0.360983 0.0551616 
354 2.04635 0.84323 1.58868 0.422712 0 0 0 2.33697 1.06395 -0.593046 
368 2.37677 0.682568 2.36623 0.614731 0 0 0 -0.272383 0.0967199 0.0449461 
366 1.71032 1.3823 2.0488 0.405707 0 0 0 -1.48453 7.06414 -20.3597 
371 2.18583 0.971474 2.33558 0.551661 0 0 0 -0.951551 0.813085 -1.29553 
377 1.74601 1.18744 1.97099 0.407221 0 0 0 -1.22664 7.54447 -18.0402 
360 1.90747 0.404478 2.3254 0.616733 0 0 0 -0.290921 0.209333 -0.467822 
361 2.15681 1.26107 2.27567 0.509605 0 0 0 -1.32496 0.772339 -2.22141 
335 2.54275 0.223581 1.52697 0.631493 0 0 0 1.20219 -1.1684 0.995516 
384 1.99729 -0.0776362 2.77942 0.849447 0 0 0 0.07547 -0.817677 0.466728 
376 2.66835 0.594173 2.77916 0.779062 0 0 0 0.370188 -0.267662 0.787304 
375 2.39585 0.989107 2.70504 0.665023 0 0 0 -0.364329 0.253876 0.190197 
362 2.50173 1.42621 2.86667 0.69643 0 0 0 -0.126946 -0.207814 0.712526 
126 1.54709 0.230959 2.44275 0.669909 0 0 0 0.190631 -0.0431623 -0.289624 
383 3.11738 1.16306 2.83543 0.835523 0 0 0 1.03592 -0.27597 0.893815 
365 2.9694 -0.0926755 2.52754 0.942725 0 0 0 0.964677 -1.11938 0.62588 
374 2.49303 0.362287 2.5845 0.739404 0 0 0 0.163751 -0.518976 0.603563 
367 2.83512 -0.0952163 2.44692 0.894593 0 0 0 0.82858 -1.20575 0.631817 
382 2.46012 0.611973 2.90139 0.779647 0 0 0 0.00279235 -0.0960383 0.7039 
369 2.63777 0.58011 2.64824 0.739166 0 0 0 0.331724 -0.27602 0.688826 
373 2.14105 0.726533 2.45078 0.603868 0 0 0 -0.651286 0.594293 -0.680579 
406 2.09112 2.16897 0.430838 0.611265 0 0 0 -1.06553 -1.43412 0.481092 
386 2.0284 2.99123 0.371049 0.772705 0 0 0 -0.203152 0.49983 -0.469321 
387 2.72329 1.69898 0.60938 0.62061 0 0 0 0.125386 -0.139234 -0.670051 
408 1.85314 2.49566 0.317939 0.670082 0 0 0 -0.440775 -0.943474 0.185417 
389 2.18616 3.05826 0.428308 0.790716 0 0 0 -0.0941004 0.695838 -0.557211 
390 2.98317 1.77901 0.535156 0.707931 0 0 0 0.849926 -0.129253 -0.77955 
391 2.11535 1.83161 0.648482 0.532527 0 0 0 -2.13318 -1.78884 1.75417 
403 2.5459 2.18678 0.119717 0.751349 0 0 0 -0.0754434 -0.411445 -0.815076 
393 2.66093 2.28842 0.183066 0.764202 0 0 0 0.173618 -0.246723 -0.873336 
405 2.78811 3.02173 -0.12111 1.01931 0 0 0 0.448673 0.483328 -0.802744 
395 1.81381 2.31843 0.625907 0.567286 0 0 0 -0.975023 -2.06636 1.3138 
396 2.10804 2.72738 0.663082 0.647388 0 0 0 -0.44757 -0.0233222 -0.398821 
397 2.16783 2.01056 -0.00250748 0.730131 0 0 0 -0.551795 -0.808923 -0.326924 
407 3.03609 2.65996 0.0661381 0.94152 0 0 0 0.75209 0.242119 -0.877934 
399 2.55634 2.07553 0.339481 0.678296 0 0 0 -0.217672 -0.51064 -0.66233 
400 3.03867 3.09633 0.0948066 1.03121 0 0 0 0.703317 0.615645 -0.726261 
404 2.54911 1.82912 0.135101 0.717734 0 0 0 -0.227235 -0.383325 -0.795851 
392 1.64898 1.70194 1.30225 0.313675 0 0 0 -4.39535 -24.5677 61.7756 
347 1.74968 2.58561 1.44171 0.482406 0 0 0 -0.442377 0.909031 -1.16965 
470 3.18034 2.73685 1.51285 0.777332 0 0 0 1.36502 0.54524 -0.283496 
412 2.83895 2.70487 0.904631 0.719795 0 0 0 0.791076 0.476955 -0.695042 
413 2.99686 2.31763 1.18363 0.663645 0 0 0 1.32584 -0.0830789 -0.625412 
414 2.35624 1.78558 1.13988 0.461764 0 0 0 -0.742097 -1.47682 0.040827 
415 2.18729 1.95171 0.959637 0.482595 0 0 0 -2.14013 -2.22291 1.05733 
416 1.76813 2.56766 1.21183 0.503755 0 0 0 -0.95995 -0.469328 -0.75555 
454 1.96176 3.07035 1.40585 0.634754 0 0 0 -0.187828 1.48751 -0.880989 
427 1.90156 2.97811 1.41373 0.60058 0 0 0 -0.275438 1.39299 -1.01348 
419 3.09087 2.31628 1.28366 0.685429 0 0 0 1.47358 -0.0907705 -0.502453 
457 2.18048 2.18526 1.39274 0.445662 0 0 0 0.664327 -0.848558 -0.804434 
411 1.77753 1.4971 1.51758 0.279059 0 0 0 -3.50424 -3.86776 0.147574 
422 2.52327 1.82722 0.892715 0.53417 0 0 0 -0.488508 -0.711602 -0.445579 
423 2.22281 3.17064 1.41836 0.692847 0 0 0 0.21183 1.49872 -0.625275 
424 1.98908 2.69972 0.785545 0.609122 0 0 0 -0.644644 -0.213526 -0.311735 
425 2.52502 2.65947 0.978216 0.634303 0 0 0 0.284955 0.379817 -0.819757 
426 2.16556 2.22827 1.02762 0.500696 0 0 0 -1.39634 -1.51877 -0.245622 
446 2.15404 1.47217 1.43062 0.370646 0 0 0 -0.758104 -2.07807 2.30965 
441 3.15009 2.03261 1.39372 0.670918 0 0 0 1.68533 -0.393156 -0.321682 
429 2.28301 3.01718 0.83094 0.71077 0 0 0 -0.01753 0.880804 -0.645502 
430 3.24666 2.98694 1.29672 0.866168 0 0 0 1.22318 0.801659 -0.328427 
449 2.29124 2.24049 1.41349 0.472487 0 0 0 0.979781 -0.238162 -1.01197 
388 1.59812 2.19684 1.01816 0.463187 0 0 0 -1.12523 -4.52479 4.55113 
433 2.03727 1.73802 1.21705 0.3908 0 0 0 -3.06218 -5.99435 9.07408 
434 1.60082 2.73668 1.06615 0.558629 0 0 0 -0.64677 -0.104374 -0.507381 
432 2.37388 1.88404 1.34991 0.447539 0 0 0 0.877482 -1.55955 -0.547231 
436 3.01036 2.09203 0.84311 0.681814 0 0 0 1.07793 -0.223386 -0.688417 
437 2.8462 1.57157 0.96614 0.587293 0 0 0 0.941033 0.0775544 -0.585508 
438 2.85549 2.16438 1.42914 0.589201 0 0 0 1.62874 -0.368359 -0.5039 
439 3.06985 3.26361 1.23339 0.897856 0 0 0 0.94955 1.11242 -0.325503 
440 2.10109 2.01539 0.939849 0.483859 0 0 0 -2.34462 -2.61684 1.56014 
458 2.1452 2.40779 1.42054 0.480222 0 0 0 0.451991 0.375936 -1.04742 
464 2.20089 2.07552 1.39204 0.431482 0 0 0 0.776226 -1.57494 -0.489532 
443 2.5877 1.94946 2.09056 0.535521 0 0 0 1.22741 -0.883227 1.06623 
444 2.84859 1.46504 1.86655 0.570206 0 0 0 1.47555 -0.495901 0.741095 
445 2.81527 2.21551 2.1293 0.614387 0 0 0 1.2189 -0.376538 0.61862 
310 1.78293 2.08928 1.76574 0.364646 0 0 0 2.92967 1.76754 -0.104242 
372 1.61022 2.19643 1.81033 0.377707 0 0 0 0.390868 3.52849 0.84279 
296 2.37676 1.99588 1.7502 0.454789 0 0 0 2.73143 -0.912818 0.691413 
471 1.98874 1.90614 1.68087 0.358624 0 0 0 3.68275 -2.27049 -0.855763 
450 2.67999 1.85887 1.96779 0.537545 0 0 0 1.57153 -0.979859 0.850343 
182 1.64286 1.88949 1.64867 0.302927 0 0 0 0.631781 1.14025 2.03369 
452 2.11881 2.90997 1.68517 0.592222 0 0 0 0.466509 1.44554 -0.398899 
453 1.56027 2.45095 2.19981 0.487034 0 0 0 0.354082 0.827426 2.32802 
469 2.08406 1.70843 2.0562 0.431066 0 0 0 0.0260492 -0.355265 -3.08903 
343 2.09717 1.70347 1.57754 0.360074 0 0 0 0.921739 -3.60607 0.049299 
481 2.16302 2.25178 1.79843 0.451737 0 0 0 2.75695 0.771843 1.11109 
467 1.86345 2.6493 1.66668 0.495961 0 0 0 0.528513 1.84499 -0.479495 
378 1.78868 2.33535 1.81544 0.420986 0 0 0 1.83513 2.73102 1.37877 
459 3.15663 2.7618 2.17728 0.80369 0 0 0 1.3311 0.599011 0.259745 
277 1.76728 1.99982 1.70693 0.340649 0 0 0 3.00511 0.914863 -1.08485 
461 1.65114 2.97998 1.7122 0.580967 0 0 0 -0.214519 1.91985 -0.769167 
263 1.87894 1.99472 1.72044 0.355844 0 0 0 3.87603 -0.294749 -0.870039 
261 1.68405 1.99278 1.69119 0.329301 0 0 0 1.71203 1.80482 -0.603764 
176 1.90639 1.54435 1.53657 0.311141 0 0 0 -2.19441 -3.76099 0.58833 
465 1.96042 2.96194 1.89533 0.597782 0 0 0 0.44138 1.55928 0.0162096 
466 2.24247 3.2713 1.79524 0.726834 0 0 0 0.419266 1.6269 -0.194181 
319 2.24975 1.91453 1.63878 0.411731 0 0 0 2.91667 -1.83115 0.106667 
478 2.18734 3.04935 2.25827 0.683236 0 0 0 0.539362 1.21412 0.57247 
484 1.90492 2.64751 2.31714 0.562311 0 0 0 0.647537 0.489747 1.4539 
187 2.13031 2.09995 1.70539 0.413709 0 0 0 3.45094 -0.361824 0.630732 
509 3.29296 2.84291 2.26144 0.875195 0 0 0 1.37373 0.653915 0.329602 
488 2.31766 1.87768 1.72535 0.429171 0 0 0 2.78254 -1.52832 0.406055 
492 2.70859 2.30871 2.28735 0.620862 0 0 0 0.893952 -0.213789 0.823947 
494 2.94687 2.34984 2.28063 0.684459 0 0 0 1.18416 -0.127236 0.575909 
504 2.87671 1.9456 2.27657 0.631952 0 0 0 1.10362 -0.739893 0.75653 
199 1.89315 1.96045 1.70229 0.351186 0 0 0 3.89527 -0.926792 -1.12821 
120 1.67258 1.9638 1.67438 0.321488 0 0 0 1.4591 1.535 -0.00736125 
442 2.28183 1.67739 1.7112 0.410209 0 0 0 1.68411 -1.59504 -0.505083 
498 2.04613 1.55965 1.97779 0.40944 0 0 0 -0.910636 1.08499 -7.14708 
487 1.91916 2.03369 2.33112 0.488956 0 0 0 0.0326264 -0.698216 0.224854 
209 2.03145 1.7059 1.5911 0.345966 0 0 0 0.866086 -3.84888 -0.484517 
36 2.10178 2.14084 1.72251 0.416344 0 0 0 3.40649 0.0972205 0.774125 
191 1.67811 1.96819 1.67706 0.323024 0 0 0 1.57651 1.52185 -0.149464 
417 2.33714 2.53508 1.7657 0.533534 0 0 0 1.30007 0.97338 0.259028 
451 2.99114 2.22371 1.53029 0.633451 0 0 0 1.65107 -0.275914 -0.312239 
259 1.58512 1.88708 1.64909 0.297929 0 0 0 -0.810788 2.34907 2.43824 
463 1.58447 1.95969 1.66739 0.313834 0 0 0 -0.644287 2.58973 1.31854 
307 1.54446 1.74375 1.60346 0.263563 0 0 0 -2.4705 3.24167 0.805693 
220 1.54373 1.74205 1.60278 0.263122 0 0 0 -2.49487 3.24182 0.762152 
496 2.03147 2.50601 2.78625 0.657585 0 0 0 0.0310506 -0.18122 1.52988 
472 2.0747 1.79642 2.63684 0.574765 0 0 0 -0.779204 -0.595599 -0.0763944 
473 1.75625 1.5959 2.58876 0.549215 0 0 0 -1.17768 0.121218 -2.34789 
474 2.95854 3.17647 2.68346 0.934253 0 0 0 0.901265 1.04183 0.755753 
497 1.61663 1.94128 2.57965 0.539007 0 0 0 -0.635555 -1.02515 -0.520663 
502 2.22662 2.57159 2.71503 0.667084 0 0 0 0.220396 0.0468173 1.38663 
477 3.17713 2.0138 2.59479 0.781977 0 0 0 1.29713 -0.453759 0.857136 
513 2.63016 3.0298 3.05944 0.919996 0 0 0 0.557671 0.805126 1.27699 
479 1.80985 1.75127 2.417 0.49856 0 0 0 -1.1568 -0.35659 -2.63226 
501 1.6536 2.45381 3.00118 0.698249 0 0 0 -0.144839 -0.376349 1.73337 
503 2.03372 3.1535 2.47845 0.734325 0 0 0 0.328418 1.26102 0.849382 
482 1.57532 3.16057 3.12964 0.875847 0 0 0 0.0454409 0.862647 1.49567 
511 3.00814 2.13234 2.41307 0.70201 0 0 0 1.18574 -0.463514 0.754341 
510 2.10249 2.54653 2.61072 0.623521 0 0 0 0.225985 -0.0462945 1.38352 
508 2.62305 1.96044 3.05692 0.77212 0 0 0 0.282788 -0.409108 1.38037 
505 3.15567 2.91939 3.22206 1.06051 0 0 0 0.887148 0.587056 1.13087 
499 1.80691 1.78436 2.91322 0.645105 0 0 0 -0.705507 -0.515548 0.136773 
495 2.94831 1.72933 2.7966 0.758141 0 0 0 0.827142 -0.506841 1.07249 
489 3.12957 1.50361 3.00017 0.868008 0 0 0 0.959282 -0.334806 1.04647 
490 2.37284 2.40854 2.58346 0.629826 0 0 0 0.304736 -0.181172 1.22528 
491 2.27434 1.49882 2.74564 0.62995 0 0 0 -0.618178 -0.16036 0.104055 
506 1.97648 2.06882 3.04671 0.700278 0 0 0 -0.38513 -0.559225 1.21409 
493 3.07267 3.01074 2.79147 0.943093 0 0 0 1.00008 0.817251 0.886013 
480 2.35966 2.25058 2.39424 0.569219 0 0 0 0.406844 -0.387124 1.22442 
ITEM: TIMESTEP
800987
ITEM: NUMBER OF ATOMS
512
ITEM: BOX BOUNDS ss ss ss
-2.2775349561678951e-01 3.2932607586404616e+00
-4.0122540508749138e-01 3.2891132425832117e+00
-1.7039273299291779e-01 3.2223573019164853e+00
ITEM: ATOMS id x y z width_SPH x_COM y_COM z_COM vx vy vz 
23 0.539287 1.16104 0.372781 0.613015 0 0 0 0.633792 -0.0976427 -0.569977 
3 -0.14033 -0.124433 0.0939739 1.0357 0 0 0 -1.01065 -0.934127 -0.881345 
4 1.1215 0.71024 0.265509 0.622553 0 0 0 0.00936673 0.209781 -1.02934 
5 0.225459 1.27088 -0.0394014 0.782509 0 0 0 -0.197427 -0.301965 -0.966497 
6 0.0115264 1.14394 0.376959 0.727352 0 0 0 -0.762227 -0.268015 -0.705385 
22 0.128621 1.05029 0.0596001 0.785116 0 0 0 -0.507385 -0.424305 -0.970661 
8 0.686461 0.733455 -0.0391959 0.747513 0 0 0 0.095333 -0.433143 -1.18304 
9 1.3567 -0.241854 0.263492 0.804205 0 0 0 -0.29889 -1.18641 -1.40895 
10 -0.086316 -0.263405 0.0260449 1.07371 0 0 0 -0.931969 -0.985728 -0.901905 
11 0.920706 1.15036 -0.0285254 0.696436 0 0 0 0.752232 -0.165339 -0.435091 
12 0.461886 1.343 0.164184 0.674423 0 0 0 0.502727 -0.204164 -0.606941 
13 0.278629 -0.299309 0.200452 0.957906 0 0 0 -0.806299 -1.14363 -1.01851 
14 0.972039 1.22081 0.390069 0.568523 0 0 0 1.27038 0.142488 0.812757 
15 1.08249 0.66997 0.304808 0.617964 0 0 0 -0.0678957 0.14289 -1.16071 
16 0.612757 -0.235828 0.24474 0.869625 0 0 0 -0.630654 -1.16659 -1.20388 
17 0.87827 0.253888 0.00522894 0.783181 0 0 0 -0.298606 -0.660958 -1.49783 
18 0.562191 0.565603 0.356093 0.673121 0 0 0 -0.327152 -0.544895 -1.23563 
274 1.4895 1.31441 0.568088 0.508708 0 0 0 -0.206618 -0.281923 4.84912 
20 0.679389 0.94068 0.297781 0.628464 0 0 0 0.463991 -0.143619 -0.766448 
62 1.19143 1.02676 0.635986 0.499497 0 0 0 0.00573955 0.577726 1.37855 
50 0.549987 -0.381031 0.627223 0.850632 0 0 0 -0.73865 -1.36615 -0.856482 
31 -0.0666983 1.19079 0.657985 0.694831 0 0 0 -0.999907 -0.0999455 -0.584639 
44 0.384567 0.857337 0.611345 0.61198 0 0 0 -0.317969 -0.373743 -1.12026 
24 1.01877 -0.213784 1.39568 0.679355 0 0 0 -0.123972 -1.69285 0.603281 
353 1.43469 1.07795 1.35086 0.306618 0 0 0 -0.477965 -3.56907 0.635696 
26 -0.135937 1.02548 1.49494 0.658914 0 0 0 -1.52794 0.0880316 0.0612297 
27 0.398738 1.14913 0.83239 0.546231 0 0 0 -0.0929889 0.0261962 -1.24834 
28 0.947156 0.224998 1.38726 0.550774 0 0 0 -0.881484 -1.47364 0.742565 
91 0.800642 1.12867 1.21354 0.410233 0 0 0 -0.998695 -0.848669 -0.341459 
303 1.47401 1.06097 1.34497 0.308979 0 0 0 0.971356 -3.79496 0.770602 
65 0.669834 0.471782 1.33838 0.530129 0 0 0 -1.1556 -1.29714 0.0919691 
32 0.390326 -0.347398 1.28432 0.80911 0 0 0 -0.778092 -1.47594 -0.132799 
33 0.747582 -0.211899 1.15272 0.709654 0 0 0 -0.599474 -1.55105 -0.195148 
173 0.936217 0.960755 1.29479 0.396884 0 0 0 -3.46714 -1.14494 -0.810975 
35 1.49751 0.0185843 0.818712 0.616276 0 0 0 -0.421799 -1.4179 -1.15815 
21 1.50709 1.44185 1.49138 0.220515 0 0 0 0.244962 1.59366 0.620305 
154 1.32469 1.31545 1.43483 0.268891 0 0 0 1.65048 2.35699 -4.96213 
38 0.219852 1.02869 0.80081 0.601115 0 0 0 -0.640092 -0.169658 -1.01705 
39 -0.227458 0.894409 1.43968 0.703333 0 0 0 -1.58737 -0.0297013 -0.0849065 
2 1.14967 0.67524 1.21354 0.426027 0 0 0 -4.14281 -2.31405 -1.38032 
351 0.859145 1.19146 1.32514 0.381097 0 0 0 -0.727996 -0.464289 0.443724 
42 0.799969 1.37177 1.32996 0.382826 0 0 0 0.818901 -0.146374 1.0549 
195 1.40657 0.79987 1.18838 0.38145 0 0 0 -2.14165 -3.62158 -0.893369 
318 1.49221 1.0687 1.34922 0.30665 0 0 0 1.80134 -3.84495 0.632703 
45 0.998554 0.224029 1.32982 0.545672 0 0 0 -1.04168 -1.56828 0.537145 
46 0.610447 0.267937 0.790684 0.635117 0 0 0 -0.974939 -0.894089 -1.36006 
47 1.21211 0.915315 0.835749 0.454217 0 0 0 -1.73102 -0.485177 0.987991 
48 0.526619 0.78882 1.37475 0.498783 0 0 0 -1.0529 -1.06536 0.0363349 
250 1.49187 1.08593 1.35641 0.302457 0 0 0 1.9654 -3.83511 0.345071 
79 1.49623 1.36941 1.46082 0.233518 0 0 0 3.64276 0.757851 0.551298 
51 0.476675 1.30496 0.949272 0.506038 0 0 0 0.169094 0.221638 -1.33576 
52 1.29203 0.226354 1.31754 0.525364 0 0 0 -0.907417 -1.9114 0.784921 
53 -0.0398847 0.626633 1.25892 0.678804 0 0 0 -1.45045 -0.441286 -0.414634 
54 1.02301 -0.400931 1.42876 0.74746 0 0 0 0.00506458 -1.74379 0.513761 
385 1.48525 1.28967 1.43147 0.252413 0 0 0 3.42444 -2.10654 0.491395 
56 1.27651 0.103593 1.02254 0.574015 0 0 0 -0.869671 -1.66904 -0.734831 
178 0.995027 1.43603 1.45857 0.329984 0 0 0 2.91023 1.35582 0.624053 
115 1.50526 1.15041 1.3764 0.287019 0 0 0 3.09604 -4.38455 0.778084 
59 0.618217 0.602602 1.24067 0.51739 0 0 0 -1.31679 -1.26834 -0.596048 
124 1.46275 1.03846 1.3335 0.314951 0 0 0 0.307946 -3.79364 1.08089 
306 1.50773 -0.285864 0.765565 0.723846 0 0 0 -0.127719 -1.6043 -0.68243 
64 0.863756 -0.339055 1.3046 0.736468 0 0 0 -0.275658 -1.69422 0.221029 
119 1.46935 1.29803 1.43364 0.251084 0 0 0 3.2422 -1.66998 0.900989 
313 1.06026 1.33634 1.41902 0.322543 0 0 0 1.09852 0.946939 2.21124 
149 1.36226 1.21564 1.35164 0.287129 0 0 0 -1.3295 -1.55754 -0.800435 
179 1.27091 0.655444 1.19794 0.42036 0 0 0 -3.49659 -2.75726 -1.57712 
106 1.48398 1.28129 1.42805 0.254531 0 0 0 3.33275 -2.41726 0.653882 
322 1.48977 1.08076 1.35422 0.303751 0 0 0 1.82438 -3.82947 0.432737 
19 1.48533 0.423848 1.00494 0.484894 0 0 0 -0.852824 -1.86256 -1.91699 
512 1.49419 1.3562 1.4562 0.236441 0 0 0 3.67177 0.31189 0.468269 
301 0.93061 1.30713 1.40803 0.352103 0 0 0 0.844364 0.69579 0.473245 
214 1.39941 0.983955 1.30052 0.332294 0 0 0 -2.34869 -3.66492 1.32688 
77 0.453287 1.43621 1.29507 0.467504 0 0 0 -0.729941 0.322735 -0.756565 
358 0.802632 1.13455 1.1541 0.418095 0 0 0 -0.811598 -0.815777 -0.341106 
81 0.658632 0.594057 1.15419 0.517895 0 0 0 -1.43273 -1.24585 -1.06384 
71 0.654126 1.22741 1.34848 0.421632 0 0 0 -0.472672 -0.274636 -0.366864 
329 0.872551 1.19711 1.34631 0.376298 0 0 0 -0.664008 -0.284572 0.350714 
57 1.51229 0.644704 1.1874 0.412431 0 0 0 -0.122577 -3.05674 -1.62635 
122 1.21656 0.673191 1.20291 0.420714 0 0 0 -3.98093 -2.58497 -1.52529 
74 0.974799 0.84529 1.26176 0.411889 0 0 0 -4.06645 -1.59231 -1.05769 
228 1.19611 1.41564 1.46552 0.285849 0 0 0 3.6614 1.6936 2.54432 
198 0.988605 1.43717 1.45868 0.331365 0 0 0 2.87829 1.25704 0.754219 
165 1.32819 0.926632 1.25837 0.353439 0 0 0 -4.30452 -3.5095 0.956208 
101 1.00028 1.23476 1.37484 0.345701 0 0 0 -1.00805 0.365104 1.16491 
82 0.914211 0.731782 1.19891 0.446424 0 0 0 -3.04114 -1.67021 -1.19379 
229 1.43794 1.01783 1.32157 0.321264 0 0 0 -0.817536 -3.73954 1.2571 
66 0.0779132 -0.209392 2.31731 0.901787 0 0 0 -0.687958 -1.05208 0.580833 
67 0.896592 0.389783 1.98979 0.568993 0 0 0 0.535186 -0.087433 0.637803 
68 1.03629 0.897863 1.78784 0.431441 0 0 0 0.893 2.98621 -4.25758 
95 0.398484 -0.0109026 2.10984 0.741995 0 0 0 -0.249929 -0.999985 0.679925 
70 0.431861 1.36488 2.12842 0.534681 0 0 0 0.501927 -0.113957 0.726917 
88 0.0603616 0.335404 2.25425 0.754695 0 0 0 -0.785908 -0.43736 0.7803 
55 0.179152 0.110082 1.56622 0.715517 0 0 0 -0.990361 -1.03048 0.129741 
63 0.0686974 1.42391 1.57716 0.574449 0 0 0 -1.32734 0.122352 0.333579 
87 -0.124825 0.602196 1.97093 0.726215 0 0 0 -1.23339 -0.227805 0.58644 
75 0.13423 1.38274 2.08426 0.597903 0 0 0 -0.600598 -0.111101 0.927883 
86 1.52819 0.494281 1.73489 0.483928 0 0 0 0.0889696 0.601304 0.00426222 
90 0.772495 1.18916 2.00601 0.467509 0 0 0 2.16493 1.08645 -1.6933 
78 0.397217 -0.00263024 2.21456 0.755241 0 0 0 -0.216492 -0.931591 0.705689 
113 0.978005 1.36 2.06098 0.439918 0 0 0 2.9697 2.5453 -6.73492 
93 0.81134 0.804862 2.0233 0.511044 0 0 0 1.24664 0.892038 -0.29063 
92 0.388019 0.389794 1.87057 0.619935 0 0 0 -0.311899 -0.630195 0.888689 
108 1.18119 0.815745 2.12937 0.500496 0 0 0 1.03678 2.73474 -3.26153 
83 0.717764 1.15514 1.91968 0.462905 0 0 0 1.76403 0.737035 -0.786844 
84 0.247413 0.0622359 2.16075 0.758665 0 0 0 -0.490196 -0.857549 0.680796 
96 1.42755 0.839307 1.89149 0.437822 0 0 0 0.311049 5.24136 -7.87391 
127 1.45838 0.642886 2.04465 0.504504 0 0 0 0.179365 2.32783 -2.51024 
34 -0.00995098 0.530522 1.66397 0.680598 0 0 0 -1.25689 -0.446999 0.292413 
60 0.616721 0.958431 1.89369 0.49654 0 0 0 0.906036 0.186402 0.694785 
25 1.06931 0.282778 1.61881 0.537638 0 0 0 -0.332302 -0.974014 1.42412 
76 0.5695 0.905026 1.57236 0.476953 0 0 0 -0.410872 -0.726924 0.959407 
94 0.548014 0.81221 1.57409 0.494661 0 0 0 -0.474157 -0.799147 1.01573 
37 0.451646 1.06436 1.55401 0.483798 0 0 0 -0.715218 -0.372702 0.801543 
49 -0.225095 0.992379 1.53528 0.693613 0 0 0 -1.56996 0.0719945 0.0721431 
125 1.09267 1.35857 2.31577 0.494746 0 0 0 1.87399 1.87926 -4.76196 
370 1.52837 0.876189 2.34621 0.535458 0 0 0 -0.114043 2.66183 -3.73611 
121 1.2299 0.0557175 2.56175 0.739897 0 0 0 0.420635 -0.463443 0.188909 
97 0.741255 0.963635 2.6719 0.641808 0 0 0 0.791092 0.769511 -0.0276813 
98 0.311901 1.033 2.82434 0.738884 0 0 0 -0.0618684 0.189117 0.942194 
99 0.716606 0.0242835 2.58279 0.779046 0 0 0 0.238149 -0.65059 0.651579 
100 0.647803 0.403616 2.84607 0.773452 0 0 0 0.218149 0.0515986 0.748535 
128 0.383363 1.44118 2.49724 0.615766 0 0 0 0.291504 -0.114642 0.7469 
131 0.549718 1.23793 2.93584 0.721723 0 0 0 0.375442 0.238877 0.767545 
103 1.03332 0.516067 2.74005 0.695682 0 0 0 0.557491 0.579618 -0.00875331 
130 1.37067 0.46521 2.56845 0.65114 0 0 0 0.363708 0.736502 -0.682346 
114 1.06694 0.880377 2.58087 0.60421 0 0 0 0.894379 1.4752 -1.26375 
129 0.508149 0.0503798 3.07878 0.938568 0 0 0 -0.0943879 -0.452573 0.926428 
116 -0.0918047 0.828692 2.48471 0.768908 0 0 0 -0.9263 -0.0065607 0.912678 
117 -0.112809 0.373906 2.52757 0.849198 0 0 0 -0.96399 -0.312894 0.858354 
109 0.427185 0.944434 3.03849 0.793869 0 0 0 0.0459993 0.256787 0.963233 
110 0.486302 -0.255057 2.78202 0.938172 0 0 0 -0.121543 -0.936644 0.76415 
123 1.28799 1.23656 2.37884 0.511354 0 0 0 0.834539 2.64149 -5.32627 
112 1.16532 0.424952 2.80165 0.724467 0 0 0 0.467846 0.431162 0.0413111 
162 0.457141 2.5951 0.566883 0.691737 0 0 0 -0.198988 0.795889 -0.433708 
132 0.66222 2.53027 0.21789 0.732799 0 0 0 0.17516 0.271952 -0.335466 
133 0.0922402 1.78605 0.558715 0.665837 0 0 0 -0.455921 0.139881 -0.504162 
134 0.162152 2.01557 0.24243 0.736259 0 0 0 -0.34044 0.197181 -0.589831 
135 1.32373 2.40948 0.4462 0.616066 0 0 0 0.357545 -1.41328 1.05043 
136 1.10481 2.57107 0.555834 0.622616 0 0 0 0.397429 -0.469651 0.464792 
137 0.0490364 2.5059 0.614627 0.758155 0 0 0 -0.886009 0.864019 -0.494788 
138 0.513596 2.21214 0.0647109 0.745661 0 0 0 0.264207 0.00928789 -0.511829 
139 0.291598 2.24804 0.292715 0.722672 0 0 0 -0.186693 0.334744 -0.526096 
140 0.883335 2.73443 0.162877 0.770976 0 0 0 0.129492 0.361217 -0.290011 
141 -0.043916 2.3866 0.160641 0.86376 0 0 0 -0.835641 0.588514 -0.612652 
142 1.45321 2.54109 0.575779 0.605432 0 0 0 -0.0152785 -1.15817 0.84844 
143 1.27571 2.91643 0.597735 0.687649 0 0 0 -0.0928404 0.533065 -0.00198257 
160 0.794611 3.07601 0.428214 0.804013 0 0 0 -0.207696 1.16478 -0.290263 
145 0.495421 2.00223 0.0139394 0.740951 0 0 0 0.38489 -0.140976 -0.551347 
146 1.33715 2.00136 0.341053 0.601081 0 0 0 0.654427 -2.10929 2.10559 
147 0.766197 1.82077 0.226307 0.636295 0 0 0 1.1953 -0.680003 0.317624 
148 1.26681 3.02295 0.25203 0.799051 0 0 0 -0.06182 0.640649 -0.233344 
156 0.092335 1.95726 0.419736 0.705678 0 0 0 -0.503533 0.22001 -0.514312 
150 1.0832 1.84153 0.514014 0.549522 0 0 0 1.65376 -2.03896 2.64035 
155 0.80265 1.62672 0.139302 0.650624 0 0 0 1.20365 -0.523878 0.232147 
161 1.37471 2.00684 0.41113 0.582786 0 0 0 0.554472 -2.40396 2.5375 
159 0.0392292 1.48546 -0.0352894 0.821637 0 0 0 -0.532885 -0.159711 -0.891074 
170 1.13968 2.09623 1.09396 0.440549 0 0 0 1.46602 -3.77867 4.57894 
163 0.512819 2.85755 0.715427 0.721364 0 0 0 -0.36256 1.2601 -0.434147 
202 0.614152 2.0095 1.00203 0.503112 0 0 0 1.09998 -0.139518 -1.05797 
167 0.867404 1.79174 1.05682 0.436402 0 0 0 2.56077 -1.83463 2.56792 
225 1.49735 1.51636 1.51443 0.217518 0 0 0 -0.855162 -0.81625 -0.886986 
169 0.925713 1.73867 1.43071 0.356735 0 0 0 1.84661 -1.94815 4.9286 
201 -0.0238972 2.74169 0.921927 0.78736 0 0 0 -1.10163 1.15804 -0.493659 
171 0.344799 1.88397 1.31499 0.510871 0 0 0 -0.752139 0.282536 -1.14347 
183 1.05569 1.45292 1.4625 0.31599 0 0 0 3.41756 1.60682 1.20746 
30 0.792089 1.64482 1.51741 0.376352 0 0 0 1.02623 0.0813502 0.162009 
174 0.20688 1.77876 1.03603 0.567114 0 0 0 -0.476526 0.230795 -1.02289 
210 1.50148 1.47893 1.50125 0.217348 0 0 0 0.564841 0.987875 0.143616 
157 1.18863 2.27084 1.02742 0.47847 0 0 0 0.927577 -2.54604 1.97876 
152 1.07997 2.08941 0.712464 0.523343 0 0 0 1.53883 -2.43134 2.376 
314 1.50113 1.48138 1.50212 0.21725 0 0 0 0.470051 0.863921 0.0396674 
197 0.0748417 2.23525 1.0802 0.643443 0 0 0 -1.00239 0.595569 -0.809909 
180 0.421875 2.02562 1.49853 0.493813 0 0 0 -1.13651 0.339429 -0.727757 
181 0.627686 2.08579 1.41777 0.456517 0 0 0 -0.466845 0.710749 -1.41784 
428 1.18669 2.56475 1.42784 0.483302 0 0 0 -0.598162 1.18332 -1.62201 
410 1.4991 1.48774 1.50438 0.217077 0 0 0 0.802162 0.611046 -0.031401 
184 0.816888 2.82807 1.23688 0.603671 0 0 0 -0.226957 1.57111 -1.11909 
460 1.49413 1.50152 1.50836 0.217103 0 0 0 -0.273542 -0.0783156 -0.507501 
186 0.975643 2.81774 1.04021 0.606021 0 0 0 -0.023693 1.00238 -0.639723 
196 0.570965 1.70122 1.47318 0.43214 0 0 0 -0.553756 0.19167 -0.178897 
188 0.309625 2.5385 1.32084 0.613259 0 0 0 -0.88389 1.28406 -1.11733 
200 0.952341 2.70818 1.14964 0.565977 0 0 0 0.0652661 0.959658 -1.03811 
190 0.811567 1.85976 1.03819 0.453606 0 0 0 2.21274 -1.24136 0.979013 
166 0.578324 1.64115 0.820062 0.51415 0 0 0 1.37959 -0.126797 -0.491404 
192 0.613365 2.06273 1.28737 0.468808 0 0 0 0.152211 0.522667 -1.6671 
193 1.11512 2.50091 1.38662 0.476142 0 0 0 -0.418129 0.868672 -1.5248 
203 1.49709 1.53529 1.52114 0.218902 0 0 0 -1.53184 -1.1829 -1.05461 
208 1.50103 1.48233 1.50246 0.217216 0 0 0 0.443818 0.811714 0.00630541 
41 1.49969 1.49087 1.50544 0.217016 0 0 0 0.111216 0.318604 -0.333085 
342 1.4981 1.50466 1.51029 0.217087 0 0 0 -0.412991 -0.391311 -0.698461 
164 1.49914 1.49496 1.50687 0.216987 0 0 0 -0.043482 0.085517 -0.463037 
40 1.49907 1.4955 1.50707 0.216986 0 0 0 -0.0642008 0.0556556 -0.478817 
219 1.49839 1.50152 1.50918 0.217028 0 0 0 -0.293314 -0.249706 -0.631844 
73 1.49776 1.50902 1.51184 0.217208 0 0 0 -0.578953 -0.568483 -0.778728 
43 0.805603 1.44796 1.37081 0.376498 0 0 0 1.30546 -0.024633 1.27888 
418 1.50719 1.47294 1.49917 0.217691 0 0 0 -0.374849 0.848437 0.0268539 
158 1.23226 1.80438 1.11316 0.389187 0 0 0 1.38711 -9.68978 21.2904 
394 1.50446 1.487 1.49865 0.217128 0 0 0 -0.307392 0.643068 -1.03869 
107 1.49844 1.45725 1.49537 0.21885 0 0 0 1.73308 1.28244 2.58655 
215 0.540871 2.16283 1.63005 0.479714 0 0 0 -1.42849 0.604005 -0.340486 
447 1.39749 2.80308 2.23838 0.567394 0 0 0 -0.109913 1.23069 1.24134 
205 0.0357101 1.958 2.06486 0.630639 0 0 0 -1.35403 -0.385495 0.701817 
206 1.02526 2.47209 2.29806 0.526081 0 0 0 -0.784577 0.0757792 2.24092 
207 0.438846 2.84842 1.72195 0.648681 0 0 0 -0.970144 1.70349 -0.719305 
257 1.1462 1.73854 1.5693 0.308092 0 0 0 0.150919 1.36694 0.791938 
194 0.555393 1.94539 1.63956 0.452293 0 0 0 -1.3246 0.0738375 0.248928 
235 1.21548 2.18612 2.35238 0.493661 0 0 0 -0.515681 -1.03703 1.7898 
211 0.95635 2.92221 2.05614 0.605035 0 0 0 -0.719766 1.80985 0.0663193 
212 0.453131 2.60916 1.67387 0.582915 0 0 0 -1.16158 1.49545 -0.741557 
213 0.821559 1.77282 1.80143 0.397827 0 0 0 -0.215267 0.0122412 -1.25209 
242 0.40046 2.35909 2.29194 0.595599 0 0 0 -1.03597 -0.27233 1.19629 
231 0.848342 2.32006 2.12816 0.491557 0 0 0 -1.46644 0.000740941 2.18592 
216 1.16683 2.94849 2.0896 0.599369 0 0 0 -0.547738 1.81478 0.245502 
217 0.343202 2.85139 1.83538 0.671172 0 0 0 -1.07812 1.48818 -0.520578 
218 0.188133 2.60236 1.94756 0.653437 0 0 0 -1.42614 0.765573 -0.0979045 
468 0.85282 2.30967 1.85529 0.453564 0 0 0 -2.19986 1.12485 0.887563 
204 0.982442 2.13675 1.79705 0.40018 0 0 0 -3.11387 1.07123 0.489716 
221 0.781363 2.16855 1.99554 0.461678 0 0 0 -1.81778 -0.14211 1.89155 
222 0.874647 2.13024 1.82114 0.418687 0 0 0 -2.52246 0.608099 0.876301 
223 0.648261 1.75377 1.73341 0.42543 0 0 0 -0.647347 -0.244281 0.582264 
246 1.14636 1.78049 1.58 0.313137 0 0 0 -0.96535 1.31994 0.384259 
104 0.233991 1.55829 2.31381 0.605701 0 0 0 -0.273975 -0.332355 0.943808 
226 1.33009 3.06354 2.06162 0.62623 0 0 0 -0.38323 1.88233 0.0383534 
227 0.147302 1.58649 2.08044 0.590157 0 0 0 -0.739018 -0.333813 0.957685 
234 1.08919 1.77502 1.65726 0.327878 0 0 0 -0.111073 5.13777 -13.787 
238 1.01266 1.72345 1.58264 0.33368 0 0 0 1.2374 1.37746 -3.74628 
321 1.32126 2.33262 1.84131 0.409754 0 0 0 -2.19698 3.09489 1.05818 
475 0.852226 2.20785 1.83084 0.434529 0 0 0 -2.3933 0.8312 0.936026 
476 1.236 2.27058 2.30391 0.488504 0 0 0 -0.670023 -0.591796 2.29728 
189 0.782456 2.23929 1.56136 0.444169 0 0 0 -1.22522 1.24333 -1.12482 
239 1.3495 1.89791 1.62616 0.304187 0 0 0 -5.24277 3.48687 3.2516 
328 1.239 2.61189 1.80516 0.48029 0 0 0 -1.1366 2.5566 -0.289741 
185 0.0296382 2.45809 1.54539 0.667553 0 0 0 -1.48897 0.759409 -0.529487 
337 1.08117 2.12647 1.79494 0.384859 0 0 0 -3.71934 1.54284 0.134476 
462 1.494 3.28882 1.96819 0.696855 0 0 0 -0.327506 1.96139 -0.252654 
168 1.33186 1.85861 1.63155 0.298785 0 0 0 -4.91592 3.88138 2.86683 
247 1.21227 2.26017 1.82707 0.399114 0 0 0 -3.19395 2.60098 0.841859 
177 1.34232 2.09073 1.75652 0.350181 0 0 0 -4.104 3.77394 -1.22941 
485 1.5067 2.80876 2.33205 0.583721 0 0 0 0.0957512 0.928996 1.38008 
264 1.3721 2.24531 1.827 0.387489 0 0 0 -2.45607 3.42764 0.95159 
69 1.4045 2.22362 1.82304 0.38168 0 0 0 -2.28855 3.58825 0.832397 
483 1.42127 2.31224 1.83497 0.402122 0 0 0 -1.5773 3.46076 1.1942 
350 1.439 2.29199 1.83175 0.39713 0 0 0 -1.51871 3.5418 1.19893 
249 0.810743 1.71806 2.34598 0.511764 0 0 0 1.12859 -0.642081 -0.195716 
420 1.11136 1.94425 1.68019 0.344427 0 0 0 -3.58145 1.60305 -2.54929 
240 1.42889 1.99382 1.67738 0.320758 0 0 0 -4.04912 3.95807 0.32407 
300 1.51916 1.67207 1.57346 0.245251 0 0 0 -3.20749 2.24233 -0.655402 
398 1.51863 1.67007 1.57263 0.244757 0 0 0 -3.2159 2.19178 -0.697378 
29 0.0998262 1.58839 1.57877 0.564952 0 0 0 -1.34132 0.0104339 0.251689 
224 1.1137 1.66991 1.54005 0.307838 0 0 0 2.25669 1.35906 0.489825 
111 0.95181 1.52523 1.755 0.365731 0 0 0 2.94892 3.99134 -11.4181 
105 1.42238 1.7449 1.56872 0.264088 0 0 0 -3.21315 2.29608 8.89358 
172 1.02342 1.85688 1.56822 0.344257 0 0 0 -0.614962 -1.5535 3.58413 
153 1.36635 1.72336 1.67663 0.28018 0 0 0 -1.66293 12.4738 -21.7941 
341 1.49772 1.55245 1.52725 0.220825 0 0 0 -2.06974 -1.208 -1.11667 
144 1.49737 1.55543 1.52765 0.22119 0 0 0 -2.0251 -1.23575 -0.917887 
332 1.49424 1.56547 1.53147 0.222688 0 0 0 -0.540653 -0.8771 -0.943125 
486 1.5315 1.94567 2.1528 0.42041 0 0 0 -0.552439 0.806739 -5.18633 
336 1.53233 1.71296 1.59081 0.255617 0 0 0 -2.86264 3.06858 0.0549186 
80 1.49759 1.55014 1.52642 0.220532 0 0 0 -2.00248 -1.21996 -1.11173 
232 0.492161 2.02195 2.69548 0.642611 0 0 0 -0.0745485 -0.804796 1.41706 
233 0.819153 1.89517 2.82464 0.638636 0 0 0 0.440504 -0.774784 1.02626 
255 -0.0545567 2.84034 2.49112 0.830806 0 0 0 -1.33128 0.662499 0.395592 
266 0.366653 1.98499 2.58794 0.636922 0 0 0 -0.320955 -0.7494 1.30895 
236 1.10598 2.61864 2.76414 0.651239 0 0 0 -0.0563093 -0.167821 1.86495 
237 0.37343 2.44496 2.4469 0.637517 0 0 0 -0.87945 -0.195093 1.14201 
262 0.719179 1.67966 2.53177 0.568063 0 0 0 0.926262 -0.484215 0.339154 
254 0.214176 2.73861 3.11696 0.891495 0 0 0 -0.712475 0.273399 1.4505 
118 0.0283935 1.48111 2.6882 0.743107 0 0 0 -0.653593 -0.166582 1.01433 
241 0.939423 2.12978 3.11426 0.728298 0 0 0 0.137862 -0.661524 1.54259 
265 0.0329561 3.01139 2.61218 0.868522 0 0 0 -1.12544 0.909765 0.525476 
243 0.559649 3.01397 2.64267 0.760243 0 0 0 -0.50884 1.0028 0.858367 
244 -0.0538453 3.17009 2.96979 1.01469 0 0 0 -0.989224 0.906805 0.853312 
245 1.25688 2.18075 2.86042 0.631952 0 0 0 -0.0453834 -0.976662 1.37667 
256 0.0639224 2.93296 2.98771 0.928311 0 0 0 -0.938696 0.617746 1.1011 
260 -0.0684613 2.86215 2.72929 0.88498 0 0 0 -1.22646 0.592825 0.736873 
248 0.535508 2.66342 2.98131 0.774499 0 0 0 -0.342583 0.0705748 1.64873 
507 1.514 2.78544 2.91086 0.717641 0 0 0 0.00161688 0.24119 1.77997 
258 0.563516 2.96535 3.08817 0.865752 0 0 0 -0.344524 0.623049 1.47812 
251 0.511304 2.47669 2.63315 0.654784 0 0 0 -0.499786 -0.285975 1.47388 
252 -0.111923 2.39186 2.39214 0.756581 0 0 0 -1.48802 -0.0397606 0.500062 
253 1.04036 3.18639 2.78129 0.794805 0 0 0 -0.146942 1.14523 1.12596 
267 1.82892 0.385598 0.477779 0.596853 0 0 0 -0.154245 -0.036425 -2.08401 
268 2.77884 0.405526 0.286063 0.786132 0 0 0 1.25567 -0.459824 -1.24518 
269 2.2067 0.0402866 -0.170098 0.890932 0 0 0 0.374261 -0.76962 -1.63992 
270 2.56706 0.0594584 -0.0701729 0.91177 0 0 0 0.827071 -0.801595 -1.41335 
291 2.17938 0.517071 -0.0151471 0.745447 0 0 0 0.104539 -0.026515 -1.80514 
272 2.88249 0.826455 0.434376 0.720699 0 0 0 1.24072 0.0309608 -1.12 
273 1.72709 1.05679 0.271324 0.594022 0 0 0 -0.639124 0.752349 0.272436 
295 2.1713 1.36023 0.380863 0.583848 0 0 0 -1.32073 0.225624 0.267959 
275 2.66357 -0.0269326 -0.00181775 0.933268 0 0 0 0.95208 -0.903052 -1.25184 
276 1.80978 0.0752481 0.0483193 0.778948 0 0 0 -0.0838287 -0.687912 -1.77597 
294 1.7398 1.32132 0.468054 0.539316 0 0 0 -1.13503 0.0486706 2.88237 
278 1.84913 0.118938 -0.0193124 0.792009 0 0 0 -0.0537309 -0.61386 -1.79869 
279 2.175 0.767304 0.422032 0.586648 0 0 0 -0.127575 0.711316 -1.57241 
290 2.36631 1.24236 0.15696 0.668462 0 0 0 -0.466674 0.307252 -0.928689 
281 2.44926 1.10437 0.372457 0.618622 0 0 0 -0.22672 0.581785 -1.09595 
289 2.44023 0.744301 0.539648 0.597763 0 0 0 0.576937 0.387529 -1.48426 
292 2.33956 0.902123 0.628315 0.547957 0 0 0 0.151934 0.787017 -1.36186 
284 1.63517 0.788282 0.385011 0.57014 0 0 0 -0.509421 0.940161 -0.962207 
285 2.84963 1.17716 0.0625922 0.791309 0 0 0 0.715083 0.0555137 -1.2482 
286 1.78723 0.48572 0.444939 0.587349 0 0 0 -0.294084 0.282613 -2.06146 
287 2.57698 1.17322 0.482563 0.61156 0 0 0 0.0428275 0.53961 -1.02999 
288 2.12027 0.470308 0.10373 0.706467 0 0 0 0.0548125 -0.00960638 -1.83867 
283 2.43674 -0.0381378 0.797333 0.72071 0 0 0 1.11703 -1.2852 -0.558129 
297 2.10953 0.404043 1.31447 0.50788 0 0 0 1.90415 -1.28961 1.10997 
298 2.93 0.378401 1.22614 0.699641 0 0 0 1.80704 -0.768719 0.103678 
299 2.17785 0.794496 1.15772 0.446812 0 0 0 3.04153 -0.0322288 -0.486623 
326 2.16132 0.241582 1.27565 0.557614 0 0 0 1.36198 -1.47814 0.897727 
421 1.83954 1.44085 1.50274 0.295546 0 0 0 -2.29127 -3.41404 -0.0474516 
302 2.2023 0.17177 1.03879 0.593099 0 0 0 1.2341 -1.32823 -0.190313 
409 1.6811 1.13812 1.38277 0.302338 0 0 0 7.6235 -3.47524 0.201065 
304 2.56841 0.907699 0.967204 0.532659 0 0 0 1.36617 0.342809 -0.843739 
327 2.48296 0.0221908 1.06097 0.685999 0 0 0 1.27707 -1.34479 -0.00758961 
271 2.0399 0.860397 1.25086 0.407327 0 0 0 4.83318 -0.126436 -0.068524 
325 1.98594 0.355553 1.00005 0.521513 0 0 0 1.37382 -1.15542 -1.03989 
308 1.84277 0.353847 1.39549 0.497793 0 0 0 1.14375 -1.67535 1.55099 
309 2.88629 1.00557 1.17505 0.594011 0 0 0 1.74581 0.142712 -0.102384 
352 2.8534 1.20475 1.47988 0.560577 0 0 0 1.76113 0.0542339 0.51699 
311 2.00273 0.716305 0.965149 0.458608 0 0 0 2.42602 -0.00761462 -1.77906 
312 2.53391 1.33844 0.846886 0.525579 0 0 0 -0.117237 0.548463 -0.597119 
293 2.42309 1.11164 0.861816 0.504926 0 0 0 0.210299 0.810967 -0.879161 
324 1.62813 -0.0597959 0.885016 0.633873 0 0 0 -0.114652 -1.61404 -0.685107 
315 2.60039 1.07859 1.23024 0.500886 0 0 0 1.63802 0.261132 -0.0845813 
316 2.72627 0.872234 1.06806 0.566482 0 0 0 1.68891 0.0840286 -0.390911 
317 2.17447 0.00895726 1.26039 0.630985 0 0 0 0.833499 -1.67305 0.738097 
345 2.10888 1.08501 1.35917 0.384712 0 0 0 3.1561 0.530943 0.357409 
323 2.38134 0.331227 1.4536 0.569985 0 0 0 1.39883 -1.12549 1.2854 
455 2.55583 1.28173 1.36755 0.472766 0 0 0 1.51349 0.132498 0.181888 
435 2.27638 1.22552 1.31462 0.411361 0 0 0 0.998545 0.0653155 0.565535 
448 2.20141 1.19778 1.32868 0.395787 0 0 0 1.29411 0.0628846 0.913638 
330 2.12819 0.96826 1.33153 0.403423 0 0 0 3.69316 0.317316 0.284995 
333 2.02458 1.08667 1.30522 0.371338 0 0 0 4.55185 0.017165 1.82271 
320 2.05153 1.24466 1.39439 0.356996 0 0 0 1.45088 -0.218271 1.67615 
85 1.93766 0.68803 1.22732 0.424793 0 0 0 4.19053 -1.03488 -0.384185 
72 1.85278 0.835644 1.34412 0.381422 0 0 0 5.99008 -0.139527 -1.58461 
280 1.92793 1.15719 0.95451 0.418538 0 0 0 0.282041 -0.515896 5.51788 
282 1.82597 1.09003 1.37787 0.331794 0 0 0 7.68127 0.0353203 -2.08886 
58 1.53876 0.410763 0.794835 0.520964 0 0 0 -0.62887 -0.813609 -2.48367 
7 1.78036 0.749632 1.18988 0.399086 0 0 0 4.57928 -1.93022 -1.07282 
175 1.68619 0.702473 1.18442 0.402967 0 0 0 3.05536 -2.53248 -1.39662 
151 1.67337 0.694863 1.1842 0.404024 0 0 0 2.8037 -2.5952 -1.42877 
102 1.68173 0.685799 1.18739 0.406093 0 0 0 2.8323 -2.53406 -1.3963 
401 1.68762 1.21331 1.38463 0.290458 0 0 0 6.15707 -7.39924 9.30976 
431 1.82256 1.38593 1.47812 0.294162 0 0 0 -1.17668 -3.9014 1.50337 
230 1.56873 0.813996 1.19065 0.375189 0 0 0 1.90267 -3.51164 -0.549864 
402 1.95157 1.39055 1.18274 0.365161 0 0 0 -1.92893 -6.34814 17.6072 
61 2.0614 1.43224 1.48036 0.347742 0 0 0 -1.14308 -1.58256 0.681314 
305 2.1485 1.42894 1.51639 0.368184 0 0 0 -0.452372 -0.690372 -0.938413 
89 2.192 1.4391 1.48267 0.378191 0 0 0 -0.208812 -1.02959 0.257785 
363 1.70564 1.42064 1.51257 0.263058 0 0 0 1.53684 23.0434 -69.0496 
500 2.10569 1.32175 1.88391 0.412447 0 0 0 -1.33932 1.80849 -6.18381 
355 2.35839 0.184453 1.86313 0.63447 0 0 0 0.36674 -1.07701 1.05967 
381 3.11612 1.01979 2.35073 0.739096 0 0 0 1.3034 -0.262216 0.688392 
331 2.87923 0.0788075 2.06589 0.792853 0 0 0 1.0863 -1.15045 0.611461 
364 1.76963 0.735988 2.16029 0.517309 0 0 0 -0.565295 2.08265 -2.76995 
456 2.33967 1.28734 1.85279 0.45211 0 0 0 -0.0218014 -0.0187408 -0.567926 
334 2.84871 0.650638 1.56623 0.619735 0 0 0 1.6139 -0.52621 0.796487 
379 2.85971 0.751268 2.16119 0.662739 0 0 0 0.956969 -0.29642 0.716333 
357 2.79171 1.1106 1.69074 0.555739 0 0 0 1.47426 -0.156942 0.9749 
349 2.50806 1.06994 1.68912 0.485856 0 0 0 1.04798 -0.242905 1.07408 
338 2.91329 1.04907 1.57017 0.592008 0 0 0 1.69163 -0.0901612 0.71629 
339 2.60637 0.208206 1.78259 0.663658 0 0 0 0.880239 -1.09942 0.930349 
340 2.03196 0.919075 1.73824 0.427769 0 0 0 0.610037 2.04126 -2.76107 
380 2.25571 1.36196 2.17206 0.492286 0 0 0 -0.9222 0.227013 -1.48845 
356 2.53184 0.904635 2.0194 0.548951 0 0 0 0.229663 -0.0733262 0.595476 
359 2.00327 -0.0960506 2.15981 0.722347 0 0 0 0.00874513 -1.2085 0.524035 
344 2.80142 -0.0437788 2.11852 0.816014 0 0 0 0.909458 -1.29325 0.606348 
348 3.04076 1.33757 1.60003 0.619055 0 0 0 1.74337 -0.105231 0.435854 
346 1.58773 0.374972 1.94495 0.544623 0 0 0 0.0740517 0.360976 0.0551581 
354 2.04635 0.84323 1.58868 0.422711 0 0 0 2.33698 1.06391 -0.593051 
368 2.37677 0.682568 2.36623 0.614731 0 0 0 -0.272381 0.0967162 0.0449504 
366 1.71032 1.3823 2.04879 0.405706 0 0 0 -1.48449 7.06432 -20.3602 
371 2.18583 0.971474 2.33558 0.551661 0 0 0 -0.951548 0.813082 -1.29552 
377 1.74601 1.18745 1.97099 0.40722 0 0 0 -1.22661 7.5446 -18.0407 
360 1.90747 0.404478 2.3254 0.616733 0 0 0 -0.290918 0.20933 -0.467821 
361 2.15681 1.26107 2.27567 0.509605 0 0 0 -1.32496 0.772337 -2.22141 
335 2.54276 0.223581 1.52697 0.631493 0 0 0 1.20219 -1.1684 0.995518 
384 1.99729 -0.0776364 2.77942 0.849447 0 0 0 0.0754723 -0.81768 0.466729 
376 2.66835 0.594172 2.77916 0.779062 0 0 0 0.370191 -0.267665 0.787307 
375 2.39585 0.989107 2.70504 0.665023 0 0 0 -0.364327 0.253874 0.190199 
362 2.50173 1.42621 2.86667 0.69643 0 0 0 -0.126945 -0.207816 0.712527 
126 1.54709 0.230959 2.44275 0.669909 0 0 0 0.190634 -0.0431654 -0.289624 
383 3.11738 1.16306 2.83543 0.835523 0 0 0 1.03592 -0.275972 0.893818 
365 2.9694 -0.0926757 2.52754 0.942725 0 0 0 0.96468 -1.11938 0.625882 
374 2.49303 0.362287 2.5845 0.739404 0 0 0 0.163753 -0.518979 0.603566 
367 2.83512 -0.0952166 2.44692 0.894593 0 0 0 0.828582 -1.20576 0.63182 
382 2.46012 0.611973 2.90139 0.779647 0 0 0 0.00279484 -0.0960408 0.703902 
369 2.63777 0.580109 2.64824 0.739166 0 0 0 0.331727 -0.276023 0.688829 
373 2.14105 0.726533 2.45078 0.603868 0 0 0 -0.651284 0.594291 -0.680578 
406 2.09112 2.16897 0.430838 0.611265 0 0 0 -1.06553 -1.43412 0.481096 
386 2.0284 2.99123 0.371049 0.772705 0 0 0 -0.203152 0.499831 -0.46932 
387 2.72329 1.69898 0.60938 0.62061 0 0 0 0.125387 -0.13923 -0.670053 
408 1.85314 2.49566 0.317939 0.670082 0 0 0 -0.440776 -0.943473 0.185419 
389 2.18616 3.05826 0.428308 0.790716 0 0 0 -0.0941004 0.695838 -0.55721 
390 2.98317 1.77901 0.535156 0.707931 0 0 0 0.849929 -0.12925 -0.779551 
391 2.11535 1.83161 0.648482 0.532527 0 0 0 -2.13319 -1.78884 1.75418 
403 2.5459 2.18678 0.119717 0.751349 0 0 0 -0.0754433 -0.411442 -0.815074 
393 2.66093 2.28842 0.183066 0.764202 0 0 0 0.173619 -0.246721 -0.873335 
405 2.78811 3.02173 -0.12111 1.01931 0 0 0 0.448673 0.483329 -0.802743 
395 1.81381 2.31843 0.625908 0.567286 0 0 0 -0.975026 -2.06636 1.31381 
396 2.10804 2.72738 0.663082 0.647388 0 0 0 -0.44757 -0.0233216 -0.398821 
397 2.16783 2.01056 -0.00250757 0.730131 0 0 0 -0.551795 -0.808921 -0.32692 
407 3.03609 2.65996 0.0661379 0.94152 0 0 0 0.75209 0.24212 -0.877934 
399 2.55634 2.07553 0.339481 0.678296 0 0 0 -0.217672 -0.510637 -0.662329 
400 3.03867 3.09633 0.0948065 1.03121 0 0 0 0.703318 0.615646 -0.72626 
404 2.54911 1.82912 0.135101 0.717734 0 0 0 -0.227235 -0.383322 -0.795849 
392 1.64898 1.70193 1.30227 0.313669 0 0 0 -4.3955 -24.5686 61.7786 
347 1.74968 2.58561 1.44171 0.482407 0 0 0 -0.442381 0.90903 -1.16965 
470 3.18034 2.73685 1.51285 0.777332 0 0 0 1.36502 0.545242 -0.283496 
412 2.83895 2.70487 0.904631 0.719795 0 0 0 0.791076 0.476957 -0.695043 
413 2.99686 2.31763 1.18363 0.663645 0 0 0 1.32584 -0.0830753 -0.625414 
414 2.35624 1.78558 1.13988 0.461764 0 0 0 -0.742094 -1.4768 0.040832 
415 2.18729 1.95171 0.959637 0.482595 0 0 0 -2.14014 -2.2229 1.05735 
416 1.76813 2.56766 1.21183 0.503755 0 0 0 -0.959952 -0.469329 -0.755546 
454 1.96176 3.07035 1.40585 0.634754 0 0 0 -0.187828 1.4875 -0.880989 
427 1.90156 2.97811 1.41373 0.60058 0 0 0 -0.275437 1.39299 -1.01348 
419 3.09087 2.31628 1.28366 0.685429 0 0 0 1.47358 -0.0907673 -0.502455 
457 2.18048 2.18526 1.39274 0.445662 0 0 0 0.664315 -0.848546 -0.804429 
411 1.77753 1.4971 1.51758 0.279059 0 0 0 -3.50417 -3.86778 0.147482 
422 2.52327 1.82722 0.892715 0.53417 0 0 0 -0.488508 -0.711595 -0.44558 
423 2.22281 3.17064 1.41836 0.692847 0 0 0 0.21183 1.49872 -0.625276 
424 1.98908 2.69972 0.785545 0.609122 0 0 0 -0.644644 -0.213526 -0.311735 
425 2.52502 2.65947 0.978216 0.634303 0 0 0 0.284954 0.379819 -0.819758 
426 2.16556 2.22827 1.02762 0.500696 0 0 0 -1.39635 -1.51876 -0.245617 
446 2.15404 1.47217 1.43062 0.370645 0 0 0 -0.758065 -2.07806 2.30967 
441 3.15009 2.03261 1.39372 0.670918 0 0 0 1.68533 -0.393153 -0.321683 
429 2.28301 3.01718 0.830939 0.71077 0 0 0 -0.01753 0.880804 -0.645502 
430 3.24666 2.98694 1.29672 0.866168 0 0 0 1.22318 0.80166 -0.328427 
449 2.29124 2.24049 1.41349 0.472487 0 0 0 0.979773 -0.238152 -1.01197 
388 1.59812 2.19684 1.01816 0.463186 0 0 0 -1.12524 -4.5248 4.55118 
433 2.03727 1.73802 1.21705 0.390799 0 0 0 -3.06218 -5.99437 9.07423 
434 1.60082 2.73668 1.06615 0.558629 0 0 0 -0.646769 -0.104375 -0.507381 
432 2.37388 1.88404 1.34991 0.447539 0 0 0 0.877485 -1.55953 -0.547227 
436 3.01036 2.09203 0.84311 0.681814 0 0 0 1.07793 -0.223382 -0.688418 
437 2.8462 1.57157 0.96614 0.587293 0 0 0 0.941039 0.077559 -0.585511 
438 2.85549 2.16438 1.42914 0.589201 0 0 0 1.62874 -0.368353 -0.503902 
439 3.06985 3.26361 1.23339 0.897856 0 0 0 0.94955 1.11243 -0.325503 
440 2.10109 2.01539 0.93985 0.483859 0 0 0 -2.34463 -2.61684 1.56016 
458 2.14521 2.40779 1.42054 0.480222 0 0 0 0.451981 0.375941 -1.04742 
464 2.20089 2.07552 1.39204 0.431482 0 0 0 0.776215 -1.57493 -0.489525 
443 2.58771 1.94946 2.09056 0.535521 0 0 0 1.22741 -0.883223 1.06624 
444 2.84859 1.46504 1.86655 0.570206 0 0 0 1.47556 -0.495901 0.741102 
445 2.81527 2.21551 2.1293 0.614387 0 0 0 1.21889 -0.376536 0.618623 
310 1.78293 2.08928 1.76574 0.364646 0 0 0 2.92965 1.76753 -0.104242 
372 1.61022 2.19643 1.81033 0.377707 0 0 0 0.390871 3.52849 0.84278 
296 2.37676 1.99588 1.7502 0.45479 0 0 0 2.73143 -0.912804 0.691419 
471 1.98874 1.90613 1.68087 0.358625 0 0 0 3.68271 -2.27047 -0.855754 
450 2.67999 1.85887 1.96779 0.537546 0 0 0 1.57154 -0.979855 0.850349 
182 1.64286 1.88949 1.64867 0.302927 0 0 0 0.631736 1.14027 2.03368 
452 2.11881 2.90997 1.68517 0.592222 0 0 0 0.466508 1.44554 -0.3989 
453 1.56027 2.45095 2.19981 0.487034 0 0 0 0.35409 0.82742 2.32801 
469 2.08406 1.70843 2.0562 0.431066 0 0 0 0.0260518 -0.355253 -3.08904 
343 2.09717 1.70347 1.57754 0.360073 0 0 0 0.921732 -3.60603 0.0493121 
481 2.16302 2.25178 1.79843 0.451737 0 0 0 2.75693 0.77185 1.11109 
467 1.86345 2.6493 1.66668 0.495961 0 0 0 0.528508 1.84499 -0.479496 
378 1.78868 2.33535 1.81544 0.420986 0 0 0 1.83512 2.73101 1.37876 
459 3.15663 2.7618 2.17728 0.80369 0 0 0 1.3311 0.599012 0.259745 
277 1.76728 1.99982 1.70693 0.340649 0 0 0 3.00508 0.914851 -1.08482 
461 1.65114 2.97998 1.7122 0.580968 0 0 0 -0.214517 1.91985 -0.769168 
263 1.87894 1.99472 1.72044 0.355844 0 0 0 3.87599 -0.29475 -0.87003 
261 1.68405 1.99278 1.69119 0.329301 0 0 0 1.712 1.80481 -0.603719 
176 1.90639 1.54434 1.53657 0.311141 0 0 0 -2.19437 -3.76096 0.588289 
465 1.96042 2.96194 1.89533 0.597782 0 0 0 0.44138 1.55928 0.0162084 
466 2.24247 3.2713 1.79524 0.726835 0 0 0 0.419265 1.6269 -0.194182 
319 2.24975 1.91453 1.63878 0.411731 0 0 0 2.91665 -1.83113 0.106675 
478 2.18734 3.04935 2.25827 0.683237 0 0 0 0.539361 1.21412 0.572468 
484 1.90492 2.64751 2.31714 0.562311 0 0 0 0.647537 0.489746 1.4539 
187 2.13031 2.09995 1.70539 0.413709 0 0 0 3.45091 -0.361809 0.630736 
509 3.29296 2.84291 2.26144 0.875195 0 0 0 1.37373 0.653916 0.329602 
488 2.31766 1.87768 1.72535 0.429171 0 0 0 2.78254 -1.5283 0.406065 
492 2.70859 2.30871 2.28735 0.620862 0 0 0 0.89395 -0.213787 0.823949 
494 2.94687 2.34984 2.28063 0.684459 0 0 0 1.18416 -0.127234 0.57591 
504 2.87671 1.9456 2.27657 0.631952 0 0 0 1.10362 -0.739892 0.756534 
199 1.89315 1.96045 1.70229 0.351186 0 0 0 3.89523 -0.926792 -1.12819 
120 1.67258 1.9638 1.67438 0.321488 0 0 0 1.45906 1.53499 -0.0073071 
442 2.28184 1.67739 1.7112 0.410209 0 0 0 1.68412 -1.59501 -0.505069 
498 2.04613 1.55965 1.97779 0.40944 0 0 0 -0.910622 1.08501 -7.14714 
487 1.91916 2.03369 2.33112 0.488956 0 0 0 0.0326239 -0.698213 0.224848 
209 2.03145 1.70589 1.5911 0.345966 0 0 0 0.866068 -3.84883 -0.484503 
36 2.10178 2.14084 1.72251 0.416345 0 0 0 3.40646 0.0972326 0.774127 
191 1.67811 1.96819 1.67706 0.323024 0 0 0 1.57648 1.52183 -0.149412 
417 2.33714 2.53508 1.7657 0.533534 0 0 0 1.30007 0.973384 0.259027 
451 2.99114 2.22371 1.53029 0.633451 0 0 0 1.65107 -0.27591 -0.31224 
259 1.58512 1.88708 1.64909 0.29793 0 0 0 -0.810838 2.34912 2.43821 
463 1.58447 1.95969 1.66739 0.313834 0 0 0 -0.644321 2.58973 1.31859 
307 1.54446 1.74375 1.60346 0.263563 0 0 0 -2.47059 3.24187 0.805515 
220 1.54373 1.74205 1.60278 0.263122 0 0 0 -2.49496 3.24202 0.761975 
496 2.03147 2.50601 2.78625 0.657585 0 0 0 0.0310514 -0.181221 1.52988 
472 2.0747 1.79642 2.63684 0.574765 0 0 0 -0.779202 -0.5956 -0.0763976 
473 1.75625 1.5959 2.58876 0.549215 0 0 0 -1.17767 0.121219 -2.3479 
474 2.95854 3.17647 2.68346 0.934253 0 0 0 0.901265 1.04183 0.755753 
497 1.61663 1.94128 2.57965 0.539007 0 0 0 -0.63555 -1.02514 -0.520674 
502 2.22662 2.57159 2.71503 0.667084 0 0 0 0.220396 0.046817 1.38663 
477 3.17713 2.0138 2.59479 0.781977 0 0 0 1.29713 -0.453759 0.857138 
513 2.63016 3.0298 3.05944 0.919996 0 0 0 0.557671 0.805126 1.27699 
479 1.80985 1.75127 2.417 0.49856 0 0 0 -1.1568 -0.356586 -2.63228 
501 1.6536 2.4538 3.00118 0.698249 0 0 0 -0.144836 -0.37635 1.73336 
503 2.03372 3.1535 2.47845 0.734325 0 0 0 0.328419 1.26102 0.849381 
482 1.57532 3.16057 3.12964 0.875848 0 0 0 0.0454424 0.862646 1.49567 
511 3.00814 2.13234 2.41307 0.702011 0 0 0 1.18574 -0.463514 0.754343 
510 2.10249 2.54653 2.61072 0.623521 0 0 0 0.225985 -0.0462947 1.38352 
508 2.62305 1.96044 3.05692 0.77212 0 0 0 0.282789 -0.409109 1.38037 
505 3.15567 2.91939 3.22206 1.06052 0 0 0 0.887148 0.587056 1.13087 
499 1.80691 1.78436 2.91322 0.645106 0 0 0 -0.705503 -0.515549 0.136768 
495 2.94831 1.72933 2.7966 0.758141 0 0 0 0.827143 -0.506842 1.07249 
489 3.12957 1.50361 3.00017 0.868009 0 0 0 0.959284 -0.334807 1.04648 
490 2.37284 2.40854 2.58346 0.629826 0 0 0 0.304735 -0.181172 1.22528 
491 2.27434 1.49882 2.74564 0.62995 0 0 0 -0.618176 -0.160362 0.104055 
506 1.97648 2.06882 3.04671 0.700278 0 0 0 -0.385127 -0.559226 1.21408 
493 3.07267 3.01074 2.79147 0.943093 0 0 0 1.00008 0.817251 0.886013 
480 2.35966 2.25058 2.39424 0.569219 0 0 0 0.406841 -0.387123 1.22442 
ITEM: TIMESTEP
800988
ITEM: NUMBER OF ATOMS
512
ITEM: BOX BOUNDS ss ss ss
-2.2775349561678951e-01 3.2932607586404616e+00
-4.0122540508749138e-01 3.2891132425832117e+00
-1.7039273299291779e-01 3.2223573019164853e+00
ITEM: ATOMS id x y z width_SPH x_COM y_COM z_COM vx vy vz 
23 0.539287 1.16104 0.372781 0.613015 0 0 0 0.633792 -0.0976408 -0.569975 
3 -0.14033 -0.124433 0.0939736 1.0357 0 0 0 -1.01065 -0.934126 -0.881343 
4 1.1215 0.71024 0.265509 0.622553 0 0 0 0.0093683 0.209783 -1.02934 
5 0.225459 1.27088 -0.0394016 0.78251 0 0 0 -0.197428 -0.301963 -0.966496 
6 0.0115262 1.14394 0.376959 0.727352 0 0 0 -0.762227 -0.268013 -0.705384 
22 0.128621 1.05029 0.0595998 0.785116 0 0 0 -0.507385 -0.424303 -0.970659 
8 0.686461 0.733454 -0.0391962 0.747513 0 0 0 0.0953338 -0.433141 -1.18303 
9 1.3567 -0.241854 0.263491 0.804205 0 0 0 -0.298888 -1.18641 -1.40895 
10 -0.0863162 -0.263405 0.0260447 1.07371 0 0 0 -0.931968 -0.985727 -0.901903 
11 0.920706 1.15036 -0.0285255 0.696437 0 0 0 0.752232 -0.165338 -0.435088 
12 0.461886 1.343 0.164184 0.674423 0 0 0 0.502726 -0.204163 -0.606939 
13 0.278628 -0.299309 0.200452 0.957906 0 0 0 -0.806297 -1.14363 -1.01851 
14 0.972039 1.22081 0.39007 0.568523 0 0 0 1.27038 0.142491 0.812763 
15 1.08249 0.66997 0.304808 0.617964 0 0 0 -0.0678938 0.142891 -1.16071 
16 0.612757 -0.235828 0.24474 0.869625 0 0 0 -0.630652 -1.16658 -1.20388 
17 0.87827 0.253888 0.00522856 0.783181 0 0 0 -0.298604 -0.660956 -1.49783 
18 0.562191 0.565603 0.356092 0.673121 0 0 0 -0.32715 -0.544893 -1.23563 
274 1.4895 1.31441 0.56809 0.508708 0 0 0 -0.206621 -0.281922 4.84915 
20 0.67939 0.94068 0.29778 0.628464 0 0 0 0.463992 -0.143617 -0.766446 
62 1.19143 1.02676 0.635986 0.499497 0 0 0 0.00574213 0.577729 1.37856 
50 0.549987 -0.381031 0.627223 0.850633 0 0 0 -0.738648 -1.36615 -0.85648 
31 -0.0666985 1.19079 0.657985 0.694831 0 0 0 -0.999908 -0.0999443 -0.584638 
44 0.384567 0.857337 0.611345 0.61198 0 0 0 -0.317969 -0.373741 -1.12026 
24 1.01877 -0.213785 1.39568 0.679355 0 0 0 -0.123968 -1.69285 0.603283 
353 1.43469 1.07795 1.35086 0.306618 0 0 0 -0.47797 -3.56911 0.635603 
26 -0.135937 1.02548 1.49494 0.658914 0 0 0 -1.52794 0.0880323 0.0612295 
27 0.398738 1.14913 0.832389 0.546231 0 0 0 -0.0929895 0.0261981 -1.24834 
28 0.947155 0.224998 1.38726 0.550774 0 0 0 -0.881476 -1.47364 0.742568 
91 0.800642 1.12867 1.21354 0.410233 0 0 0 -0.998686 -0.848677 -0.34146 
303 1.47401 1.06097 1.34497 0.30898 0 0 0 0.971357 -3.795 0.770512 
65 0.669833 0.471782 1.33838 0.53013 0 0 0 -1.15559 -1.29714 0.0919715 
32 0.390326 -0.347399 1.28432 0.80911 0 0 0 -0.778089 -1.47594 -0.132798 
33 0.747582 -0.211899 1.15272 0.709654 0 0 0 -0.599471 -1.55105 -0.195146 
173 0.936216 0.960755 1.29479 0.396884 0 0 0 -3.4671 -1.14494 -0.810968 
35 1.49751 0.0185839 0.818712 0.616276 0 0 0 -0.421798 -1.4179 -1.15814 
21 1.50709 1.44185 1.49138 0.220515 0 0 0 0.245012 1.59383 0.619741 
154 1.32469 1.31545 1.43483 0.268891 0 0 0 1.65049 2.35691 -4.962 
38 0.219852 1.02869 0.80081 0.601115 0 0 0 -0.640092 -0.169656 -1.01705 
39 -0.227459 0.894409 1.43968 0.703333 0 0 0 -1.58738 -0.0297003 -0.0849064 
2 1.14967 0.67524 1.21354 0.426027 0 0 0 -4.14279 -2.31405 -1.38031 
351 0.859145 1.19145 1.32514 0.381097 0 0 0 -0.727985 -0.464305 0.443717 
42 0.79997 1.37177 1.32996 0.382826 0 0 0 0.818893 -0.146395 1.05489 
195 1.40657 0.799869 1.18838 0.38145 0 0 0 -2.14167 -3.62158 -0.893356 
318 1.49221 1.0687 1.34922 0.30665 0 0 0 1.80135 -3.845 0.632608 
45 0.998554 0.224029 1.32982 0.545672 0 0 0 -1.04167 -1.56828 0.537148 
46 0.610446 0.267936 0.790683 0.635117 0 0 0 -0.974936 -0.894087 -1.36006 
47 1.21211 0.915315 0.835749 0.454217 0 0 0 -1.73101 -0.485169 0.987995 
48 0.526619 0.78882 1.37475 0.498783 0 0 0 -1.0529 -1.06536 0.0363361 
250 1.49187 1.08593 1.35641 0.302457 0 0 0 1.96541 -3.83516 0.344975 
79 1.49623 1.36941 1.46082 0.233518 0 0 0 3.6428 0.757795 0.551127 
51 0.476675 1.30496 0.949272 0.506038 0 0 0 0.169092 0.221638 -1.33576 
52 1.29203 0.226354 1.31754 0.525364 0 0 0 -0.907409 -1.9114 0.784923 
53 -0.0398851 0.626632 1.25892 0.678804 0 0 0 -1.45045 -0.441284 -0.414633 
54 1.02301 -0.400931 1.42876 0.74746 0 0 0 0.00506739 -1.74379 0.513762 
385 1.48525 1.28967 1.43147 0.252413 0 0 0 3.4245 -2.10666 0.491218 
56 1.27651 0.103592 1.02254 0.574015 0 0 0 -0.869667 -1.66904 -0.734829 
178 0.995028 1.43603 1.45857 0.329984 0 0 0 2.91022 1.35581 0.62405 
115 1.50526 1.15041 1.3764 0.287019 0 0 0 3.09607 -4.38466 0.778024 
59 0.618217 0.602602 1.24067 0.51739 0 0 0 -1.31679 -1.26834 -0.596046 
124 1.46275 1.03846 1.33351 0.314951 0 0 0 0.307939 -3.79367 1.08081 
306 1.50773 -0.285864 0.765565 0.723846 0 0 0 -0.127717 -1.6043 -0.682429 
64 0.863756 -0.339055 1.3046 0.736469 0 0 0 -0.275655 -1.69422 0.221031 
119 1.46935 1.29803 1.43364 0.251084 0 0 0 3.24226 -1.67008 0.900814 
313 1.06027 1.33634 1.41902 0.322543 0 0 0 1.09854 0.946922 2.21123 
149 1.36226 1.21564 1.35164 0.287129 0 0 0 -1.32954 -1.55796 -0.799481 
179 1.27091 0.655444 1.19794 0.420361 0 0 0 -3.49658 -2.75725 -1.57711 
106 1.48398 1.28128 1.42805 0.254531 0 0 0 3.33281 -2.41738 0.653712 
322 1.48977 1.08076 1.35422 0.303751 0 0 0 1.82439 -3.82952 0.432641 
19 1.48533 0.423848 1.00494 0.484895 0 0 0 -0.852827 -1.86255 -1.91699 
512 1.49419 1.3562 1.4562 0.236441 0 0 0 3.67182 0.311825 0.468083 
301 0.930611 1.30713 1.40803 0.352103 0 0 0 0.844371 0.695765 0.473239 
214 1.39941 0.983954 1.30052 0.332295 0 0 0 -2.34871 -3.66493 1.32684 
77 0.453287 1.43621 1.29507 0.467504 0 0 0 -0.729951 0.322729 -0.756568 
358 0.802632 1.13455 1.1541 0.418095 0 0 0 -0.81159 -0.815782 -0.341105 
81 0.658632 0.594057 1.15419 0.517896 0 0 0 -1.43272 -1.24584 -1.06384 
71 0.654126 1.22741 1.34848 0.421632 0 0 0 -0.472676 -0.274646 -0.366869 
329 0.872551 1.19711 1.34631 0.376298 0 0 0 -0.663996 -0.284591 0.350707 
57 1.51229 0.644703 1.1874 0.412432 0 0 0 -0.12259 -3.05675 -1.62634 
122 1.21656 0.67319 1.2029 0.420714 0 0 0 -3.98091 -2.58496 -1.52528 
74 0.974798 0.845289 1.26176 0.411889 0 0 0 -4.06642 -1.59231 -1.05768 
228 1.19611 1.41564 1.46552 0.285849 0 0 0 3.66139 1.69368 2.5442 
198 0.988606 1.43717 1.45868 0.331365 0 0 0 2.87828 1.25703 0.75421 
165 1.32819 0.926631 1.25837 0.353439 0 0 0 -4.30453 -3.50949 0.956195 
101 1.00028 1.23476 1.37484 0.345701 0 0 0 -1.00803 0.365078 1.16491 
82 0.914211 0.731781 1.19891 0.446424 0 0 0 -3.04112 -1.6702 -1.19378 
229 1.43794 1.01783 1.32157 0.321264 0 0 0 -0.817551 -3.73956 1.25703 
66 0.077913 -0.209392 2.31732 0.901788 0 0 0 -0.687957 -1.05208 0.580833 
67 0.896592 0.389783 1.98979 0.568993 0 0 0 0.535188 -0.0874354 0.637802 
68 1.03629 0.897864 1.78784 0.43144 0 0 0 0.892999 2.98621 -4.25762 
95 0.398484 -0.0109029 2.10984 0.741995 0 0 0 -0.249928 -0.999985 0.679925 
70 0.431861 1.36488 2.12842 0.534681 0 0 0 0.501925 -0.113956 0.726911 
88 0.0603614 0.335404 2.25425 0.754695 0 0 0 -0.785908 -0.43736 0.7803 
55 0.179152 0.110081 1.56622 0.715517 0 0 0 -0.99036 -1.03047 0.129742 
63 0.0686971 1.42391 1.57716 0.574449 0 0 0 -1.32734 0.122351 0.333577 
87 -0.124826 0.602196 1.97093 0.726216 0 0 0 -1.23339 -0.227804 0.586439 
75 0.13423 1.38274 2.08426 0.597903 0 0 0 -0.600602 -0.111101 0.92788 
86 1.52819 0.494282 1.73489 0.483928 0 0 0 0.0889735 0.601293 0.00425053 
90 0.772496 1.18916 2.00601 0.467509 0 0 0 2.16493 1.08646 -1.69332 
78 0.397216 -0.00263047 2.21456 0.755241 0 0 0 -0.216491 -0.931591 0.70569 
113 0.978006 1.36 2.06098 0.439917 0 0 0 2.9697 2.54533 -6.735 
93 0.811341 0.804862 2.0233 0.511044 0 0 0 1.24664 0.892038 -0.290638 
92 0.388019 0.389794 1.87057 0.619935 0 0 0 -0.311898 -0.630194 0.88869 
108 1.1812 0.815746 2.12937 0.500496 0 0 0 1.03679 2.73475 -3.26155 
83 0.717764 1.15514 1.91968 0.462905 0 0 0 1.76402 0.737037 -0.786863 
84 0.247413 0.0622357 2.16075 0.758665 0 0 0 -0.490195 -0.857548 0.680796 
96 1.42755 0.839308 1.89149 0.437821 0 0 0 0.311059 5.24138 -7.87401 
127 1.45838 0.642887 2.04465 0.504504 0 0 0 0.179371 2.32783 -2.51026 
34 -0.0099513 0.530521 1.66397 0.680598 0 0 0 -1.2569 -0.446998 0.292414 
60 0.616721 0.958431 1.89369 0.49654 0 0 0 0.906034 0.186402 0.694778 
25 1.06931 0.282778 1.61881 0.537638 0 0 0 -0.332295 -0.974017 1.42411 
76 0.5695 0.905026 1.57236 0.476953 0 0 0 -0.410872 -0.726924 0.959405 
94 0.548014 0.81221 1.57409 0.494661 0 0 0 -0.474157 -0.799146 1.01573 
37 0.451646 1.06436 1.55401 0.483798 0 0 0 -0.715221 -0.372703 0.80154 
49 -0.225095 0.992379 1.53528 0.693613 0 0 0 -1.56996 0.0719952 0.0721429 
125 1.09268 1.35857 2.31577 0.494746 0 0 0 1.874 1.87927 -4.762 
370 1.52837 0.87619 2.34621 0.535458 0 0 0 -0.114036 2.66184 -3.73613 
121 1.2299 0.0557174 2.56175 0.739897 0 0 0 0.420638 -0.463445 0.188908 
97 0.741255 0.963636 2.6719 0.641808 0 0 0 0.791094 0.769511 -0.0276866 
98 0.311901 1.033 2.82434 0.738884 0 0 0 -0.0618682 0.189117 0.942191 
99 0.716606 0.0242834 2.58279 0.779046 0 0 0 0.238151 -0.650591 0.651578 
100 0.647803 0.403616 2.84607 0.773452 0 0 0 0.218151 0.0515981 0.748534 
128 0.383363 1.44118 2.49724 0.615766 0 0 0 0.291503 -0.114642 0.746896 
131 0.549718 1.23793 2.93584 0.721723 0 0 0 0.375443 0.238877 0.767541 
103 1.03332 0.516067 2.74005 0.695682 0 0 0 0.557494 0.579618 -0.00875606 
130 1.37067 0.46521 2.56845 0.651141 0 0 0 0.363712 0.7365 -0.682348 
114 1.06694 0.880378 2.58087 0.60421 0 0 0 0.894383 1.4752 -1.26376 
129 0.508149 0.0503797 3.07878 0.938568 0 0 0 -0.0943866 -0.452573 0.926427 
116 -0.091805 0.828692 2.48471 0.768908 0 0 0 -0.926301 -0.00656058 0.912677 
117 -0.112809 0.373906 2.52757 0.849199 0 0 0 -0.96399 -0.312894 0.858353 
109 0.427185 0.944434 3.03849 0.793869 0 0 0 0.0460002 0.256787 0.96323 
110 0.486302 -0.255057 2.78202 0.938172 0 0 0 -0.121542 -0.936644 0.76415 
123 1.28799 1.23656 2.37884 0.511353 0 0 0 0.834547 2.6415 -5.32631 
112 1.16532 0.424952 2.80165 0.724467 0 0 0 0.467849 0.43116 0.0413091 
162 0.457141 2.5951 0.566883 0.691737 0 0 0 -0.19899 0.795891 -0.43371 
132 0.66222 2.53027 0.21789 0.732799 0 0 0 0.175159 0.271954 -0.335467 
133 0.0922401 1.78605 0.558715 0.665837 0 0 0 -0.455923 0.139882 -0.504162 
134 0.162152 2.01557 0.24243 0.736259 0 0 0 -0.340441 0.197182 -0.589831 
135 1.32373 2.40948 0.446201 0.616066 0 0 0 0.357545 -1.41328 1.05043 
136 1.10481 2.57107 0.555834 0.622616 0 0 0 0.397429 -0.46965 0.464791 
137 0.0490362 2.5059 0.614626 0.758155 0 0 0 -0.886011 0.864021 -0.49479 
138 0.513596 2.21214 0.0647108 0.745662 0 0 0 0.264206 0.00929005 -0.511829 
139 0.291598 2.24805 0.292715 0.722672 0 0 0 -0.186694 0.334746 -0.526097 
140 0.883335 2.73443 0.162877 0.770976 0 0 0 0.129491 0.361219 -0.290011 
141 -0.0439162 2.3866 0.160641 0.863761 0 0 0 -0.835642 0.588515 -0.612653 
142 1.45321 2.54109 0.575779 0.605432 0 0 0 -0.0152793 -1.15817 0.84844 
143 1.27571 2.91643 0.597735 0.687649 0 0 0 -0.0928409 0.533066 -0.00198451 
160 0.794611 3.07601 0.428214 0.804013 0 0 0 -0.207697 1.16478 -0.290265 
145 0.495421 2.00223 0.0139392 0.740951 0 0 0 0.384889 -0.140973 -0.551345 
146 1.33715 2.00136 0.341053 0.601081 0 0 0 0.654427 -2.10929 2.1056 
147 0.766198 1.82077 0.226307 0.636295 0 0 0 1.1953 -0.680001 0.317627 
148 1.26681 3.02295 0.25203 0.799051 0 0 0 -0.0618207 0.640651 -0.233344 
156 0.0923348 1.95726 0.419736 0.705678 0 0 0 -0.503535 0.220012 -0.514313 
150 1.0832 1.84153 0.514014 0.549522 0 0 0 1.65376 -2.03896 2.64036 
155 0.802651 1.62672 0.139302 0.650624 0 0 0 1.20365 -0.523875 0.232151 
161 1.37471 2.00684 0.411131 0.582786 0 0 0 0.554471 -2.40396 2.53751 
159 0.0392291 1.48546 -0.0352896 0.821637 0 0 0 -0.532885 -0.159709 -0.891073 
170 1.13968 2.09623 1.09396 0.440548 0 0 0 1.46601 -3.77867 4.57899 
163 0.512819 2.85755 0.715427 0.721364 0 0 0 -0.362561 1.2601 -0.434149 
202 0.614152 2.0095 1.00203 0.503112 0 0 0 1.09997 -0.139516 -1.05797 
167 0.867404 1.79174 1.05682 0.436401 0 0 0 2.56076 -1.83464 2.56795 
225 1.49735 1.51636 1.51443 0.217518 0 0 0 -0.855184 -0.816075 -0.887172 
169 0.925714 1.73867 1.43071 0.356735 0 0 0 1.84657 -1.94813 4.92861 
201 -0.0238974 2.74169 0.921927 0.78736 0 0 0 -1.10163 1.15805 -0.493661 
171 0.344799 1.88397 1.31499 0.510871 0 0 0 -0.75215 0.282536 -1.14348 
183 1.05569 1.45292 1.4625 0.31599 0 0 0 3.41754 1.60681 1.20749 
30 0.792089 1.64482 1.51741 0.376352 0 0 0 1.0262 0.0813456 0.161996 
174 0.20688 1.77876 1.03603 0.567114 0 0 0 -0.476531 0.230795 -1.02289 
210 1.50148 1.47893 1.50125 0.217348 0 0 0 0.564816 0.987991 0.143374 
157 1.18863 2.27083 1.02742 0.47847 0 0 0 0.927576 -2.54604 1.97877 
152 1.07997 2.08941 0.712465 0.523343 0 0 0 1.53883 -2.43134 2.37601 
314 1.50113 1.48138 1.50212 0.21725 0 0 0 0.470027 0.864042 0.0394292 
197 0.0748415 2.23525 1.0802 0.643443 0 0 0 -1.0024 0.59557 -0.809911 
180 0.421875 2.02562 1.49853 0.493813 0 0 0 -1.13652 0.339431 -0.727762 
181 0.627686 2.08579 1.41777 0.456517 0 0 0 -0.466859 0.710757 -1.41785 
428 1.18669 2.56475 1.42784 0.483302 0 0 0 -0.598155 1.18333 -1.62201 
410 1.4991 1.48774 1.50438 0.217077 0 0 0 0.802123 0.611181 -0.0316415 
184 0.816888 2.82807 1.23688 0.603671 0 0 0 -0.226957 1.57111 -1.11909 
460 1.49413 1.50152 1.50836 0.217103 0 0 0 -0.273532 -0.0781762 -0.507637 
186 0.975643 2.81774 1.04021 0.606021 0 0 0 -0.0236934 1.00239 -0.639726 
196 0.570965 1.70122 1.47318 0.43214 0 0 0 -0.553779 0.191666 -0.178905 
188 0.309625 2.5385 1.32084 0.613259 0 0 0 -0.883893 1.28406 -1.11733 
200 0.952341 2.70818 1.14964 0.565977 0 0 0 0.0652657 0.959661 -1.03811 
190 0.811568 1.85976 1.03819 0.453606 0 0 0 2.21273 -1.24136 0.979028 
166 0.578324 1.64115 0.820062 0.51415 0 0 0 1.37958 -0.126798 -0.4914 
192 0.613365 2.06273 1.28737 0.468808 0 0 0 0.152197 0.522672 -1.66711 
193 1.11512 2.50091 1.38662 0.476142 0 0 0 -0.418125 0.868679 -1.5248 
203 1.49709 1.53529 1.52114 0.218901 0 0 0 -1.53187 -1.18272 -1.05477 
208 1.50103 1.48233 1.50246 0.217216 0 0 0 0.443794 0.811837 0.00606811 
41 1.49969 1.49087 1.50544 0.217016 0 0 0 0.111196 0.318746 -0.333305 
342 1.4981 1.50466 1.51029 0.217086 0 0 0 -0.41301 -0.391147 -0.698661 
164 1.49914 1.49496 1.50687 0.216987 0 0 0 -0.0435014 0.0856665 -0.46325 
40 1.49907 1.4955 1.50707 0.216986 0 0 0 -0.06422 0.055806 -0.47903 
219 1.49839 1.50152 1.50918 0.217028 0 0 0 -0.293333 -0.249546 -0.632048 
73 1.49776 1.50902 1.51184 0.217208 0 0 0 -0.578972 -0.568314 -0.778923 
43 0.805603 1.44796 1.37081 0.376498 0 0 0 1.30545 -0.0246543 1.27887 
418 1.50719 1.47294 1.49917 0.217691 0 0 0 -0.374859 0.84854 0.0266294 
158 1.23226 1.80438 1.11316 0.389185 0 0 0 1.38706 -9.68994 21.291 
394 1.50446 1.487 1.49865 0.217128 0 0 0 -0.30744 0.642977 -1.03829 
107 1.49844 1.45725 1.49537 0.21885 0 0 0 1.73308 1.28262 2.58601 
215 0.540871 2.16283 1.63005 0.479714 0 0 0 -1.4285 0.604011 -0.34049 
447 1.39749 2.80308 2.23838 0.567394 0 0 0 -0.109906 1.23069 1.24134 
205 0.0357098 1.958 2.06486 0.630639 0 0 0 -1.35404 -0.385495 0.701815 
206 1.02526 2.47209 2.29806 0.526081 0 0 0 -0.784567 0.0757779 2.24092 
207 0.438846 2.84842 1.72195 0.648682 0 0 0 -0.970144 1.70349 -0.719307 
257 1.1462 1.73854 1.5693 0.308092 0 0 0 0.150858 1.367 0.792004 
194 0.555393 1.94539 1.63956 0.452293 0 0 0 -1.32462 0.0738418 0.248922 
235 1.21548 2.18612 2.35238 0.493661 0 0 0 -0.515667 -1.03703 1.78978 
211 0.95635 2.92221 2.05614 0.605035 0 0 0 -0.719762 1.80985 0.0663178 
212 0.453131 2.60916 1.67387 0.582915 0 0 0 -1.16159 1.49545 -0.74156 
213 0.821559 1.77282 1.80143 0.397827 0 0 0 -0.215279 0.0122566 -1.25211 
242 0.40046 2.35909 2.29194 0.595599 0 0 0 -1.03597 -0.27233 1.19628 
231 0.848342 2.32006 2.12816 0.491557 0 0 0 -1.46643 0.000740959 2.18591 
216 1.16683 2.94849 2.0896 0.599369 0 0 0 -0.547733 1.81478 0.245501 
217 0.343202 2.85139 1.83538 0.671172 0 0 0 -1.07812 1.48818 -0.52058 
218 0.188133 2.60236 1.94756 0.653438 0 0 0 -1.42614 0.765574 -0.097906 
468 0.852819 2.30967 1.85529 0.453564 0 0 0 -2.19985 1.12486 0.88756 
204 0.982441 2.13675 1.79705 0.40018 0 0 0 -3.11385 1.07125 0.489712 
221 0.781363 2.16855 1.99554 0.461678 0 0 0 -1.81778 -0.142106 1.89155 
222 0.874647 2.13024 1.82114 0.418687 0 0 0 -2.52245 0.608114 0.876298 
223 0.648261 1.75377 1.73341 0.42543 0 0 0 -0.647365 -0.244277 0.582253 
246 1.14636 1.78049 1.58 0.313136 0 0 0 -0.965396 1.31998 0.384361 
104 0.233991 1.55829 2.31381 0.605701 0 0 0 -0.273977 -0.332356 0.943805 
226 1.33009 3.06354 2.06162 0.62623 0 0 0 -0.383226 1.88233 0.0383521 
227 0.147302 1.58649 2.08044 0.590157 0 0 0 -0.739022 -0.333814 0.957682 
234 1.08919 1.77502 1.65725 0.327877 0 0 0 -0.111112 5.13775 -13.7868 
238 1.01266 1.72345 1.58264 0.33368 0 0 0 1.23737 1.37746 -3.7462 
321 1.32125 2.33262 1.84131 0.409754 0 0 0 -2.19695 3.09489 1.05817 
475 0.852225 2.20785 1.83084 0.434529 0 0 0 -2.39329 0.831212 0.936023 
476 1.236 2.27058 2.30391 0.488504 0 0 0 -0.670007 -0.5918 2.29727 
189 0.782455 2.23929 1.56136 0.444169 0 0 0 -1.22523 1.24335 -1.12483 
239 1.3495 1.89791 1.62616 0.304187 0 0 0 -5.24282 3.48688 3.25171 
328 1.239 2.61189 1.80516 0.48029 0 0 0 -1.13658 2.5566 -0.289746 
185 0.0296378 2.45809 1.54539 0.667553 0 0 0 -1.48898 0.75941 -0.529489 
337 1.08117 2.12647 1.79494 0.384859 0 0 0 -3.71931 1.54286 0.134471 
462 1.494 3.28882 1.96819 0.696856 0 0 0 -0.327504 1.96139 -0.252655 
168 1.33186 1.85861 1.63155 0.298785 0 0 0 -4.91597 3.88147 2.86675 
247 1.21227 2.26017 1.82707 0.399114 0 0 0 -3.19391 2.60099 0.84185 
177 1.34232 2.09073 1.75652 0.350181 0 0 0 -4.10398 3.77395 -1.22939 
485 1.5067 2.80876 2.33205 0.583721 0 0 0 0.095756 0.928995 1.38007 
264 1.3721 2.24531 1.827 0.387489 0 0 0 -2.45604 3.42765 0.951579 
69 1.4045 2.22362 1.82304 0.381681 0 0 0 -2.28852 3.58825 0.832385 
483 1.42127 2.31224 1.83497 0.402123 0 0 0 -1.57727 3.46076 1.19419 
350 1.439 2.29199 1.83175 0.39713 0 0 0 -1.51869 3.5418 1.19892 
249 0.810743 1.71806 2.34598 0.511764 0 0 0 1.12859 -0.642078 -0.195727 
420 1.11136 1.94425 1.68019 0.344427 0 0 0 -3.58143 1.60307 -2.54925 
240 1.42889 1.99382 1.67738 0.320758 0 0 0 -4.04914 3.95807 0.324132 
300 1.51916 1.67207 1.57346 0.245251 0 0 0 -3.20761 2.24254 -0.655509 
398 1.51863 1.67007 1.57263 0.244757 0 0 0 -3.21601 2.19199 -0.697483 
29 0.0998258 1.58839 1.57877 0.564952 0 0 0 -1.34133 0.0104324 0.251686 
224 1.1137 1.66991 1.54005 0.307838 0 0 0 2.25662 1.35909 0.489936 
111 0.95181 1.52523 1.755 0.36573 0 0 0 2.94891 3.99138 -11.4182 
105 1.42238 1.7449 1.56872 0.264088 0 0 0 -3.21332 2.29607 8.89411 
172 1.02342 1.85688 1.56823 0.344257 0 0 0 -0.614989 -1.55344 3.58407 
153 1.36635 1.72337 1.67663 0.280179 0 0 0 -1.66299 12.4745 -21.7954 
341 1.49772 1.55245 1.52725 0.220825 0 0 0 -2.06979 -1.20783 -1.11681 
144 1.49737 1.55543 1.52765 0.22119 0 0 0 -2.02516 -1.23559 -0.917969 
332 1.49424 1.56547 1.53147 0.222688 0 0 0 -0.540775 -0.876935 -0.943224 
486 1.5315 1.94567 2.1528 0.42041 0 0 0 -0.552425 0.80676 -5.18638 
336 1.53233 1.71296 1.59081 0.255617 0 0 0 -2.86274 3.0688 0.054761 
80 1.49759 1.55013 1.52642 0.220531 0 0 0 -2.00253 -1.21979 -1.11187 
232 0.492161 2.02195 2.69548 0.642611 0 0 0 -0.0745477 -0.804795 1.41706 
233 0.819153 1.89517 2.82464 0.638636 0 0 0 0.440506 -0.774783 1.02626 
255 -0.0545571 2.84034 2.49112 0.830806 0 0 0 -1.33128 0.662499 0.395591 
266 0.366653 1.98499 2.58794 0.636922 0 0 0 -0.320956 -0.7494 1.30895 
236 1.10598 2.61864 2.76414 0.651239 0 0 0 -0.0563054 -0.167821 1.86495 
237 0.37343 2.44496 2.4469 0.637518 0 0 0 -0.87945 -0.195092 1.14201 
262 0.719179 1.67966 2.53177 0.568063 0 0 0 0.926264 -0.484214 0.339147 
254 0.214176 2.73861 3.11696 0.891496 0 0 0 -0.712474 0.2734 1.4505 
118 0.0283933 1.48111 2.6882 0.743107 0 0 0 -0.653594 -0.166582 1.01433 
241 0.939423 2.12978 3.11426 0.728298 0 0 0 0.137865 -0.661524 1.54259 
265 0.0329558 3.01139 2.61218 0.868522 0 0 0 -1.12544 0.909765 0.525475 
243 0.559649 3.01397 2.64267 0.760243 0 0 0 -0.508838 1.0028 0.858366 
244 -0.0538455 3.17009 2.96979 1.01469 0 0 0 -0.989224 0.906805 0.853311 
245 1.25688 2.18075 2.86042 0.631953 0 0 0 -0.0453789 -0.976661 1.37666 
256 0.0639222 2.93296 2.98771 0.928311 0 0 0 -0.938696 0.617747 1.1011 
260 -0.0684616 2.86215 2.72929 0.88498 0 0 0 -1.22646 0.592825 0.736871 
248 0.535508 2.66342 2.98131 0.774499 0 0 0 -0.342581 0.0705751 1.64873 
507 1.514 2.78544 2.91086 0.717641 0 0 0 0.00161948 0.241189 1.77997 
258 0.563515 2.96535 3.08817 0.865752 0 0 0 -0.344522 0.623049 1.47812 
251 0.511304 2.47669 2.63315 0.654784 0 0 0 -0.499784 -0.285975 1.47388 
252 -0.111923 2.39186 2.39214 0.756581 0 0 0 -1.48802 -0.0397604 0.50006 
253 1.04036 3.18639 2.78129 0.794805 0 0 0 -0.146939 1.14523 1.12595 
267 1.82892 0.385598 0.477778 0.596853 0 0 0 -0.154248 -0.0364261 -2.08401 
268 2.77884 0.405526 0.286063 0.786132 0 0 0 1.25567 -0.459827 -1.24518 
269 2.2067 0.0402864 -0.170098 0.890932 0 0 0 0.37426 -0.76962 -1.63991 
270 2.56706 0.0594582 -0.0701733 0.911771 0 0 0 0.82707 -0.801596 -1.41335 
291 2.17938 0.517071 -0.0151476 0.745447 0 0 0 0.104538 -0.0265158 -1.80514 
272 2.88249 0.826455 0.434375 0.7207 0 0 0 1.24073 0.0309592 -1.12 
273 1.72709 1.05679 0.271324 0.594022 0 0 0 -0.639126 0.75235 0.272441 
295 2.1713 1.36023 0.380863 0.583848 0 0 0 -1.32073 0.225627 0.267963 
275 2.66357 -0.0269329 -0.00181806 0.933268 0 0 0 0.952079 -0.903053 -1.25184 
276 1.80978 0.0752479 0.0483188 0.778948 0 0 0 -0.0838287 -0.687912 -1.77596 
294 1.7398 1.32132 0.468055 0.539315 0 0 0 -1.13503 0.0486742 2.88239 
278 1.84913 0.118938 -0.0193129 0.792009 0 0 0 -0.053731 -0.61386 -1.79869 
279 2.175 0.767304 0.422032 0.586648 0 0 0 -0.127579 0.711315 -1.57241 
290 2.36631 1.24236 0.15696 0.668462 0 0 0 -0.466675 0.307253 -0.928688 
281 2.44926 1.10437 0.372457 0.618622 0 0 0 -0.226721 0.581785 -1.09595 
289 2.44023 0.744301 0.539648 0.597763 0 0 0 0.576936 0.387526 -1.48426 
292 2.33956 0.902123 0.628315 0.547957 0 0 0 0.15193 0.787014 -1.36186 
284 1.63517 0.788282 0.385011 0.57014 0 0 0 -0.509424 0.940162 -0.962203 
285 2.84963 1.17716 0.0625919 0.791309 0 0 0 0.715084 0.0555138 -1.2482 
286 1.78723 0.485721 0.444939 0.58735 0 0 0 -0.294087 0.282612 -2.06146 
287 2.57698 1.17322 0.482563 0.61156 0 0 0 0.0428276 0.539611 -1.02999 
288 2.12027 0.470308 0.10373 0.706467 0 0 0 0.0548112 -0.00960738 -1.83867 
283 2.43674 -0.0381381 0.797333 0.72071 0 0 0 1.11703 -1.2852 -0.558129 
297 2.10953 0.404043 1.31447 0.507881 0 0 0 1.90414 -1.28963 1.10998 
298 2.93 0.378401 1.22614 0.699641 0 0 0 1.80705 -0.768724 0.103678 
299 2.17785 0.794496 1.15772 0.446812 0 0 0 3.04152 -0.0322536 -0.486628 
326 2.16132 0.241581 1.27565 0.557615 0 0 0 1.36198 -1.47815 0.897728 
421 1.83954 1.44085 1.50274 0.295546 0 0 0 -2.29118 -3.41406 -0.0475824 
302 2.2023 0.17177 1.03879 0.593099 0 0 0 1.2341 -1.32824 -0.190313 
409 1.6811 1.13812 1.38277 0.302338 0 0 0 7.62353 -3.47532 0.200978 
304 2.56842 0.907699 0.967204 0.532659 0 0 0 1.36618 0.342803 -0.843744 
327 2.48296 0.0221904 1.06097 0.685999 0 0 0 1.27707 -1.34479 -0.0075895 
271 2.0399 0.860397 1.25086 0.407327 0 0 0 4.83315 -0.126473 -0.0685244 
325 1.98594 0.355553 1.00005 0.521513 0 0 0 1.37381 -1.15543 -1.0399 
308 1.84277 0.353846 1.39549 0.497793 0 0 0 1.14374 -1.67537 1.55099 
309 2.88629 1.00557 1.17505 0.594011 0 0 0 1.74582 0.14271 -0.102385 
352 2.8534 1.20475 1.47988 0.560578 0 0 0 1.76114 0.0542327 0.516993 
311 2.00273 0.716305 0.965149 0.458608 0 0 0 2.426 -0.00762722 -1.77906 
312 2.53391 1.33844 0.846886 0.525579 0 0 0 -0.117233 0.548467 -0.597122 
293 2.42309 1.11164 0.861816 0.504926 0 0 0 0.210301 0.810965 -0.879167 
324 1.62813 -0.0597963 0.885016 0.633873 0 0 0 -0.114651 -1.61404 -0.685105 
315 2.60039 1.07859 1.23024 0.500886 0 0 0 1.63804 0.261127 -0.0845832 
316 2.72627 0.872234 1.06806 0.566482 0 0 0 1.68891 0.0840235 -0.390913 
317 2.17447 0.00895684 1.26039 0.630985 0 0 0 0.833497 -1.67306 0.738099 
345 2.10888 1.08501 1.35917 0.384712 0 0 0 3.1561 0.530894 0.357413 
323 2.38134 0.331227 1.4536 0.569985 0 0 0 1.39882 -1.1255 1.2854 
455 2.55583 1.28173 1.36755 0.472766 0 0 0 1.51352 0.132498 0.18189 
435 2.27638 1.22552 1.31462 0.411361 0 0 0 0.998573 0.0653016 0.565537 
448 2.20141 1.19778 1.32868 0.395787 0 0 0 1.29414 0.0628601 0.91364 
330 2.12819 0.96826 1.33153 0.403423 0 0 0 3.69315 0.317272 0.284994 
333 2.02458 1.08667 1.30522 0.371338 0 0 0 4.55182 0.0171134 1.8227 
320 2.05153 1.24466 1.39439 0.356996 0 0 0 1.4509 -0.218322 1.67617 
85 1.93766 0.68803 1.22732 0.424793 0 0 0 4.1905 -1.03491 -0.384184 
72 1.85278 0.835644 1.34412 0.381422 0 0 0 5.99006 -0.139582 -1.58458 
280 1.92793 1.15719 0.954512 0.418538 0 0 0 0.28203 -0.515922 5.5179 
282 1.82597 1.09003 1.37787 0.331794 0 0 0 7.68124 0.0352342 -2.08883 
58 1.53876 0.410763 0.794835 0.520965 0 0 0 -0.628873 -0.813607 -2.48367 
7 1.78036 0.749632 1.18988 0.399086 0 0 0 4.57925 -1.93023 -1.07281 
175 1.68619 0.702472 1.18442 0.402967 0 0 0 3.05533 -2.53249 -1.39661 
151 1.67337 0.694863 1.1842 0.404024 0 0 0 2.80367 -2.59521 -1.42876 
102 1.68173 0.685799 1.18738 0.406094 0 0 0 2.83228 -2.53407 -1.39629 
401 1.68762 1.21331 1.38463 0.290458 0 0 0 6.15713 -7.39939 9.30973 
431 1.82255 1.38593 1.47812 0.294161 0 0 0 -1.17657 -3.90145 1.50323 
230 1.56873 0.813996 1.19065 0.375189 0 0 0 1.90265 -3.51165 -0.549854 
402 1.95157 1.39055 1.18275 0.36516 0 0 0 -1.92889 -6.34825 17.6074 
61 2.0614 1.43224 1.48036 0.347741 0 0 0 -1.14303 -1.58257 0.681347 
305 2.1485 1.42894 1.51639 0.368184 0 0 0 -0.452328 -0.690372 -0.93839 
89 2.192 1.4391 1.48267 0.37819 0 0 0 -0.208771 -1.02959 0.257802 
363 1.70564 1.42064 1.51255 0.263057 0 0 0 1.53679 23.0425 -69.0478 
500 2.10569 1.32175 1.88391 0.412446 0 0 0 -1.33929 1.80851 -6.18386 
355 2.35839 0.184453 1.86313 0.63447 0 0 0 0.366741 -1.07702 1.05967 
381 3.11612 1.01979 2.35073 0.739096 0 0 0 1.3034 -0.262219 0.688396 
331 2.87923 0.0788072 2.06589 0.792853 0 0 0 1.08631 -1.15045 0.611464 
364 1.76963 0.735989 2.16029 0.517308 0 0 0 -0.565289 2.08265 -2.76996 
456 2.33967 1.28734 1.85279 0.45211 0 0 0 -0.0217797 -0.0187448 -0.567918 
334 2.84871 0.650638 1.56623 0.619735 0 0 0 1.6139 -0.526217 0.79649 
379 2.85971 0.751268 2.16119 0.662739 0 0 0 0.956973 -0.296424 0.716339 
357 2.79171 1.1106 1.69074 0.555739 0 0 0 1.47428 -0.156946 0.974907 
349 2.50806 1.06994 1.68912 0.485856 0 0 0 1.048 -0.242916 1.07409 
338 2.91329 1.04907 1.57017 0.592008 0 0 0 1.69164 -0.0901645 0.716294 
339 2.60637 0.208206 1.78259 0.663658 0 0 0 0.880241 -1.09942 0.930352 
340 2.03196 0.919076 1.73824 0.427769 0 0 0 0.610054 2.04124 -2.76109 
380 2.25571 1.36196 2.17206 0.492286 0 0 0 -0.922194 0.227012 -1.48845 
356 2.53184 0.904635 2.0194 0.548951 0 0 0 0.22967 -0.0733334 0.595484 
359 2.00327 -0.0960509 2.15981 0.722347 0 0 0 0.00874662 -1.2085 0.524037 
344 2.80142 -0.0437791 2.11852 0.816014 0 0 0 0.90946 -1.29325 0.606351 
348 3.04076 1.33757 1.60003 0.619055 0 0 0 1.74338 -0.105231 0.435857 
346 1.58773 0.374972 1.94495 0.544623 0 0 0 0.0740553 0.360968 0.0551545 
354 2.04636 0.843231 1.58868 0.422711 0 0 0 2.33698 1.06387 -0.593056 
368 2.37677 0.682568 2.36623 0.614731 0 0 0 -0.272379 0.0967125 0.0449547 
366 1.71031 1.3823 2.04879 0.405704 0 0 0 -1.48446 7.0645 -20.3607 
371 2.18583 0.971474 2.33558 0.551661 0 0 0 -0.951545 0.813079 -1.29552 
377 1.74601 1.18745 1.97099 0.407218 0 0 0 -1.22657 7.54474 -18.0411 
360 1.90747 0.404478 2.3254 0.616733 0 0 0 -0.290915 0.209326 -0.46782 
361 2.15681 1.26107 2.27566 0.509605 0 0 0 -1.32495 0.772335 -2.22141 
335 2.54276 0.22358 1.52697 0.631493 0 0 0 1.20219 -1.16841 0.995521 
384 1.99729 -0.0776366 2.77942 0.849447 0 0 0 0.0754745 -0.817683 0.46673 
376 2.66835 0.594172 2.77917 0.779062 0 0 0 0.370193 -0.267667 0.78731 
375 2.39585 0.989107 2.70504 0.665023 0 0 0 -0.364326 0.253871 0.190201 
362 2.50173 1.42621 2.86667 0.69643 0 0 0 -0.126943 -0.207818 0.712529 
126 1.54709 0.230959 2.44275 0.669909 0 0 0 0.190637 -0.0431684 -0.289625 
383 3.11738 1.16306 2.83543 0.835523 0 0 0 1.03593 -0.275974 0.893821 
365 2.9694 -0.092676 2.52754 0.942725 0 0 0 0.964682 -1.11939 0.625884 
374 2.49303 0.362287 2.5845 0.739405 0 0 0 0.163755 -0.518983 0.603569 
367 2.83512 -0.0952169 2.44692 0.894594 0 0 0 0.828584 -1.20576 0.631822 
382 2.46012 0.611973 2.90139 0.779647 0 0 0 0.00279732 -0.0960433 0.703904 
369 2.63777 0.580109 2.64824 0.739167 0 0 0 0.331729 -0.276027 0.688833 
373 2.14105 0.726533 2.45078 0.603869 0 0 0 -0.651281 0.594289 -0.680577 
406 2.09112 2.16897 0.430838 0.611265 0 0 0 -1.06553 -1.43412 0.4811 
386 2.0284 2.99123 0.371049 0.772705 0 0 0 -0.203152 0.499832 -0.46932 
387 2.72329 1.69898 0.60938 0.62061 0 0 0 0.125389 -0.139226 -0.670054 
408 1.85314 2.49566 0.317939 0.670082 0 0 0 -0.440776 -0.943471 0.185421 
389 2.18616 3.05826 0.428308 0.790716 0 0 0 -0.0941004 0.695839 -0.55721 
390 2.98317 1.77901 0.535156 0.707931 0 0 0 0.849931 -0.129248 -0.779552 
391 2.11535 1.83161 0.648483 0.532527 0 0 0 -2.13319 -1.78884 1.75419 
403 2.5459 2.18678 0.119717 0.751349 0 0 0 -0.0754432 -0.41144 -0.815072 
393 2.66093 2.28842 0.183065 0.764202 0 0 0 0.173619 -0.246719 -0.873334 
405 2.78811 3.02173 -0.121111 1.01931 0 0 0 0.448673 0.48333 -0.802742 
395 1.81381 2.31843 0.625908 0.567286 0 0 0 -0.975028 -2.06636 1.31381 
396 2.10804 2.72738 0.663082 0.647388 0 0 0 -0.44757 -0.023321 -0.398821 
397 2.16783 2.01056 -0.00250765 0.730131 0 0 0 -0.551796 -0.808918 -0.326917 
407 3.03609 2.65996 0.0661377 0.94152 0 0 0 0.752091 0.242122 -0.877933 
399 2.55634 2.07553 0.339481 0.678296 0 0 0 -0.217672 -0.510634 -0.662327 
400 3.03867 3.09633 0.0948063 1.03121 0 0 0 0.703318 0.615647 -0.72626 
404 2.54911 1.82912 0.135101 0.717734 0 0 0 -0.227234 -0.38332 -0.795848 
392 1.64898 1.70193 1.30228 0.313663 0 0 0 -4.39565 -24.5695 61.7816 
347 1.74968 2.58561 1.44171 0.482407 0 0 0 -0.442384 0.909029 -1.16964 
470 3.18034 2.73685 1.51285 0.777332 0 0 0 1.36502 0.545243 -0.283497 
412 2.83895 2.70487 0.904631 0.719795 0 0 0 0.791076 0.476959 -0.695043 
413 2.99687 2.31763 1.18363 0.663645 0 0 0 1.32584 -0.0830718 -0.625415 
414 2.35624 1.78558 1.13988 0.461764 0 0 0 -0.742091 -1.47679 0.0408371 
415 2.18729 1.95171 0.959637 0.482595 0 0 0 -2.14015 -2.2229 1.05736 
416 1.76813 2.56766 1.21183 0.503755 0 0 0 -0.959954 -0.46933 -0.755542 
454 1.96176 3.07035 1.40585 0.634754 0 0 0 -0.187827 1.4875 -0.88099 
427 1.90156 2.97812 1.41373 0.60058 0 0 0 -0.275437 1.39299 -1.01348 
419 3.09087 2.31628 1.28366 0.685429 0 0 0 1.47358 -0.0907641 -0.502456 
457 2.18048 2.18526 1.39274 0.445662 0 0 0 0.664303 -0.848534 -0.804425 
411 1.77753 1.4971 1.51758 0.279059 0 0 0 -3.5041 -3.8678 0.147389 
422 2.52327 1.82722 0.892715 0.53417 0 0 0 -0.488507 -0.711587 -0.445581 
423 2.22281 3.17064 1.41836 0.692847 0 0 0 0.21183 1.49872 -0.625276 
424 1.98908 2.69972 0.785545 0.609122 0 0 0 -0.644645 -0.213526 -0.311735 
425 2.52502 2.65947 0.978216 0.634303 0 0 0 0.284953 0.37982 -0.819758 
426 2.16555 2.22827 1.02762 0.500696 0 0 0 -1.39636 -1.51876 -0.245611 
446 2.15404 1.47217 1.43062 0.370645 0 0 0 -0.758026 -2.07805 2.30969 
441 3.15009 2.03261 1.39372 0.670918 0 0 0 1.68534 -0.393149 -0.321684 
429 2.28301 3.01718 0.830939 0.71077 0 0 0 -0.0175301 0.880805 -0.645502 
430 3.24666 2.98694 1.29672 0.866168 0 0 0 1.22318 0.801661 -0.328427 
449 2.29124 2.24049 1.41349 0.472487 0 0 0 0.979764 -0.238142 -1.01197 
388 1.59812 2.19683 1.01816 0.463186 0 0 0 -1.12525 -4.52481 4.55122 
433 2.03727 1.73801 1.21705 0.390799 0 0 0 -3.06218 -5.9944 9.07437 
434 1.60082 2.73668 1.06615 0.558629 0 0 0 -0.646768 -0.104375 -0.507382 
432 2.37388 1.88404 1.34991 0.447539 0 0 0 0.877488 -1.55951 -0.547224 
436 3.01036 2.09203 0.84311 0.681814 0 0 0 1.07793 -0.223378 -0.688419 
437 2.8462 1.57157 0.966139 0.587293 0 0 0 0.941045 0.0775635 -0.585514 
438 2.85549 2.16438 1.42914 0.589201 0 0 0 1.62874 -0.368348 -0.503903 
439 3.06985 3.26361 1.23339 0.897857 0 0 0 0.94955 1.11243 -0.325504 
440 2.10109 2.01539 0.93985 0.483859 0 0 0 -2.34464 -2.61684 1.56018 
458 2.14521 2.40779 1.42054 0.480222 0 0 0 0.451972 0.375947 -1.04741 
464 2.20089 2.07552 1.39204 0.431482 0 0 0 0.776204 -1.57491 -0.489519 
443 2.58771 1.94946 2.09056 0.535521 0 0 0 1.22741 -0.883219 1.06624 
444 2.84859 1.46504 1.86655 0.570206 0 0 0 1.47557 -0.495901 0.741109 
445 2.81527 2.21551 2.1293 0.614387 0 0 0 1.21889 -0.376534 0.618625 
310 1.78293 2.08928 1.76574 0.364647 0 0 0 2.92962 1.76753 -0.104242 
372 1.61022 2.19644 1.81033 0.377708 0 0 0 0.390873 3.52848 0.84277 
296 2.37676 1.99588 1.7502 0.45479 0 0 0 2.73142 -0.912791 0.691425 
471 1.98874 1.90613 1.68087 0.358625 0 0 0 3.68266 -2.27046 -0.855746 
450 2.67999 1.85887 1.96779 0.537546 0 0 0 1.57154 -0.979851 0.850356 
182 1.64286 1.88949 1.64868 0.302927 0 0 0 0.63169 1.1403 2.03368 
452 2.11881 2.90997 1.68517 0.592222 0 0 0 0.466506 1.44554 -0.398901 
453 1.56027 2.45095 2.19981 0.487034 0 0 0 0.354097 0.827413 2.32801 
469 2.08406 1.70843 2.0562 0.431066 0 0 0 0.0260543 -0.355242 -3.08904 
343 2.09717 1.70347 1.57754 0.360073 0 0 0 0.921725 -3.60599 0.0493252 
481 2.16303 2.25178 1.79843 0.451737 0 0 0 2.75691 0.771857 1.11109 
467 1.86345 2.6493 1.66668 0.495961 0 0 0 0.528504 1.84499 -0.479497 
378 1.78868 2.33535 1.81544 0.420986 0 0 0 1.83511 2.73101 1.37876 
459 3.15663 2.7618 2.17728 0.80369 0 0 0 1.3311 0.599013 0.259746 
277 1.76728 1.99982 1.70693 0.34065 0 0 0 3.00504 0.914839 -1.0848 
461 1.65114 2.97998 1.7122 0.580968 0 0 0 -0.214514 1.91985 -0.769169 
263 1.87895 1.99472 1.72044 0.355844 0 0 0 3.87595 -0.29475 -0.870021 
261 1.68405 1.99278 1.69119 0.329302 0 0 0 1.71197 1.8048 -0.603673 
176 1.90639 1.54434 1.53657 0.311141 0 0 0 -2.19433 -3.76093 0.588248 
465 1.96042 2.96194 1.89533 0.597782 0 0 0 0.44138 1.55928 0.0162072 
466 2.24247 3.2713 1.79524 0.726835 0 0 0 0.419265 1.6269 -0.194182 
319 2.24975 1.91453 1.63878 0.411732 0 0 0 2.91664 -1.83111 0.106684 
478 2.18734 3.04935 2.25827 0.683237 0 0 0 0.539361 1.21412 0.572467 
484 1.90492 2.64751 2.31714 0.562312 0 0 0 0.647537 0.489745 1.4539 
187 2.13031 2.09995 1.70539 0.413709 0 0 0 3.45088 -0.361794 0.63074 
509 3.29297 2.84291 2.26144 0.875195 0 0 0 1.37373 0.653916 0.329603 
488 2.31766 1.87768 1.72535 0.429171 0 0 0 2.78253 -1.52829 0.406075 
492 2.70859 2.30871 2.28735 0.620862 0 0 0 0.893949 -0.213785 0.823951 
494 2.94687 2.34984 2.28063 0.68446 0 0 0 1.18416 -0.127233 0.575912 
504 2.87671 1.9456 2.27657 0.631952 0 0 0 1.10362 -0.739891 0.756538 
199 1.89315 1.96045 1.70229 0.351187 0 0 0 3.89518 -0.926792 -1.12818 
120 1.67258 1.9638 1.67438 0.321488 0 0 0 1.45903 1.53497 -0.00725296 
442 2.28184 1.67739 1.7112 0.410209 0 0 0 1.68413 -1.59499 -0.505054 
498 2.04613 1.55965 1.97779 0.40944 0 0 0 -0.910607 1.08504 -7.14719 
487 1.91916 2.03369 2.33112 0.488956 0 0 0 0.0326213 -0.698211 0.224842 
209 2.03145 1.70589 1.5911 0.345966 0 0 0 0.86605 -3.84879 -0.484489 
36 2.10178 2.14084 1.72251 0.416345 0 0 0 3.40643 0.0972446 0.77413 
191 1.67811 1.96819 1.67706 0.323024 0 0 0 1.57645 1.52182 -0.14936 
417 2.33714 2.53508 1.7657 0.533534 0 0 0 1.30006 0.973388 0.259026 
451 2.99114 2.22371 1.53029 0.633451 0 0 0 1.65107 -0.275906 -0.312241 
259 1.58512 1.88708 1.64909 0.29793 0 0 0 -0.810889 2.34917 2.43817 
463 1.58447 1.95969 1.66739 0.313834 0 0 0 -0.644355 2.58973 1.31864 
307 1.54446 1.74375 1.60346 0.263563 0 0 0 -2.47069 3.24206 0.805338 
220 1.54373 1.74205 1.60278 0.263122 0 0 0 -2.49506 3.24222 0.761798 
496 2.03147 2.50601 2.78625 0.657585 0 0 0 0.0310523 -0.181221 1.52988 
472 2.0747 1.79642 2.63684 0.574765 0 0 0 -0.7792 -0.595601 -0.0764008 
473 1.75625 1.5959 2.58876 0.549215 0 0 0 -1.17767 0.121219 -2.34791 
474 2.95854 3.17647 2.68346 0.934254 0 0 0 0.901264 1.04183 0.755752 
497 1.61663 1.94128 2.57965 0.539007 0 0 0 -0.635544 -1.02514 -0.520685 
502 2.22662 2.57159 2.71503 0.667084 0 0 0 0.220396 0.0468166 1.38663 
477 3.17713 2.0138 2.59479 0.781978 0 0 0 1.29713 -0.453759 0.85714 
513 2.63016 3.0298 3.05944 0.919996 0 0 0 0.557671 0.805125 1.27699 
479 1.80985 1.75127 2.41699 0.49856 0 0 0 -1.1568 -0.356583 -2.6323 
501 1.6536 2.4538 3.00118 0.69825 0 0 0 -0.144833 -0.37635 1.73336 
503 2.03372 3.1535 2.47845 0.734325 0 0 0 0.328419 1.26102 0.849379 
482 1.57532 3.16057 3.12964 0.875848 0 0 0 0.045444 0.862646 1.49567 
511 3.00814 2.13234 2.41307 0.702011 0 0 0 1.18574 -0.463513 0.754345 
510 2.10249 2.54653 2.61072 0.623521 0 0 0 0.225985 -0.046295 1.38351 
508 2.62305 1.96044 3.05692 0.772121 0 0 0 0.28279 -0.40911 1.38038 
505 3.15567 2.91939 3.22206 1.06052 0 0 0 0.887149 0.587056 1.13087 
499 1.80691 1.78436 2.91322 0.645106 0 0 0 -0.705499 -0.51555 0.136762 
495 2.94831 1.72933 2.7966 0.758141 0 0 0 0.827144 -0.506843 1.07249 
489 3.12957 1.50361 3.00017 0.868009 0 0 0 0.959285 -0.334808 1.04648 
490 2.37284 2.40854 2.58346 0.629826 0 0 0 0.304734 -0.181171 1.22528 
491 2.27434 1.49882 2.74564 0.62995 0 0 0 -0.618174 -0.160364 0.104054 
506 1.97648 2.06882 3.04671 0.700278 0 0 0 -0.385125 -0.559227 1.21408 
493 3.07267 3.01074 2.79147 0.943093 0 0 0 1.00008 0.817251 0.886013 
480 2.35966 2.25058 2.39424 0.569219 0 0 0 0.406839 -0.387122 1.22443 
ITEM: TIMESTEP
800989
ITEM: NUMBER OF ATOMS
512
ITEM: BOX BOUNDS ss ss ss
-2.2775349561678951e-01 3.2932607586404616e+00
-4.0122540508749138e-01 3.2891132425832117e+00
-1.7039273299291779e-01 3.2223573019164853e+00
ITEM: ATOMS id x y z width_SPH x_COM y_COM z_COM vx vy vz 
23 0.539287 1.16104 0.372781 0.613015 0 0 0 0.633793 -0.0976389 -0.569972 
3 -0.14033 -0.124434 0.0939734 1.0357 0 0 0 -1.01065 -0.934125 -0.881342 
4 1.1215 0.71024 0.265509 0.622553 0 0 0 0.00936987 0.209784 -1.02933 
5 0.225459 1.27088 -0.0394018 0.78251 0 0 0 -0.197428 -0.301961 -0.966494 
6 0.011526 1.14394 0.376959 0.727352 0 0 0 -0.762228 -0.268012 -0.705382 
22 0.128621 1.05029 0.0595996 0.785117 0 0 0 -0.507385 -0.424302 -0.970657 
8 0.686461 0.733454 -0.0391965 0.747514 0 0 0 0.0953346 -0.43314 -1.18303 
9 1.3567 -0.241854 0.263491 0.804205 0 0 0 -0.298887 -1.18641 -1.40895 
10 -0.0863165 -0.263406 0.0260444 1.07371 0 0 0 -0.931967 -0.985726 -0.901902 
11 0.920706 1.15036 -0.0285256 0.696437 0 0 0 0.752232 -0.165336 -0.435084 
12 0.461886 1.343 0.164184 0.674424 0 0 0 0.502726 -0.204161 -0.606937 
13 0.278628 -0.299309 0.200452 0.957906 0 0 0 -0.806296 -1.14363 -1.01851 
14 0.972039 1.22081 0.39007 0.568523 0 0 0 1.27038 0.142493 0.812768 
15 1.08249 0.66997 0.304807 0.617964 0 0 0 -0.0678919 0.142893 -1.1607 
16 0.612756 -0.235828 0.24474 0.869625 0 0 0 -0.63065 -1.16658 -1.20388 
17 0.87827 0.253888 0.00522819 0.783181 0 0 0 -0.298603 -0.660955 -1.49783 
18 0.562191 0.565603 0.356092 0.673122 0 0 0 -0.327149 -0.544891 -1.23563 
274 1.4895 1.31441 0.568091 0.508707 0 0 0 -0.206624 -0.28192 4.84917 
20 0.67939 0.940679 0.29778 0.628464 0 0 0 0.463993 -0.143615 -0.766444 
62 1.19143 1.02676 0.635986 0.499497 0 0 0 0.00574471 0.577732 1.37857 
50 0.549987 -0.381031 0.627223 0.850633 0 0 0 -0.738646 -1.36614 -0.856479 
31 -0.0666988 1.19079 0.657985 0.694831 0 0 0 -0.99991 -0.0999432 -0.584637 
44 0.384567 0.857336 0.611345 0.61198 0 0 0 -0.317968 -0.373739 -1.12025 
24 1.01877 -0.213785 1.39568 0.679355 0 0 0 -0.123965 -1.69285 0.603284 
353 1.43469 1.07795 1.35086 0.306619 0 0 0 -0.477975 -3.56914 0.63551 
26 -0.135938 1.02548 1.49494 0.658914 0 0 0 -1.52794 0.0880331 0.0612293 
27 0.398738 1.14913 0.832389 0.546231 0 0 0 -0.0929901 0.0262 -1.24833 
28 0.947155 0.224998 1.38726 0.550774 0 0 0 -0.881469 -1.47364 0.74257 
91 0.800642 1.12867 1.21354 0.410233 0 0 0 -0.998677 -0.848684 -0.341461 
303 1.47401 1.06096 1.34497 0.30898 0 0 0 0.971358 -3.79504 0.770421 
65 0.669833 0.471781 1.33838 0.53013 0 0 0 -1.15559 -1.29714 0.0919738 
32 0.390326 -0.347399 1.28432 0.80911 0 0 0 -0.778087 -1.47594 -0.132797 
33 0.747582 -0.211899 1.15272 0.709654 0 0 0 -0.599468 -1.55105 -0.195144 
173 0.936215 0.960755 1.29479 0.396884 0 0 0 -3.46706 -1.14495 -0.810961 
35 1.49751 0.0185836 0.818712 0.616276 0 0 0 -0.421797 -1.4179 -1.15814 
21 1.50709 1.44185 1.49138 0.220514 0 0 0 0.245063 1.59401 0.619176 
154 1.32469 1.31545 1.43483 0.268891 0 0 0 1.6505 2.35682 -4.96186 
38 0.219851 1.02869 0.80081 0.601115 0 0 0 -0.640093 -0.169654 -1.01704 
39 -0.227459 0.894409 1.43968 0.703333 0 0 0 -1.58738 -0.0296993 -0.0849062 
2 1.14967 0.675239 1.21354 0.426027 0 0 0 -4.14277 -2.31404 -1.3803 
351 0.859145 1.19145 1.32514 0.381097 0 0 0 -0.727975 -0.464322 0.443711 
42 0.79997 1.37177 1.32996 0.382826 0 0 0 0.818885 -0.146416 1.05489 
195 1.40657 0.799868 1.18838 0.38145 0 0 0 -2.14168 -3.62157 -0.893344 
318 1.49221 1.0687 1.34922 0.30665 0 0 0 1.80136 -3.84504 0.632513 
45 0.998553 0.224028 1.32982 0.545672 0 0 0 -1.04167 -1.56828 0.53715 
46 0.610446 0.267936 0.790683 0.635117 0 0 0 -0.974933 -0.894085 -1.36006 
47 1.21211 0.915315 0.835749 0.454217 0 0 0 -1.73101 -0.485161 0.987998 
48 0.526619 0.78882 1.37475 0.498783 0 0 0 -1.0529 -1.06536 0.0363374 
250 1.49187 1.08593 1.35641 0.302457 0 0 0 1.96542 -3.83522 0.344879 
79 1.49623 1.36941 1.46082 0.233518 0 0 0 3.64283 0.757738 0.550955 
51 0.476675 1.30496 0.949271 0.506038 0 0 0 0.16909 0.221637 -1.33575 
52 1.29203 0.226353 1.31754 0.525364 0 0 0 -0.907402 -1.91141 0.784925 
53 -0.0398854 0.626632 1.25892 0.678804 0 0 0 -1.45045 -0.441282 -0.414632 
54 1.02301 -0.400932 1.42876 0.74746 0 0 0 0.0050702 -1.74379 0.513764 
385 1.48525 1.28967 1.43147 0.252413 0 0 0 3.42456 -2.10677 0.491041 
56 1.27651 0.103592 1.02253 0.574015 0 0 0 -0.869662 -1.66904 -0.734826 
178 0.995029 1.43603 1.45857 0.329984 0 0 0 2.91021 1.35579 0.624048 
115 1.50526 1.15041 1.3764 0.287019 0 0 0 3.09611 -4.38477 0.777965 
59 0.618216 0.602601 1.24067 0.51739 0 0 0 -1.31678 -1.26834 -0.596044 
124 1.46275 1.03846 1.33351 0.314952 0 0 0 0.307932 -3.7937 1.08074 
306 1.50773 -0.285865 0.765565 0.723846 0 0 0 -0.127715 -1.6043 -0.682427 
64 0.863756 -0.339056 1.3046 0.736469 0 0 0 -0.275652 -1.69422 0.221032 
119 1.46935 1.29803 1.43364 0.251084 0 0 0 3.24231 -1.67017 0.900639 
313 1.06027 1.33634 1.41902 0.322543 0 0 0 1.09855 0.946906 2.21122 
149 1.36226 1.21564 1.35164 0.287129 0 0 0 -1.32958 -1.55838 -0.798526 
179 1.27091 0.655443 1.19794 0.420361 0 0 0 -3.49657 -2.75724 -1.5771 
106 1.48398 1.28128 1.42805 0.254531 0 0 0 3.33287 -2.4175 0.653542 
322 1.48977 1.08076 1.35422 0.303751 0 0 0 1.8244 -3.82957 0.432545 
19 1.48533 0.423847 1.00494 0.484895 0 0 0 -0.852829 -1.86255 -1.91698 
512 1.49419 1.3562 1.4562 0.236441 0 0 0 3.67186 0.31176 0.467896 
301 0.930611 1.30713 1.40803 0.352103 0 0 0 0.844377 0.69574 0.473233 
214 1.39941 0.983953 1.30052 0.332295 0 0 0 -2.34873 -3.66494 1.3268 
77 0.453287 1.43621 1.29507 0.467504 0 0 0 -0.729961 0.322724 -0.756571 
358 0.802632 1.13455 1.1541 0.418095 0 0 0 -0.811582 -0.815787 -0.341105 
81 0.658631 0.594057 1.15419 0.517896 0 0 0 -1.43272 -1.24584 -1.06384 
71 0.654125 1.22741 1.34848 0.421632 0 0 0 -0.472681 -0.274656 -0.366874 
329 0.872551 1.19711 1.34631 0.376298 0 0 0 -0.663985 -0.284609 0.350701 
57 1.51229 0.644702 1.1874 0.412432 0 0 0 -0.122603 -3.05675 -1.62633 
122 1.21656 0.673189 1.2029 0.420715 0 0 0 -3.98089 -2.58495 -1.52526 
74 0.974797 0.845289 1.26176 0.411889 0 0 0 -4.06638 -1.59231 -1.05767 
228 1.19611 1.41564 1.46552 0.285849 0 0 0 3.66138 1.69376 2.54407 
198 0.988606 1.43717 1.45868 0.331365 0 0 0 2.87827 1.25702 0.7542 
165 1.32819 0.92663 1.25837 0.353439 0 0 0 -4.30454 -3.50948 0.956182 
101 1.00028 1.23476 1.37484 0.345701 0 0 0 -1.008 0.365052 1.16491 
82 0.91421 0.731781 1.19891 0.446424 0 0 0 -3.04109 -1.6702 -1.19378 
229 1.43794 1.01783 1.32157 0.321265 0 0 0 -0.817565 -3.73958 1.25697 
66 0.0779128 -0.209393 2.31732 0.901788 0 0 0 -0.687956 -1.05208 0.580833 
67 0.896592 0.389783 1.98979 0.568993 0 0 0 0.53519 -0.0874378 0.6378 
68 1.03629 0.897865 1.78784 0.43144 0 0 0 0.892998 2.98622 -4.25766 
95 0.398484 -0.0109031 2.10984 0.741995 0 0 0 -0.249926 -0.999985 0.679926 
70 0.431861 1.36488 2.12842 0.534681 0 0 0 0.501922 -0.113955 0.726906 
88 0.0603612 0.335404 2.25425 0.754695 0 0 0 -0.785908 -0.437359 0.780299 
55 0.179152 0.110081 1.56622 0.715517 0 0 0 -0.990359 -1.03047 0.129743 
63 0.0686968 1.42392 1.57716 0.574449 0 0 0 -1.32735 0.12235 0.333575 
87 -0.124826 0.602196 1.97093 0.726216 0 0 0 -1.23339 -0.227803 0.586439 
75 0.13423 1.38274 2.08426 0.597903 0 0 0 -0.600605 -0.111101 0.927877 
86 1.52819 0.494282 1.73489 0.483928 0 0 0 0.0889773 0.601281 0.00423885 
90 0.772497 1.18916 2.00601 0.467509 0 0 0 2.16492 1.08646 -1.69334 
78 0.397216 -0.0026307 2.21456 0.755242 0 0 0 -0.21649 -0.931591 0.70569 
113 0.978006 1.36 2.06098 0.439917 0 0 0 2.96971 2.54536 -6.73509 
93 0.811341 0.804862 2.0233 0.511044 0 0 0 1.24664 0.892038 -0.290646 
92 0.388019 0.389794 1.87057 0.619935 0 0 0 -0.311898 -0.630194 0.888691 
108 1.1812 0.815747 2.12937 0.500496 0 0 0 1.03679 2.73475 -3.26157 
83 0.717765 1.15514 1.91968 0.462905 0 0 0 1.76402 0.737039 -0.786882 
84 0.247413 0.0622355 2.16075 0.758666 0 0 0 -0.490194 -0.857548 0.680796 
96 1.42755 0.839309 1.89148 0.43782 0 0 0 0.311069 5.24141 -7.87412 
127 1.45838 0.642887 2.04465 0.504504 0 0 0 0.179377 2.32783 -2.51027 
34 -0.00995161 0.530521 1.66397 0.680598 0 0 0 -1.2569 -0.446996 0.292414 
60 0.616721 0.958431 1.89369 0.49654 0 0 0 0.906033 0.186402 0.694771 
25 1.06931 0.282778 1.61881 0.537638 0 0 0 -0.332287 -0.974019 1.42411 
76 0.5695 0.905026 1.57236 0.476953 0 0 0 -0.410872 -0.726924 0.959403 
94 0.548013 0.81221 1.57409 0.494661 0 0 0 -0.474156 -0.799145 1.01573 
37 0.451646 1.06436 1.55401 0.483798 0 0 0 -0.715223 -0.372703 0.801538 
49 -0.225096 0.992379 1.53528 0.693613 0 0 0 -1.56996 0.071996 0.0721426 
125 1.09268 1.35857 2.31576 0.494745 0 0 0 1.87401 1.87928 -4.76203 
370 1.52837 0.87619 2.34621 0.535457 0 0 0 -0.114028 2.66184 -3.73615 
121 1.2299 0.0557172 2.56175 0.739897 0 0 0 0.42064 -0.463447 0.188908 
97 0.741256 0.963636 2.6719 0.641808 0 0 0 0.791095 0.769511 -0.0276919 
98 0.311901 1.033 2.82434 0.738884 0 0 0 -0.061868 0.189117 0.942188 
99 0.716606 0.0242832 2.58279 0.779046 0 0 0 0.238152 -0.650592 0.651578 
100 0.647803 0.403616 2.84607 0.773452 0 0 0 0.218153 0.0515976 0.748532 
128 0.383363 1.44118 2.49724 0.615766 0 0 0 0.291502 -0.114642 0.746892 
131 0.549718 1.23793 2.93584 0.721723 0 0 0 0.375444 0.238876 0.767537 
103 1.03332 0.516067 2.74005 0.695683 0 0 0 0.557497 0.579617 -0.00875882 
130 1.37067 0.465211 2.56845 0.651141 0 0 0 0.363716 0.736499 -0.682351 
114 1.06694 0.880378 2.58086 0.60421 0 0 0 0.894387 1.4752 -1.26377 
129 0.508149 0.0503796 3.07878 0.938568 0 0 0 -0.0943852 -0.452574 0.926426 
116 -0.0918052 0.828692 2.48471 0.768908 0 0 0 -0.926302 -0.00656046 0.912675 
117 -0.112809 0.373906 2.52757 0.849199 0 0 0 -0.96399 -0.312894 0.858352 
109 0.427185 0.944434 3.03849 0.793869 0 0 0 0.0460011 0.256786 0.963228 
110 0.486302 -0.255058 2.78202 0.938173 0 0 0 -0.121541 -0.936645 0.764149 
123 1.28799 1.23656 2.37884 0.511353 0 0 0 0.834556 2.6415 -5.32634 
112 1.16532 0.424952 2.80165 0.724467 0 0 0 0.467852 0.431159 0.0413071 
162 0.457141 2.5951 0.566883 0.691737 0 0 0 -0.198991 0.795893 -0.433712 
132 0.66222 2.53027 0.21789 0.732799 0 0 0 0.175158 0.271956 -0.335467 
133 0.0922399 1.78605 0.558715 0.665837 0 0 0 -0.455926 0.139883 -0.504162 
134 0.162152 2.01557 0.242429 0.736259 0 0 0 -0.340443 0.197184 -0.589831 
135 1.32373 2.40948 0.446201 0.616066 0 0 0 0.357544 -1.41327 1.05043 
136 1.10481 2.57107 0.555835 0.622616 0 0 0 0.397428 -0.469648 0.464789 
137 0.049036 2.5059 0.614626 0.758155 0 0 0 -0.886014 0.864022 -0.494792 
138 0.513596 2.21214 0.0647106 0.745662 0 0 0 0.264205 0.00929221 -0.511828 
139 0.291598 2.24805 0.292715 0.722672 0 0 0 -0.186696 0.334748 -0.526098 
140 0.883335 2.73443 0.162877 0.770976 0 0 0 0.12949 0.361221 -0.290012 
141 -0.0439164 2.3866 0.16064 0.863761 0 0 0 -0.835644 0.588517 -0.612653 
142 1.45321 2.54109 0.57578 0.605432 0 0 0 -0.01528 -1.15817 0.848441 
143 1.27571 2.91643 0.597735 0.687649 0 0 0 -0.0928415 0.533068 -0.00198645 
160 0.794611 3.07601 0.428214 0.804013 0 0 0 -0.207698 1.16478 -0.290266 
145 0.495422 2.00223 0.0139391 0.740951 0 0 0 0.384888 -0.140971 -0.551344 
146 1.33715 2.00136 0.341054 0.601081 0 0 0 0.654426 -2.10929 2.10561 
147 0.766198 1.82077 0.226307 0.636295 0 0 0 1.1953 -0.679998 0.31763 
148 1.26681 3.02295 0.25203 0.799051 0 0 0 -0.0618214 0.640652 -0.233345 
156 0.0923347 1.95726 0.419736 0.705679 0 0 0 -0.503537 0.220013 -0.514313 
150 1.0832 1.84153 0.514015 0.549522 0 0 0 1.65376 -2.03896 2.64037 
155 0.802651 1.62672 0.139302 0.650624 0 0 0 1.20365 -0.523873 0.232154 
161 1.37471 2.00684 0.411132 0.582786 0 0 0 0.554471 -2.40395 2.53752 
159 0.0392289 1.48545 -0.0352898 0.821637 0 0 0 -0.532886 -0.159708 -0.891072 
170 1.13968 2.09623 1.09396 0.440548 0 0 0 1.46601 -3.77868 4.57903 
163 0.512819 2.85755 0.715426 0.721364 0 0 0 -0.362563 1.2601 -0.434152 
202 0.614153 2.0095 1.00203 0.503112 0 0 0 1.09997 -0.139515 -1.05797 
167 0.867405 1.79174 1.05682 0.436401 0 0 0 2.56074 -1.83465 2.56798 
225 1.49735 1.51636 1.51443 0.217518 0 0 0 -0.855206 -0.815901 -0.887359 
169 0.925714 1.73867 1.43071 0.356734 0 0 0 1.84653 -1.94812 4.92861 
201 -0.0238977 2.74169 0.921927 0.78736 0 0 0 -1.10163 1.15805 -0.493662 
171 0.344798 1.88397 1.31499 0.510871 0 0 0 -0.752161 0.282535 -1.14348 
183 1.05569 1.45292 1.4625 0.31599 0 0 0 3.41753 1.6068 1.20752 
30 0.79209 1.64482 1.51741 0.376352 0 0 0 1.02617 0.081341 0.161983 
174 0.206879 1.77876 1.03603 0.567114 0 0 0 -0.476537 0.230794 -1.02289 
210 1.50148 1.47893 1.50125 0.217348 0 0 0 0.564791 0.988106 0.143133 
157 1.18863 2.27083 1.02742 0.47847 0 0 0 0.927574 -2.54604 1.97879 
152 1.07997 2.08941 0.712466 0.523343 0 0 0 1.53883 -2.43135 2.37602 
314 1.50113 1.48138 1.50212 0.217249 0 0 0 0.470003 0.864163 0.0391911 
197 0.0748412 2.23525 1.0802 0.643443 0 0 0 -1.0024 0.595571 -0.809913 
180 0.421874 2.02562 1.49853 0.493813 0 0 0 -1.13653 0.339433 -0.727768 
181 0.627686 2.08579 1.41777 0.456517 0 0 0 -0.466874 0.710766 -1.41785 
428 1.18669 2.56475 1.42784 0.483302 0 0 0 -0.598149 1.18333 -1.62201 
410 1.4991 1.48774 1.50438 0.217077 0 0 0 0.802085 0.611317 -0.0318821 
184 0.816888 2.82807 1.23688 0.603671 0 0 0 -0.226958 1.57111 -1.1191 
460 1.49413 1.50152 1.50836 0.217102 0 0 0 -0.273523 -0.0780368 -0.507774 
186 0.975643 2.81774 1.04021 0.606021 0 0 0 -0.0236939 1.00239 -0.639729 
196 0.570965 1.70122 1.47318 0.43214 0 0 0 -0.553803 0.191662 -0.178912 
188 0.309625 2.5385 1.32084 0.613259 0 0 0 -0.883897 1.28406 -1.11733 
200 0.952342 2.70818 1.14964 0.565977 0 0 0 0.0652653 0.959663 -1.03811 
190 0.811568 1.85976 1.03819 0.453606 0 0 0 2.21272 -1.24136 0.979044 
166 0.578324 1.64115 0.820062 0.51415 0 0 0 1.37958 -0.126799 -0.491396 
192 0.613365 2.06273 1.28736 0.468808 0 0 0 0.152184 0.522677 -1.66711 
193 1.11512 2.50091 1.38662 0.476142 0 0 0 -0.41812 0.868686 -1.5248 
203 1.49709 1.53529 1.52114 0.218901 0 0 0 -1.53191 -1.18254 -1.05493 
208 1.50103 1.48233 1.50246 0.217216 0 0 0 0.443769 0.81196 0.0058308 
41 1.49969 1.49087 1.50544 0.217016 0 0 0 0.111176 0.318887 -0.333525 
342 1.4981 1.50466 1.51029 0.217086 0 0 0 -0.413029 -0.390983 -0.698861 
164 1.49914 1.49496 1.50687 0.216986 0 0 0 -0.0435207 0.0858159 -0.463464 
40 1.49907 1.4955 1.50707 0.216986 0 0 0 -0.0642392 0.0559564 -0.479242 
219 1.49839 1.50152 1.50918 0.217028 0 0 0 -0.293351 -0.249386 -0.632252 
73 1.49776 1.50902 1.51184 0.217208 0 0 0 -0.578991 -0.568146 -0.779118 
43 0.805603 1.44796 1.37081 0.376498 0 0 0 1.30544 -0.0246755 1.27887 
418 1.50719 1.47294 1.49917 0.217691 0 0 0 -0.374869 0.848642 0.0264048 
158 1.23226 1.80438 1.11317 0.389183 0 0 0 1.38701 -9.6901 21.2915 
394 1.50446 1.487 1.49865 0.217128 0 0 0 -0.307489 0.642886 -1.0379 
107 1.49844 1.45725 1.49537 0.21885 0 0 0 1.73308 1.2828 2.58547 
215 0.54087 2.16283 1.63005 0.479714 0 0 0 -1.42851 0.604016 -0.340495 
447 1.39749 2.80308 2.23838 0.567395 0 0 0 -0.1099 1.23068 1.24133 
205 0.0357095 1.958 2.06486 0.630639 0 0 0 -1.35404 -0.385496 0.701813 
206 1.02526 2.47209 2.29806 0.526081 0 0 0 -0.784558 0.0757765 2.24092 
207 0.438846 2.84842 1.72195 0.648682 0 0 0 -0.970144 1.70349 -0.719309 
257 1.1462 1.73854 1.5693 0.308092 0 0 0 0.150797 1.36706 0.792071 
194 0.555393 1.94539 1.63956 0.452293 0 0 0 -1.32463 0.0738461 0.248917 
235 1.21548 2.18612 2.35238 0.493661 0 0 0 -0.515653 -1.03703 1.78977 
211 0.95635 2.92221 2.05614 0.605035 0 0 0 -0.719758 1.80985 0.0663163 
212 0.45313 2.60916 1.67387 0.582915 0 0 0 -1.16159 1.49546 -0.741563 
213 0.821559 1.77282 1.80143 0.397827 0 0 0 -0.215292 0.0122719 -1.25213 
242 0.40046 2.35909 2.29194 0.595599 0 0 0 -1.03597 -0.27233 1.19628 
231 0.848342 2.32006 2.12816 0.491557 0 0 0 -1.46642 0.000740977 2.18591 
216 1.16683 2.94849 2.0896 0.599369 0 0 0 -0.547728 1.81478 0.245499 
217 0.343202 2.85139 1.83538 0.671173 0 0 0 -1.07812 1.48818 -0.520581 
218 0.188133 2.60236 1.94756 0.653438 0 0 0 -1.42614 0.765575 -0.0979075 
468 0.852819 2.30967 1.8553 0.453564 0 0 0 -2.19984 1.12487 0.887558 
204 0.982441 2.13675 1.79705 0.40018 0 0 0 -3.11384 1.07127 0.489709 
221 0.781362 2.16855 1.99554 0.461678 0 0 0 -1.81777 -0.142102 1.89154 
222 0.874646 2.13024 1.82114 0.418688 0 0 0 -2.52244 0.60813 0.876295 
223 0.648261 1.75377 1.73341 0.42543 0 0 0 -0.647383 -0.244273 0.582243 
246 1.14636 1.78049 1.58 0.313136 0 0 0 -0.965442 1.32001 0.384463 
104 0.233991 1.55829 2.31381 0.605701 0 0 0 -0.27398 -0.332356 0.943802 
226 1.33009 3.06354 2.06162 0.62623 0 0 0 -0.383221 1.88233 0.0383507 
227 0.147302 1.58649 2.08044 0.590157 0 0 0 -0.739026 -0.333815 0.957679 
234 1.08919 1.77502 1.65725 0.327877 0 0 0 -0.111151 5.13772 -13.7866 
238 1.01266 1.72345 1.58264 0.333679 0 0 0 1.23733 1.37747 -3.74612 
321 1.32125 2.33262 1.84131 0.409754 0 0 0 -2.19692 3.09489 1.05816 
475 0.852225 2.20785 1.83084 0.434529 0 0 0 -2.39328 0.831224 0.936021 
476 1.236 2.27058 2.30391 0.488504 0 0 0 -0.669992 -0.591803 2.29726 
189 0.782455 2.23929 1.56136 0.444169 0 0 0 -1.22523 1.24336 -1.12483 
239 1.3495 1.89791 1.62616 0.304188 0 0 0 -5.24286 3.48689 3.25182 
328 1.239 2.61189 1.80516 0.48029 0 0 0 -1.13657 2.5566 -0.289751 
185 0.0296374 2.45809 1.54539 0.667553 0 0 0 -1.48898 0.75941 -0.529491 
337 1.08116 2.12647 1.79494 0.384859 0 0 0 -3.71928 1.54288 0.134466 
462 1.494 3.28882 1.96819 0.696856 0 0 0 -0.327501 1.96139 -0.252655 
168 1.33186 1.85861 1.63155 0.298786 0 0 0 -4.91602 3.88156 2.86666 
247 1.21227 2.26017 1.82707 0.399114 0 0 0 -3.19388 2.601 0.841842 
177 1.34232 2.09073 1.75652 0.350181 0 0 0 -4.10395 3.77395 -1.22937 
485 1.5067 2.80876 2.33205 0.583721 0 0 0 0.0957609 0.928993 1.38007 
264 1.3721 2.24531 1.827 0.387489 0 0 0 -2.45601 3.42765 0.951567 
69 1.4045 2.22362 1.82304 0.381681 0 0 0 -2.2885 3.58825 0.832374 
483 1.42127 2.31225 1.83497 0.402123 0 0 0 -1.57725 3.46076 1.19418 
350 1.439 2.29199 1.83175 0.39713 0 0 0 -1.51867 3.54179 1.1989 
249 0.810743 1.71806 2.34598 0.511764 0 0 0 1.12859 -0.642076 -0.195739 
420 1.11136 1.94425 1.68019 0.344427 0 0 0 -3.58141 1.60309 -2.54921 
240 1.42889 1.99382 1.67738 0.320758 0 0 0 -4.04915 3.95807 0.324194 
300 1.51916 1.67207 1.57346 0.245251 0 0 0 -3.20772 2.24275 -0.655617 
398 1.51863 1.67007 1.57263 0.244757 0 0 0 -3.21613 2.19219 -0.697588 
29 0.0998255 1.58839 1.57877 0.564953 0 0 0 -1.34134 0.0104309 0.251683 
224 1.1137 1.66991 1.54005 0.307838 0 0 0 2.25655 1.35913 0.490046 
111 0.951811 1.52523 1.75499 0.365729 0 0 0 2.94889 3.99143 -11.4184 
105 1.42238 1.7449 1.56872 0.264088 0 0 0 -3.21349 2.29606 8.89463 
172 1.02342 1.85688 1.56823 0.344256 0 0 0 -0.615017 -1.55337 3.58401 
153 1.36635 1.72337 1.67662 0.280179 0 0 0 -1.66305 12.4752 -21.7967 
341 1.49772 1.55245 1.52725 0.220824 0 0 0 -2.06984 -1.20765 -1.11695 
144 1.49737 1.55543 1.52765 0.221189 0 0 0 -2.02522 -1.23543 -0.918051 
332 1.49424 1.56547 1.53147 0.222688 0 0 0 -0.540897 -0.87677 -0.943323 
486 1.5315 1.94567 2.1528 0.42041 0 0 0 -0.552412 0.806781 -5.18643 
336 1.53233 1.71296 1.59081 0.255617 0 0 0 -2.86285 3.06901 0.0546034 
80 1.49759 1.55013 1.52642 0.220531 0 0 0 -2.00257 -1.21961 -1.11201 
232 0.492161 2.02195 2.69548 0.642611 0 0 0 -0.074547 -0.804795 1.41705 
233 0.819153 1.89517 2.82464 0.638636 0 0 0 0.440508 -0.774783 1.02625 
255 -0.0545574 2.84034 2.49112 0.830806 0 0 0 -1.33128 0.662499 0.39559 
266 0.366653 1.98499 2.58794 0.636922 0 0 0 -0.320956 -0.7494 1.30894 
236 1.10598 2.61864 2.76414 0.651239 0 0 0 -0.0563016 -0.167821 1.86494 
237 0.37343 2.44496 2.4469 0.637518 0 0 0 -0.87945 -0.195092 1.14201 
262 0.719179 1.67966 2.53177 0.568063 0 0 0 0.926265 -0.484213 0.33914 
254 0.214176 2.73861 3.11696 0.891496 0 0 0 -0.712473 0.2734 1.45049 
118 0.0283931 1.48111 2.6882 0.743108 0 0 0 -0.653595 -0.166582 1.01433 
241 0.939423 2.12978 3.11426 0.728298 0 0 0 0.137867 -0.661523 1.54258 
265 0.0329555 3.01139 2.61218 0.868523 0 0 0 -1.12544 0.909765 0.525473 
243 0.559649 3.01397 2.64267 0.760243 0 0 0 -0.508837 1.0028 0.858364 
244 -0.0538458 3.17009 2.96979 1.01469 0 0 0 -0.989223 0.906805 0.853309 
245 1.25688 2.18075 2.86042 0.631953 0 0 0 -0.0453744 -0.97666 1.37666 
256 0.0639219 2.93296 2.98771 0.928311 0 0 0 -0.938695 0.617747 1.1011 
260 -0.0684619 2.86215 2.72929 0.88498 0 0 0 -1.22646 0.592825 0.73687 
248 0.535507 2.66342 2.98132 0.774499 0 0 0 -0.342579 0.0705753 1.64873 
507 1.514 2.78544 2.91086 0.717641 0 0 0 0.00162209 0.241189 1.77997 
258 0.563515 2.96535 3.08817 0.865752 0 0 0 -0.344521 0.62305 1.47812 
251 0.511304 2.47669 2.63315 0.654784 0 0 0 -0.499783 -0.285975 1.47388 
252 -0.111924 2.39186 2.39214 0.756581 0 0 0 -1.48802 -0.0397602 0.500059 
253 1.04036 3.18639 2.78129 0.794805 0 0 0 -0.146937 1.14523 1.12595 
267 1.82892 0.385598 0.477778 0.596853 0 0 0 -0.154251 -0.0364272 -2.08401 
268 2.77884 0.405526 0.286063 0.786132 0 0 0 1.25567 -0.459829 -1.24518 
269 2.2067 0.0402862 -0.170098 0.890932 0 0 0 0.37426 -0.769621 -1.63991 
270 2.56706 0.059458 -0.0701736 0.911771 0 0 0 0.82707 -0.801598 -1.41335 
291 2.17938 0.517071 -0.015148 0.745447 0 0 0 0.104537 -0.0265166 -1.80514 
272 2.88249 0.826455 0.434375 0.7207 0 0 0 1.24073 0.0309576 -1.12 
273 1.72709 1.05679 0.271324 0.594022 0 0 0 -0.639128 0.752351 0.272446 
295 2.1713 1.36023 0.380863 0.583848 0 0 0 -1.32073 0.22563 0.267966 
275 2.66357 -0.0269331 -0.00181838 0.933268 0 0 0 0.952079 -0.903055 -1.25184 
276 1.80978 0.0752478 0.0483184 0.778949 0 0 0 -0.0838287 -0.687912 -1.77596 
294 1.7398 1.32132 0.468056 0.539315 0 0 0 -1.13503 0.0486778 2.8824 
278 1.84913 0.118938 -0.0193133 0.792009 0 0 0 -0.0537311 -0.61386 -1.79868 
279 2.175 0.767304 0.422032 0.586648 0 0 0 -0.127583 0.711313 -1.57241 
290 2.36631 1.24236 0.15696 0.668462 0 0 0 -0.466676 0.307254 -0.928687 
281 2.44926 1.10437 0.372456 0.618622 0 0 0 -0.226723 0.581786 -1.09595 
289 2.44023 0.744301 0.539647 0.597764 0 0 0 0.576934 0.387523 -1.48426 
292 2.33956 0.902124 0.628314 0.547957 0 0 0 0.151927 0.787012 -1.36186 
284 1.63517 0.788282 0.385011 0.57014 0 0 0 -0.509426 0.940162 -0.962199 
285 2.84964 1.17716 0.0625915 0.791309 0 0 0 0.715085 0.0555139 -1.2482 
286 1.78723 0.485721 0.444938 0.58735 0 0 0 -0.29409 0.282611 -2.06146 
287 2.57698 1.17322 0.482562 0.61156 0 0 0 0.0428277 0.539612 -1.02999 
288 2.12027 0.470308 0.103729 0.706467 0 0 0 0.0548099 -0.00960837 -1.83866 
283 2.43674 -0.0381384 0.797333 0.72071 0 0 0 1.11703 -1.2852 -0.558129 
297 2.10953 0.404042 1.31447 0.507881 0 0 0 1.90413 -1.28965 1.10998 
298 2.93 0.378401 1.22614 0.699641 0 0 0 1.80705 -0.76873 0.103678 
299 2.17785 0.794496 1.15772 0.446812 0 0 0 3.04151 -0.0322784 -0.486633 
326 2.16132 0.241581 1.27565 0.557615 0 0 0 1.36197 -1.47816 0.89773 
421 1.83954 1.44084 1.50274 0.295545 0 0 0 -2.29109 -3.41407 -0.0477133 
302 2.2023 0.171769 1.03879 0.593099 0 0 0 1.2341 -1.32825 -0.190313 
409 1.68111 1.13812 1.38277 0.302339 0 0 0 7.62355 -3.47541 0.20089 
304 2.56842 0.907699 0.967203 0.532659 0 0 0 1.36618 0.342798 -0.843749 
327 2.48296 0.0221901 1.06097 0.685999 0 0 0 1.27707 -1.3448 -0.00758938 
271 2.0399 0.860397 1.25086 0.407327 0 0 0 4.83311 -0.126511 -0.0685247 
325 1.98594 0.355553 1.00004 0.521513 0 0 0 1.3738 -1.15544 -1.0399 
308 1.84277 0.353846 1.39549 0.497794 0 0 0 1.14373 -1.67538 1.55099 
309 2.88629 1.00557 1.17505 0.594011 0 0 0 1.74583 0.142707 -0.102386 
352 2.8534 1.20475 1.47988 0.560578 0 0 0 1.76115 0.0542314 0.516997 
311 2.00273 0.716305 0.965148 0.458608 0 0 0 2.42597 -0.00763983 -1.77906 
312 2.53391 1.33844 0.846885 0.525579 0 0 0 -0.117229 0.54847 -0.597126 
293 2.42309 1.11164 0.861816 0.504926 0 0 0 0.210303 0.810963 -0.879173 
324 1.62813 -0.0597967 0.885016 0.633873 0 0 0 -0.114651 -1.61404 -0.685103 
315 2.60039 1.07859 1.23024 0.500886 0 0 0 1.63805 0.261122 -0.0845852 
316 2.72627 0.872234 1.06806 0.566482 0 0 0 1.68892 0.0840185 -0.390916 
317 2.17447 0.00895642 1.26039 0.630985 0 0 0 0.833494 -1.67306 0.7381 
345 2.10888 1.08501 1.35917 0.384712 0 0 0 3.15611 0.530844 0.357416 
323 2.38134 0.331227 1.4536 0.569985 0 0 0 1.39882 -1.12551 1.2854 
455 2.55583 1.28173 1.36755 0.472766 0 0 0 1.51354 0.132498 0.181892 
435 2.27639 1.22552 1.31462 0.411361 0 0 0 0.998601 0.0652876 0.565539 
448 2.20141 1.19778 1.32868 0.395787 0 0 0 1.29416 0.0628356 0.913641 
330 2.12819 0.96826 1.33153 0.403423 0 0 0 3.69314 0.317228 0.284994 
333 2.02459 1.08667 1.30522 0.371338 0 0 0 4.5518 0.0170617 1.8227 
320 2.05153 1.24466 1.39439 0.356996 0 0 0 1.45093 -0.218373 1.67618 
85 1.93766 0.68803 1.22732 0.424793 0 0 0 4.19047 -1.03493 -0.384182 
72 1.85278 0.835644 1.34412 0.381422 0 0 0 5.99003 -0.139637 -1.58456 
280 1.92793 1.15719 0.954513 0.418538 0 0 0 0.282019 -0.515948 5.51793 
282 1.82597 1.09003 1.37787 0.331794 0 0 0 7.6812 0.0351482 -2.08881 
58 1.53876 0.410763 0.794834 0.520965 0 0 0 -0.628876 -0.813605 -2.48367 
7 1.78037 0.749631 1.18988 0.399087 0 0 0 4.57921 -1.93025 -1.0728 
175 1.6862 0.702472 1.18442 0.402968 0 0 0 3.0553 -2.5325 -1.3966 
151 1.67337 0.694862 1.1842 0.404025 0 0 0 2.80365 -2.59523 -1.42876 
102 1.68173 0.685798 1.18738 0.406094 0 0 0 2.83225 -2.53409 -1.39628 
401 1.68763 1.2133 1.38463 0.290458 0 0 0 6.1572 -7.39954 9.30971 
431 1.82255 1.38593 1.47812 0.294161 0 0 0 -1.17646 -3.90151 1.5031 
230 1.56873 0.813995 1.19065 0.37519 0 0 0 1.90263 -3.51166 -0.549845 
402 1.95157 1.39055 1.18275 0.365159 0 0 0 -1.92886 -6.34836 17.6076 
61 2.0614 1.43224 1.48036 0.347741 0 0 0 -1.14298 -1.58258 0.68138 
305 2.1485 1.42894 1.51639 0.368184 0 0 0 -0.452284 -0.690372 -0.938367 
89 2.192 1.4391 1.48267 0.37819 0 0 0 -0.20873 -1.02958 0.257818 
363 1.70564 1.42065 1.51253 0.263056 0 0 0 1.53674 23.0416 -69.0459 
500 2.10569 1.32175 1.88391 0.412446 0 0 0 -1.33927 1.80852 -6.18391 
355 2.35839 0.184453 1.86313 0.63447 0 0 0 0.366741 -1.07702 1.05968 
381 3.11613 1.01979 2.35073 0.739096 0 0 0 1.30341 -0.262221 0.688401 
331 2.87923 0.0788069 2.06589 0.792853 0 0 0 1.08631 -1.15046 0.611467 
364 1.76963 0.735989 2.16029 0.517308 0 0 0 -0.565283 2.08265 -2.76997 
456 2.33967 1.28734 1.85279 0.45211 0 0 0 -0.021758 -0.0187488 -0.567909 
334 2.84871 0.650638 1.56623 0.619735 0 0 0 1.61391 -0.526224 0.796494 
379 2.85971 0.751268 2.16119 0.662739 0 0 0 0.956977 -0.296428 0.716345 
357 2.79171 1.1106 1.69074 0.555739 0 0 0 1.47429 -0.15695 0.974914 
349 2.50806 1.06994 1.68912 0.485856 0 0 0 1.04802 -0.242926 1.0741 
338 2.91329 1.04907 1.57017 0.592008 0 0 0 1.69165 -0.0901679 0.716298 
339 2.60637 0.208206 1.78259 0.663658 0 0 0 0.880243 -1.09943 0.930355 
340 2.03196 0.919076 1.73824 0.427768 0 0 0 0.610071 2.04122 -2.76111 
380 2.25571 1.36196 2.17206 0.492286 0 0 0 -0.922187 0.22701 -1.48844 
356 2.53184 0.904635 2.0194 0.548951 0 0 0 0.229677 -0.0733406 0.595493 
359 2.00327 -0.0960512 2.15981 0.722347 0 0 0 0.0087481 -1.20851 0.524038 
344 2.80142 -0.0437795 2.11852 0.816015 0 0 0 0.909463 -1.29326 0.606353 
348 3.04076 1.33757 1.60003 0.619055 0 0 0 1.74339 -0.105231 0.43586 
346 1.58773 0.374972 1.94495 0.544623 0 0 0 0.0740589 0.360961 0.055151 
354 2.04636 0.843231 1.58868 0.422711 0 0 0 2.33699 1.06383 -0.593062 
368 2.37677 0.682569 2.36623 0.614732 0 0 0 -0.272377 0.0967087 0.044959 
366 1.71031 1.3823 2.04878 0.405703 0 0 0 -1.48442 7.06468 -20.3613 
371 2.18583 0.971474 2.33558 0.551661 0 0 0 -0.951542 0.813076 -1.29552 
377 1.74601 1.18745 1.97098 0.407217 0 0 0 -1.22653 7.54488 -18.0416 
360 1.90747 0.404478 2.3254 0.616733 0 0 0 -0.290912 0.209322 -0.467819 
361 2.15681 1.26107 2.27566 0.509605 0 0 0 -1.32495 0.772333 -2.22142 
335 2.54276 0.22358 1.52697 0.631493 0 0 0 1.20219 -1.16842 0.995523 
384 1.99729 -0.0776368 2.77942 0.849447 0 0 0 0.0754768 -0.817686 0.466731 
376 2.66835 0.594172 2.77917 0.779062 0 0 0 0.370196 -0.26767 0.787314 
375 2.39585 0.989107 2.70504 0.665023 0 0 0 -0.364324 0.253869 0.190203 
362 2.50173 1.42621 2.86667 0.69643 0 0 0 -0.126942 -0.20782 0.712531 
126 1.54709 0.230959 2.44275 0.669909 0 0 0 0.190641 -0.0431714 -0.289625 
383 3.11738 1.16306 2.83543 0.835524 0 0 0 1.03593 -0.275976 0.893824 
365 2.9694 -0.0926763 2.52754 0.942725 0 0 0 0.964685 -1.11939 0.625886 
374 2.49303 0.362287 2.5845 0.739405 0 0 0 0.163757 -0.518986 0.603572 
367 2.83512 -0.0952172 2.44692 0.894594 0 0 0 0.828587 -1.20577 0.631824 
382 2.46012 0.611973 2.90139 0.779647 0 0 0 0.00279981 -0.0960458 0.703906 
369 2.63777 0.580109 2.64824 0.739167 0 0 0 0.331732 -0.27603 0.688837 
373 2.14105 0.726533 2.45078 0.603869 0 0 0 -0.651279 0.594286 -0.680576 
406 2.09112 2.16897 0.430838 0.611265 0 0 0 -1.06553 -1.43412 0.481104 
386 2.0284 2.99123 0.371049 0.772705 0 0 0 -0.203152 0.499832 -0.469319 
387 2.72329 1.69898 0.60938 0.62061 0 0 0 0.12539 -0.139222 -0.670055 
408 1.85314 2.49566 0.317939 0.670082 0 0 0 -0.440777 -0.94347 0.185424 
389 2.18616 3.05826 0.428308 0.790716 0 0 0 -0.0941004 0.69584 -0.55721 
390 2.98317 1.77901 0.535156 0.707931 0 0 0 0.849934 -0.129245 -0.779552 
391 2.11535 1.83161 0.648483 0.532527 0 0 0 -2.1332 -1.78883 1.7542 
403 2.5459 2.18678 0.119717 0.75135 0 0 0 -0.075443 -0.411438 -0.81507 
393 2.66093 2.28842 0.183065 0.764202 0 0 0 0.173619 -0.246717 -0.873332 
405 2.78811 3.02173 -0.121111 1.01931 0 0 0 0.448673 0.483331 -0.802741 
395 1.81381 2.31843 0.625908 0.567286 0 0 0 -0.97503 -2.06636 1.31382 
396 2.10804 2.72738 0.663082 0.647388 0 0 0 -0.44757 -0.0233204 -0.39882 
397 2.16783 2.01056 -0.00250773 0.730131 0 0 0 -0.551796 -0.808916 -0.326914 
407 3.03609 2.65996 0.0661375 0.94152 0 0 0 0.752091 0.242123 -0.877932 
399 2.55634 2.07553 0.339481 0.678296 0 0 0 -0.217672 -0.510631 -0.662326 
400 3.03867 3.09633 0.0948061 1.03121 0 0 0 0.703318 0.615648 -0.726259 
404 2.54911 1.82912 0.1351 0.717734 0 0 0 -0.227234 -0.383317 -0.795846 
392 1.64897 1.70192 1.3023 0.313657 0 0 0 -4.3958 -24.5705 61.7845 
347 1.74968 2.58561 1.44171 0.482407 0 0 0 -0.442388 0.909028 -1.16964 
470 3.18034 2.73685 1.51285 0.777333 0 0 0 1.36502 0.545245 -0.283497 
412 2.83895 2.70487 0.904631 0.719795 0 0 0 0.791076 0.47696 -0.695044 
413 2.99687 2.31763 1.18363 0.663645 0 0 0 1.32584 -0.0830682 -0.625417 
414 2.35624 1.78558 1.13988 0.461764 0 0 0 -0.742088 -1.47678 0.0408422 
415 2.18729 1.9517 0.959637 0.482595 0 0 0 -2.14016 -2.2229 1.05737 
416 1.76813 2.56765 1.21183 0.503755 0 0 0 -0.959956 -0.469331 -0.755539 
454 1.96176 3.07035 1.40585 0.634754 0 0 0 -0.187827 1.4875 -0.88099 
427 1.90156 2.97812 1.41373 0.60058 0 0 0 -0.275436 1.39299 -1.01349 
419 3.09087 2.31628 1.28366 0.685429 0 0 0 1.47358 -0.090761 -0.502457 
457 2.18048 2.18526 1.39274 0.445662 0 0 0 0.664291 -0.848522 -0.804421 
411 1.77753 1.49709 1.51758 0.279058 0 0 0 -3.50403 -3.86781 0.147297 
422 2.52327 1.82722 0.892714 0.53417 0 0 0 -0.488507 -0.71158 -0.445582 
423 2.22281 3.17064 1.41836 0.692847 0 0 0 0.211829 1.49871 -0.625277 
424 1.98908 2.69972 0.785544 0.609122 0 0 0 -0.644645 -0.213526 -0.311735 
425 2.52502 2.65947 0.978216 0.634303 0 0 0 0.284952 0.379822 -0.819759 
426 2.16555 2.22827 1.02762 0.500696 0 0 0 -1.39636 -1.51876 -0.245606 
446 2.15404 1.47217 1.43062 0.370645 0 0 0 -0.757987 -2.07804 2.3097 
441 3.15009 2.03261 1.39372 0.670918 0 0 0 1.68534 -0.393146 -0.321684 
429 2.28301 3.01718 0.830939 0.71077 0 0 0 -0.0175301 0.880805 -0.645502 
430 3.24666 2.98694 1.29672 0.866168 0 0 0 1.22318 0.801662 -0.328428 
449 2.29124 2.24049 1.41349 0.472487 0 0 0 0.979756 -0.238132 -1.01197 
388 1.59812 2.19683 1.01816 0.463186 0 0 0 -1.12525 -4.52483 4.55127 
433 2.03727 1.73801 1.21705 0.390798 0 0 0 -3.06218 -5.99442 9.07452 
434 1.60082 2.73668 1.06615 0.558629 0 0 0 -0.646767 -0.104376 -0.507382 
432 2.37388 1.88404 1.34991 0.447539 0 0 0 0.877491 -1.55949 -0.54722 
436 3.01036 2.09203 0.843109 0.681814 0 0 0 1.07793 -0.223375 -0.68842 
437 2.8462 1.57157 0.966139 0.587293 0 0 0 0.941051 0.0775681 -0.585516 
438 2.85549 2.16438 1.42914 0.589201 0 0 0 1.62875 -0.368342 -0.503904 
439 3.06985 3.26361 1.23339 0.897857 0 0 0 0.949549 1.11243 -0.325504 
440 2.10108 2.01539 0.939851 0.483859 0 0 0 -2.34465 -2.61684 1.5602 
458 2.14521 2.40779 1.42054 0.480222 0 0 0 0.451962 0.375952 -1.04741 
464 2.20089 2.07552 1.39204 0.431482 0 0 0 0.776194 -1.57489 -0.489513 
443 2.58771 1.94946 2.09056 0.535521 0 0 0 1.22741 -0.883215 1.06625 
444 2.84859 1.46504 1.86655 0.570207 0 0 0 1.47558 -0.495901 0.741116 
445 2.81527 2.21551 2.1293 0.614388 0 0 0 1.21889 -0.376531 0.618628 
310 1.78294 2.08928 1.76574 0.364647 0 0 0 2.9296 1.76753 -0.104242 
372 1.61022 2.19644 1.81033 0.377708 0 0 0 0.390875 3.52848 0.842761 
296 2.37676 1.99588 1.7502 0.45479 0 0 0 2.73141 -0.912777 0.691431 
471 1.98874 1.90613 1.68087 0.358625 0 0 0 3.68262 -2.27044 -0.855737 
450 2.67999 1.85887 1.96779 0.537546 0 0 0 1.57155 -0.979847 0.850362 
182 1.64286 1.88949 1.64868 0.302927 0 0 0 0.631645 1.14033 2.03367 
452 2.11881 2.90997 1.68517 0.592222 0 0 0 0.466504 1.44554 -0.398902 
453 1.56028 2.45095 2.19981 0.487034 0 0 0 0.354105 0.827406 2.328 
469 2.08406 1.70843 2.0562 0.431065 0 0 0 0.0260569 -0.355231 -3.08905 
343 2.09718 1.70347 1.57754 0.360073 0 0 0 0.921718 -3.60595 0.0493383 
481 2.16303 2.25178 1.79843 0.451737 0 0 0 2.75689 0.771864 1.11109 
467 1.86345 2.6493 1.66668 0.495961 0 0 0 0.528499 1.84499 -0.479498 
378 1.78868 2.33535 1.81544 0.420986 0 0 0 1.83509 2.731 1.37875 
459 3.15663 2.7618 2.17728 0.80369 0 0 0 1.3311 0.599014 0.259746 
277 1.76728 1.99982 1.70693 0.34065 0 0 0 3.00501 0.914827 -1.08477 
461 1.65114 2.97998 1.7122 0.580968 0 0 0 -0.214511 1.91984 -0.76917 
263 1.87895 1.99472 1.72044 0.355845 0 0 0 3.87591 -0.29475 -0.870012 
261 1.68405 1.99279 1.69119 0.329302 0 0 0 1.71194 1.80478 -0.603628 
176 1.90639 1.54434 1.53657 0.31114 0 0 0 -2.19429 -3.7609 0.588206 
465 1.96043 2.96194 1.89533 0.597782 0 0 0 0.44138 1.55928 0.016206 
466 2.24247 3.2713 1.79524 0.726835 0 0 0 0.419264 1.6269 -0.194183 
319 2.24975 1.91453 1.63878 0.411732 0 0 0 2.91663 -1.83108 0.106692 
478 2.18734 3.04935 2.25827 0.683237 0 0 0 0.53936 1.21412 0.572466 
484 1.90492 2.64751 2.31714 0.562312 0 0 0 0.647537 0.489744 1.4539 
187 2.13031 2.09995 1.70539 0.413709 0 0 0 3.45086 -0.36178 0.630743 
509 3.29297 2.84291 2.26144 0.875196 0 0 0 1.37373 0.653917 0.329603 
488 2.31766 1.87768 1.72535 0.429171 0 0 0 2.78253 -1.52827 0.406085 
492 2.70859 2.30871 2.28735 0.620862 0 0 0 0.893947 -0.213784 0.823953 
494 2.94687 2.34984 2.28063 0.68446 0 0 0 1.18416 -0.127232 0.575913 
504 2.87671 1.9456 2.27657 0.631952 0 0 0 1.10362 -0.73989 0.756542 
199 1.89315 1.96045 1.70229 0.351187 0 0 0 3.89514 -0.926792 -1.12817 
120 1.67258 1.9638 1.67438 0.321488 0 0 0 1.459 1.53496 -0.00719881 
442 2.28184 1.67739 1.7112 0.410209 0 0 0 1.68414 -1.59497 -0.505039 
498 2.04613 1.55965 1.97779 0.409439 0 0 0 -0.910593 1.08506 -7.14724 
487 1.91916 2.03369 2.33112 0.488956 0 0 0 0.0326187 -0.698208 0.224836 
209 2.03145 1.70589 1.5911 0.345965 0 0 0 0.866033 -3.84875 -0.484475 
36 2.10178 2.14084 1.72251 0.416345 0 0 0 3.4064 0.0972566 0.774133 
191 1.67811 1.96819 1.67706 0.323024 0 0 0 1.57642 1.5218 -0.149307 
417 2.33714 2.53508 1.7657 0.533534 0 0 0 1.30006 0.973391 0.259026 
451 2.99114 2.22371 1.53029 0.633451 0 0 0 1.65108 -0.275902 -0.312241 
259 1.58512 1.88708 1.64909 0.29793 0 0 0 -0.81094 2.34922 2.43813 
463 1.58447 1.95969 1.66739 0.313835 0 0 0 -0.644389 2.58973 1.31869 
307 1.54446 1.74375 1.60346 0.263563 0 0 0 -2.47078 3.24226 0.805161 
220 1.54373 1.74205 1.60278 0.263122 0 0 0 -2.49516 3.24242 0.761621 
496 2.03147 2.50601 2.78625 0.657585 0 0 0 0.0310531 -0.181222 1.52988 
472 2.0747 1.79642 2.63684 0.574765 0 0 0 -0.779199 -0.595601 -0.0764039 
473 1.75625 1.5959 2.58876 0.549215 0 0 0 -1.17766 0.121219 -2.34793 
474 2.95854 3.17647 2.68346 0.934254 0 0 0 0.901264 1.04183 0.755752 
497 1.61663 1.94128 2.57965 0.539007 0 0 0 -0.635538 -1.02514 -0.520696 
502 2.22662 2.57159 2.71503 0.667085 0 0 0 0.220395 0.0468162 1.38663 
477 3.17713 2.0138 2.59479 0.781978 0 0 0 1.29713 -0.453759 0.857142 
513 2.63016 3.0298 3.05944 0.919997 0 0 0 0.557671 0.805125 1.27699 
479 1.80985 1.75127 2.41699 0.49856 0 0 0 -1.15679 -0.356579 -2.63231 
501 1.6536 2.4538 3.00118 0.69825 0 0 0 -0.144831 -0.37635 1.73336 
503 2.03372 3.1535 2.47845 0.734325 0 0 0 0.328419 1.26102 0.849378 
482 1.57532 3.16057 3.12964 0.875848 0 0 0 0.0454455 0.862646 1.49566 
511 3.00814 2.13234 2.41307 0.702011 0 0 0 1.18574 -0.463512 0.754348 
510 2.10249 2.54653 2.61072 0.623521 0 0 0 0.225985 -0.0462952 1.38351 
508 2.62305 1.96044 3.05692 0.772121 0 0 0 0.282791 -0.40911 1.38038 
505 3.15567 2.91939 3.22206 1.06052 0 0 0 0.887149 0.587056 1.13087 
499 1.80691 1.78436 2.91322 0.645106 0 0 0 -0.705494 -0.515551 0.136757 
495 2.94831 1.72933 2.7966 0.758141 0 0 0 0.827146 -0.506844 1.0725 
489 3.12957 1.50361 3.00017 0.868009 0 0 0 0.959287 -0.334809 1.04648 
490 2.37284 2.40854 2.58346 0.629826 0 0 0 0.304732 -0.181171 1.22528 
491 2.27434 1.49882 2.74564 0.62995 0 0 0 -0.618172 -0.160366 0.104054 
506 1.97648 2.06882 3.04671 0.700278 0 0 0 -0.385122 -0.559228 1.21408 
493 3.07267 3.01074 2.79147 0.943093 0 0 0 1.00008 0.81725 0.886012 
480 2.35966 2.25058 2.39424 0.569219 0 0 0 0.406836 -0.38712 1.22443 
ITEM: TIMESTEP
800990
ITEM: NUMBER OF ATOMS
512
ITEM: BOX BOUNDS ss ss ss
-2.2775349561678951e-01 3.2932607586404616e+00
-4.0122540508749138e-01 3.2891132425832117e+00
-1.7039273299291779e-01 3.2223573019164853e+00
ITEM: ATOMS id x y z width_SPH x_COM y_COM z_COM vx vy vz 
23 0.539288 1.16104 0.372781 0.613015 0 0 0 0.633793 -0.097637 -0.56997 
3 -0.14033 -0.124434 0.0939732 1.0357 0 0 0 -1.01065 -0.934124 -0.881341 
4 1.1215 0.71024 0.265509 0.622553 0 0 0 0.00937144 0.209785 -1.02933 
5 0.225459 1.27088 -0.0394021 0.78251 0 0 0 -0.197428 -0.30196 -0.966492 
6 0.0115258 1.14394 0.376958 0.727352 0 0 0 -0.762228 -0.26801 -0.705381 
22 0.128621 1.05029 0.0595993 0.785117 0 0 0 -0.507385 -0.4243 -0.970656 
8 0.686461 0.733454 -0.0391968 0.747514 0 0 0 0.0953354 -0.433138 -1.18303 
9 1.3567 -0.241855 0.263491 0.804205 0 0 0 -0.298886 -1.1864 -1.40895 
10 -0.0863167 -0.263406 0.0260442 1.07371 0 0 0 -0.931966 -0.985725 -0.901901 
11 0.920706 1.15036 -0.0285257 0.696437 0 0 0 0.752232 -0.165334 -0.435081 
12 0.461887 1.343 0.164184 0.674424 0 0 0 0.502726 -0.204159 -0.606935 
13 0.278628 -0.29931 0.200451 0.957906 0 0 0 -0.806294 -1.14362 -1.01851 
14 0.97204 1.22081 0.39007 0.568523 0 0 0 1.27038 0.142495 0.812774 
15 1.08249 0.66997 0.304807 0.617964 0 0 0 -0.0678899 0.142894 -1.1607 
16 0.612756 -0.235828 0.244739 0.869625 0 0 0 -0.630649 -1.16658 -1.20388 
17 0.878269 0.253887 0.00522781 0.783181 0 0 0 -0.298602 -0.660953 -1.49783 
18 0.562191 0.565602 0.356092 0.673122 0 0 0 -0.327147 -0.544889 -1.23563 
274 1.4895 1.31441 0.568092 0.508707 0 0 0 -0.206627 -0.281918 4.8492 
20 0.67939 0.940679 0.29778 0.628464 0 0 0 0.463994 -0.143613 -0.766442 
62 1.19143 1.02676 0.635987 0.499497 0 0 0 0.00574729 0.577736 1.37858 
50 0.549987 -0.381032 0.627223 0.850633 0 0 0 -0.738644 -1.36614 -0.856477 
31 -0.066699 1.19079 0.657985 0.694831 0 0 0 -0.999911 -0.099942 -0.584636 
44 0.384567 0.857336 0.611344 0.61198 0 0 0 -0.317968 -0.373736 -1.12025 
24 1.01877 -0.213786 1.39568 0.679355 0 0 0 -0.123961 -1.69285 0.603286 
353 1.43469 1.07795 1.35086 0.306619 0 0 0 -0.47798 -3.56917 0.635417 
26 -0.135938 1.02548 1.49494 0.658914 0 0 0 -1.52794 0.0880339 0.0612291 
27 0.398738 1.14913 0.832389 0.546231 0 0 0 -0.0929906 0.0262018 -1.24833 
28 0.947155 0.224997 1.38726 0.550774 0 0 0 -0.881461 -1.47364 0.742572 
91 0.800641 1.12867 1.21354 0.410234 0 0 0 -0.998668 -0.848691 -0.341462 
303 1.47401 1.06096 1.34497 0.30898 0 0 0 0.971358 -3.79508 0.770331 
65 0.669833 0.471781 1.33838 0.53013 0 0 0 -1.15558 -1.29713 0.0919761 
32 0.390326 -0.347399 1.28432 0.80911 0 0 0 -0.778085 -1.47594 -0.132795 
33 0.747582 -0.2119 1.15272 0.709654 0 0 0 -0.599464 -1.55105 -0.195143 
173 0.936215 0.960754 1.29479 0.396885 0 0 0 -3.46703 -1.14495 -0.810954 
35 1.49751 0.0185832 0.818711 0.616276 0 0 0 -0.421795 -1.4179 -1.15814 
21 1.50709 1.44185 1.49138 0.220514 0 0 0 0.245113 1.59418 0.618611 
154 1.32469 1.31545 1.43483 0.268891 0 0 0 1.65051 2.35674 -4.96173 
38 0.219851 1.02869 0.80081 0.601115 0 0 0 -0.640094 -0.169652 -1.01704 
39 -0.227459 0.894409 1.43968 0.703333 0 0 0 -1.58738 -0.0296982 -0.0849061 
2 1.14967 0.675239 1.21354 0.426028 0 0 0 -4.14274 -2.31403 -1.38029 
351 0.859145 1.19145 1.32514 0.381097 0 0 0 -0.727964 -0.464338 0.443704 
42 0.79997 1.37177 1.32996 0.382826 0 0 0 0.818877 -0.146437 1.05489 
195 1.40657 0.799867 1.18838 0.381451 0 0 0 -2.1417 -3.62157 -0.893331 
318 1.49221 1.0687 1.34922 0.306651 0 0 0 1.80136 -3.84509 0.632418 
45 0.998553 0.224028 1.32982 0.545673 0 0 0 -1.04166 -1.56828 0.537152 
46 0.610446 0.267936 0.790683 0.635117 0 0 0 -0.97493 -0.894083 -1.36006 
47 1.21211 0.915315 0.83575 0.454217 0 0 0 -1.731 -0.485154 0.988002 
48 0.526619 0.78882 1.37475 0.498783 0 0 0 -1.0529 -1.06535 0.0363386 
250 1.49187 1.08593 1.35641 0.302458 0 0 0 1.96544 -3.83527 0.344782 
79 1.49623 1.36941 1.46082 0.233518 0 0 0 3.64287 0.757682 0.550783 
51 0.476675 1.30496 0.949271 0.506038 0 0 0 0.169089 0.221637 -1.33575 
52 1.29203 0.226353 1.31754 0.525364 0 0 0 -0.907395 -1.91141 0.784928 
53 -0.0398858 0.626632 1.25892 0.678804 0 0 0 -1.45045 -0.44128 -0.41463 
54 1.02301 -0.400932 1.42876 0.747461 0 0 0 0.00507301 -1.74379 0.513765 
385 1.48526 1.28966 1.43147 0.252413 0 0 0 3.42463 -2.10688 0.490863 
56 1.27651 0.103591 1.02253 0.574015 0 0 0 -0.869657 -1.66904 -0.734824 
178 0.995029 1.43603 1.45857 0.329984 0 0 0 2.9102 1.35578 0.624046 
115 1.50526 1.15041 1.3764 0.287019 0 0 0 3.09615 -4.38489 0.777906 
59 0.618216 0.602601 1.24067 0.517391 0 0 0 -1.31678 -1.26833 -0.596042 
124 1.46275 1.03846 1.33351 0.314952 0 0 0 0.307925 -3.79373 1.08066 
306 1.50773 -0.285865 0.765565 0.723846 0 0 0 -0.127714 -1.6043 -0.682425 
64 0.863755 -0.339056 1.3046 0.736469 0 0 0 -0.275648 -1.69422 0.221034 
119 1.46935 1.29803 1.43364 0.251085 0 0 0 3.24237 -1.67027 0.900464 
313 1.06027 1.33634 1.41902 0.322543 0 0 0 1.09857 0.946889 2.21121 
149 1.36226 1.21564 1.35164 0.28713 0 0 0 -1.32962 -1.5588 -0.797571 
179 1.27091 0.655442 1.19794 0.420361 0 0 0 -3.49656 -2.75724 -1.57708 
106 1.48398 1.28128 1.42805 0.254531 0 0 0 3.33293 -2.41761 0.653373 
322 1.48977 1.08075 1.35422 0.303752 0 0 0 1.82441 -3.82962 0.432449 
19 1.48533 0.423847 1.00494 0.484895 0 0 0 -0.852832 -1.86255 -1.91698 
512 1.49419 1.3562 1.4562 0.236441 0 0 0 3.67191 0.311696 0.46771 
301 0.930611 1.30713 1.40803 0.352103 0 0 0 0.844383 0.695714 0.473227 
214 1.39941 0.983952 1.30052 0.332295 0 0 0 -2.34875 -3.66494 1.32676 
77 0.453287 1.43621 1.29507 0.467504 0 0 0 -0.72997 0.322719 -0.756574 
358 0.802632 1.13455 1.1541 0.418095 0 0 0 -0.811573 -0.815793 -0.341104 
81 0.658631 0.594056 1.15419 0.517896 0 0 0 -1.43271 -1.24583 -1.06384 
71 0.654125 1.22741 1.34848 0.421632 0 0 0 -0.472685 -0.274666 -0.366879 
329 0.87255 1.19711 1.34631 0.376298 0 0 0 -0.663973 -0.284627 0.350694 
57 1.51229 0.644701 1.1874 0.412432 0 0 0 -0.122616 -3.05676 -1.62632 
122 1.21656 0.673189 1.2029 0.420715 0 0 0 -3.98088 -2.58495 -1.52525 
74 0.974796 0.845288 1.26176 0.411889 0 0 0 -4.06634 -1.5923 -1.05766 
228 1.19611 1.41564 1.46552 0.285848 0 0 0 3.66137 1.69384 2.54394 
198 0.988607 1.43717 1.45868 0.331364 0 0 0 2.87826 1.257 0.754191 
165 1.32819 0.926629 1.25837 0.35344 0 0 0 -4.30455 -3.50947 0.95617 
101 1.00028 1.23476 1.37484 0.345701 0 0 0 -1.00797 0.365026 1.16492 
82 0.914209 0.73178 1.19891 0.446424 0 0 0 -3.04107 -1.67019 -1.19378 
229 1.43794 1.01783 1.32157 0.321265 0 0 0 -0.81758 -3.7396 1.25691 
66 0.0779126 -0.209393 2.31732 0.901788 0 0 0 -0.687955 -1.05208 0.580833 
67 0.896592 0.389783 1.98979 0.568993 0 0 0 0.535193 -0.0874402 0.637799 
68 1.03629 0.897866 1.78784 0.43144 0 0 0 0.892997 2.98622 -4.2577 
95 0.398484 -0.0109034 2.10984 0.741995 0 0 0 -0.249925 -0.999984 0.679926 
70 0.431862 1.36488 2.12842 0.534681 0 0 0 0.501919 -0.113955 0.7269 
88 0.060361 0.335404 2.25425 0.754696 0 0 0 -0.785907 -0.437359 0.780299 
55 0.179152 0.110081 1.56622 0.715517 0 0 0 -0.990357 -1.03047 0.129745 
63 0.0686964 1.42392 1.57716 0.57445 0 0 0 -1.32735 0.122349 0.333573 
87 -0.124826 0.602196 1.97093 0.726216 0 0 0 -1.23339 -0.227802 0.586439 
75 0.13423 1.38274 2.08426 0.597903 0 0 0 -0.600608 -0.111102 0.927874 
86 1.52819 0.494282 1.73489 0.483927 0 0 0 0.0889811 0.601269 0.00422716 
90 0.772497 1.18916 2.00601 0.467509 0 0 0 2.16492 1.08647 -1.69336 
78 0.397216 -0.00263093 2.21456 0.755242 0 0 0 -0.216488 -0.931591 0.705691 
113 0.978007 1.36 2.06098 0.439916 0 0 0 2.96972 2.54538 -6.73517 
93 0.811341 0.804863 2.0233 0.511044 0 0 0 1.24664 0.892038 -0.290654 
92 0.388019 0.389793 1.87057 0.619935 0 0 0 -0.311897 -0.630193 0.888692 
108 1.1812 0.815748 2.12936 0.500496 0 0 0 1.0368 2.73476 -3.26159 
83 0.717765 1.15514 1.91968 0.462905 0 0 0 1.76402 0.737041 -0.786901 
84 0.247413 0.0622353 2.16075 0.758666 0 0 0 -0.490193 -0.857548 0.680797 
96 1.42755 0.839311 1.89148 0.43782 0 0 0 0.311078 5.24144 -7.87422 
127 1.45838 0.642888 2.04465 0.504504 0 0 0 0.179384 2.32783 -2.51029 
34 -0.00995193 0.530521 1.66397 0.680598 0 0 0 -1.2569 -0.446995 0.292415 
60 0.616721 0.958431 1.89369 0.49654 0 0 0 0.906031 0.186403 0.694764 
25 1.06931 0.282778 1.61881 0.537638 0 0 0 -0.33228 -0.974022 1.42411 
76 0.5695 0.905026 1.57236 0.476953 0 0 0 -0.410872 -0.726924 0.959401 
94 0.548013 0.81221 1.57409 0.494661 0 0 0 -0.474156 -0.799145 1.01572 
37 0.451646 1.06436 1.55401 0.483798 0 0 0 -0.715226 -0.372704 0.801535 
49 -0.225096 0.992379 1.53528 0.693613 0 0 0 -1.56996 0.0719967 0.0721424 
125 1.09268 1.35857 2.31576 0.494745 0 0 0 1.87401 1.87929 -4.76207 
370 1.52837 0.876191 2.34621 0.535457 0 0 0 -0.114021 2.66185 -3.73617 
121 1.2299 0.0557171 2.56175 0.739897 0 0 0 0.420643 -0.463449 0.188908 
97 0.741256 0.963636 2.6719 0.641808 0 0 0 0.791097 0.769511 -0.0276971 
98 0.311901 1.033 2.82434 0.738884 0 0 0 -0.0618677 0.189117 0.942185 
99 0.716606 0.0242831 2.58279 0.779046 0 0 0 0.238154 -0.650593 0.651578 
100 0.647803 0.403616 2.84607 0.773452 0 0 0 0.218155 0.0515971 0.74853 
128 0.383363 1.44118 2.49724 0.615766 0 0 0 0.291501 -0.114642 0.746887 
131 0.549718 1.23793 2.93584 0.721724 0 0 0 0.375445 0.238876 0.767533 
103 1.03332 0.516067 2.74005 0.695683 0 0 0 0.557499 0.579616 -0.00876158 
130 1.37067 0.465211 2.56845 0.651141 0 0 0 0.36372 0.736498 -0.682354 
114 1.06694 0.880378 2.58086 0.60421 0 0 0 0.894391 1.4752 -1.26377 
129 0.508149 0.0503795 3.07878 0.938569 0 0 0 -0.0943839 -0.452575 0.926425 
116 -0.0918054 0.828692 2.48471 0.768908 0 0 0 -0.926303 -0.00656034 0.912674 
117 -0.11281 0.373906 2.52757 0.849199 0 0 0 -0.96399 -0.312894 0.858351 
109 0.427185 0.944434 3.03849 0.793869 0 0 0 0.046002 0.256786 0.963225 
110 0.486302 -0.255058 2.78202 0.938173 0 0 0 -0.121539 -0.936646 0.764149 
123 1.28799 1.23656 2.37884 0.511353 0 0 0 0.834564 2.64151 -5.32638 
112 1.16532 0.424952 2.80165 0.724467 0 0 0 0.467855 0.431158 0.041305 
162 0.457141 2.5951 0.566883 0.691737 0 0 0 -0.198993 0.795895 -0.433715 
132 0.66222 2.53027 0.21789 0.732799 0 0 0 0.175157 0.271958 -0.335468 
133 0.0922398 1.78605 0.558714 0.665838 0 0 0 -0.455928 0.139884 -0.504162 
134 0.162152 2.01557 0.242429 0.73626 0 0 0 -0.340444 0.197186 -0.589831 
135 1.32373 2.40948 0.446201 0.616066 0 0 0 0.357543 -1.41327 1.05044 
136 1.10481 2.57107 0.555835 0.622616 0 0 0 0.397427 -0.469647 0.464788 
137 0.0490357 2.5059 0.614626 0.758155 0 0 0 -0.886016 0.864024 -0.494794 
138 0.513596 2.21214 0.0647105 0.745662 0 0 0 0.264204 0.00929437 -0.511828 
139 0.291598 2.24805 0.292715 0.722672 0 0 0 -0.186697 0.33475 -0.526098 
140 0.883335 2.73443 0.162877 0.770976 0 0 0 0.129489 0.361223 -0.290012 
141 -0.0439166 2.3866 0.16064 0.863761 0 0 0 -0.835646 0.588518 -0.612654 
142 1.45321 2.54108 0.57578 0.605432 0 0 0 -0.0152807 -1.15817 0.848441 
143 1.27571 2.91643 0.597735 0.687649 0 0 0 -0.092842 0.533069 -0.0019884 
160 0.794611 3.07602 0.428214 0.804014 0 0 0 -0.207699 1.16478 -0.290268 
145 0.495422 2.00223 0.0139389 0.740951 0 0 0 0.384887 -0.140969 -0.551343 
146 1.33715 2.00136 0.341054 0.601081 0 0 0 0.654426 -2.10928 2.10562 
147 0.766198 1.82077 0.226307 0.636295 0 0 0 1.19529 -0.679996 0.317633 
148 1.26681 3.02295 0.25203 0.799051 0 0 0 -0.0618221 0.640654 -0.233346 
156 0.0923346 1.95726 0.419736 0.705679 0 0 0 -0.503539 0.220015 -0.514314 
150 1.0832 1.84153 0.514016 0.549521 0 0 0 1.65376 -2.03896 2.64038 
155 0.802651 1.62672 0.139303 0.650624 0 0 0 1.20365 -0.52387 0.232158 
161 1.37471 2.00683 0.411132 0.582786 0 0 0 0.554471 -2.40395 2.53753 
159 0.0392288 1.48545 -0.03529 0.821637 0 0 0 -0.532887 -0.159706 -0.891071 
170 1.13968 2.09623 1.09396 0.440547 0 0 0 1.466 -3.77868 4.57908 
163 0.512819 2.85755 0.715426 0.721364 0 0 0 -0.362564 1.26011 -0.434155 
202 0.614153 2.0095 1.00203 0.503112 0 0 0 1.09996 -0.139514 -1.05797 
167 0.867406 1.79174 1.05682 0.436401 0 0 0 2.56073 -1.83465 2.56801 
225 1.49735 1.51636 1.51443 0.217518 0 0 0 -0.855227 -0.815727 -0.887546 
169 0.925714 1.73867 1.43072 0.356734 0 0 0 1.8465 -1.9481 4.92861 
201 -0.023898 2.74169 0.921927 0.78736 0 0 0 -1.10164 1.15805 -0.493664 
171 0.344798 1.88397 1.31499 0.510871 0 0 0 -0.752172 0.282535 -1.14349 
183 1.05569 1.45292 1.4625 0.31599 0 0 0 3.41751 1.60679 1.20756 
30 0.79209 1.64482 1.51741 0.376352 0 0 0 1.02614 0.0813364 0.16197 
174 0.206879 1.77876 1.03603 0.567114 0 0 0 -0.476543 0.230794 -1.02289 
210 1.50148 1.47893 1.50125 0.217348 0 0 0 0.564766 0.988222 0.142891 
157 1.18863 2.27083 1.02742 0.478469 0 0 0 0.927573 -2.54604 1.9788 
152 1.07997 2.08941 0.712466 0.523343 0 0 0 1.53883 -2.43135 2.37603 
314 1.50113 1.48138 1.50212 0.217249 0 0 0 0.469979 0.864283 0.0389529 
197 0.074841 2.23525 1.0802 0.643443 0 0 0 -1.00241 0.595571 -0.809915 
180 0.421874 2.02562 1.49853 0.493813 0 0 0 -1.13655 0.339435 -0.727773 
181 0.627686 2.08579 1.41777 0.456517 0 0 0 -0.466889 0.710774 -1.41786 
428 1.18669 2.56475 1.42784 0.483302 0 0 0 -0.598143 1.18334 -1.62201 
410 1.4991 1.48774 1.50438 0.217077 0 0 0 0.802046 0.611452 -0.0321227 
184 0.816888 2.82807 1.23688 0.603671 0 0 0 -0.226958 1.57112 -1.1191 
460 1.49413 1.50152 1.50836 0.217102 0 0 0 -0.273513 -0.0778974 -0.507911 
186 0.975643 2.81774 1.04021 0.606021 0 0 0 -0.0236943 1.00239 -0.639732 
196 0.570965 1.70122 1.47318 0.432141 0 0 0 -0.553826 0.191659 -0.178919 
188 0.309625 2.5385 1.32084 0.613259 0 0 0 -0.8839 1.28406 -1.11733 
200 0.952342 2.70818 1.14964 0.565977 0 0 0 0.0652649 0.959666 -1.03812 
190 0.811569 1.85976 1.03819 0.453606 0 0 0 2.21271 -1.24137 0.97906 
166 0.578325 1.64115 0.820062 0.51415 0 0 0 1.37958 -0.1268 -0.491391 
192 0.613365 2.06273 1.28736 0.468808 0 0 0 0.152171 0.522683 -1.66711 
193 1.11512 2.50091 1.38662 0.476142 0 0 0 -0.418116 0.868693 -1.5248 
203 1.49709 1.53528 1.52114 0.218901 0 0 0 -1.53194 -1.18236 -1.0551 
208 1.50103 1.48233 1.50246 0.217215 0 0 0 0.443745 0.812083 0.00559347 
41 1.49969 1.49087 1.50544 0.217016 0 0 0 0.111155 0.319028 -0.333745 
342 1.4981 1.50466 1.51029 0.217086 0 0 0 -0.413047 -0.390819 -0.699062 
164 1.49914 1.49496 1.50687 0.216986 0 0 0 -0.0435401 0.0859653 -0.463677 
40 1.49907 1.4955 1.50706 0.216986 0 0 0 -0.0642585 0.0561068 -0.479454 
219 1.49839 1.50152 1.50918 0.217028 0 0 0 -0.29337 -0.249226 -0.632456 
73 1.49776 1.50902 1.51183 0.217208 0 0 0 -0.579011 -0.567977 -0.779313 
43 0.805604 1.44796 1.37081 0.376498 0 0 0 1.30542 -0.0246967 1.27887 
418 1.50719 1.47294 1.49917 0.217691 0 0 0 -0.374879 0.848744 0.0261803 
158 1.23226 1.80438 1.11317 0.389181 0 0 0 1.38696 -9.69026 21.2921 
394 1.50446 1.487 1.49865 0.217128 0 0 0 -0.307537 0.642795 -1.03751 
107 1.49844 1.45725 1.49537 0.21885 0 0 0 1.73308 1.28299 2.58493 
215 0.54087 2.16283 1.63004 0.479714 0 0 0 -1.42852 0.604021 -0.3405 
447 1.39749 2.80308 2.23838 0.567395 0 0 0 -0.109894 1.23068 1.24133 
205 0.0357091 1.958 2.06486 0.63064 0 0 0 -1.35404 -0.385496 0.70181 
206 1.02526 2.47209 2.29806 0.526081 0 0 0 -0.784548 0.0757751 2.24091 
207 0.438846 2.84842 1.72195 0.648682 0 0 0 -0.970144 1.7035 -0.71931 
257 1.1462 1.73854 1.5693 0.308092 0 0 0 0.150736 1.36713 0.792137 
194 0.555392 1.94539 1.63956 0.452294 0 0 0 -1.32465 0.0738504 0.248912 
235 1.21548 2.18612 2.35238 0.493661 0 0 0 -0.515639 -1.03703 1.78976 
211 0.956349 2.92221 2.05614 0.605035 0 0 0 -0.719754 1.80985 0.0663148 
212 0.45313 2.60916 1.67387 0.582915 0 0 0 -1.16159 1.49546 -0.741566 
213 0.821558 1.77282 1.80143 0.397827 0 0 0 -0.215304 0.0122872 -1.25214 
242 0.40046 2.35909 2.29194 0.595599 0 0 0 -1.03597 -0.27233 1.19628 
231 0.848341 2.32006 2.12816 0.491558 0 0 0 -1.46641 0.000740996 2.18591 
216 1.16683 2.94849 2.0896 0.599369 0 0 0 -0.547723 1.81478 0.245498 
217 0.343202 2.85139 1.83538 0.671173 0 0 0 -1.07812 1.48818 -0.520582 
218 0.188132 2.60236 1.94756 0.653438 0 0 0 -1.42615 0.765576 -0.097909 
468 0.852818 2.30967 1.8553 0.453564 0 0 0 -2.19983 1.12488 0.887555 
204 0.98244 2.13675 1.79705 0.400181 0 0 0 -3.11382 1.07129 0.489705 
221 0.781362 2.16855 1.99554 0.461678 0 0 0 -1.81776 -0.142098 1.89154 
222 0.874645 2.13024 1.82114 0.418688 0 0 0 -2.52243 0.608145 0.876292 
223 0.648261 1.75377 1.73341 0.42543 0 0 0 -0.647402 -0.244269 0.582232 
246 1.14636 1.78049 1.58 0.313136 0 0 0 -0.965489 1.32005 0.384565 
104 0.233991 1.55829 2.31381 0.605702 0 0 0 -0.273982 -0.332356 0.943798 
226 1.33009 3.06355 2.06162 0.626231 0 0 0 -0.383217 1.88233 0.0383493 
227 0.147302 1.58649 2.08044 0.590157 0 0 0 -0.73903 -0.333815 0.957676 
234 1.08919 1.77502 1.65725 0.327877 0 0 0 -0.11119 5.13769 -13.7863 
238 1.01266 1.72345 1.58264 0.333679 0 0 0 1.2373 1.37747 -3.74604 
321 1.32125 2.33262 1.84131 0.409754 0 0 0 -2.1969 3.09489 1.05815 
475 0.852224 2.20785 1.83084 0.434529 0 0 0 -2.39328 0.831236 0.936018 
476 1.236 2.27058 2.30391 0.488504 0 0 0 -0.669976 -0.591806 2.29725 
189 0.782455 2.23929 1.56136 0.444169 0 0 0 -1.22524 1.24338 -1.12483 
239 1.3495 1.89792 1.62616 0.304188 0 0 0 -5.2429 3.4869 3.25194 
328 1.239 2.61189 1.80516 0.48029 0 0 0 -1.13656 2.5566 -0.289756 
185 0.0296371 2.45809 1.54539 0.667553 0 0 0 -1.48898 0.759411 -0.529493 
337 1.08116 2.12647 1.79494 0.384859 0 0 0 -3.71925 1.5429 0.134461 
462 1.494 3.28882 1.96819 0.696856 0 0 0 -0.327499 1.96139 -0.252656 
168 1.33186 1.85861 1.63155 0.298786 0 0 0 -4.91607 3.88166 2.86658 
247 1.21227 2.26017 1.82707 0.399114 0 0 0 -3.19385 2.601 0.841833 
177 1.34232 2.09073 1.75652 0.350182 0 0 0 -4.10393 3.77396 -1.22936 
485 1.5067 2.80876 2.33205 0.583721 0 0 0 0.0957657 0.928992 1.38007 
264 1.3721 2.24531 1.827 0.387489 0 0 0 -2.45598 3.42765 0.951555 
69 1.4045 2.22362 1.82304 0.381681 0 0 0 -2.28847 3.58825 0.832363 
483 1.42127 2.31225 1.83497 0.402123 0 0 0 -1.57723 3.46076 1.19417 
350 1.43899 2.29199 1.83175 0.39713 0 0 0 -1.51865 3.54179 1.19889 
249 0.810743 1.71806 2.34598 0.511764 0 0 0 1.1286 -0.642073 -0.195751 
420 1.11136 1.94425 1.68019 0.344427 0 0 0 -3.58139 1.60311 -2.54917 
240 1.42889 1.99382 1.67738 0.320759 0 0 0 -4.04916 3.95807 0.324256 
300 1.51916 1.67207 1.57346 0.245251 0 0 0 -3.20783 2.24295 -0.655724 
398 1.51863 1.67007 1.57263 0.244757 0 0 0 -3.21624 2.1924 -0.697693 
29 0.0998251 1.58839 1.57877 0.564953 0 0 0 -1.34134 0.0104294 0.251681 
224 1.1137 1.66991 1.54005 0.307837 0 0 0 2.25648 1.35917 0.490157 
111 0.951812 1.52523 1.75499 0.365729 0 0 0 2.94888 3.99147 -11.4185 
105 1.42238 1.7449 1.56872 0.264089 0 0 0 -3.21366 2.29605 8.89516 
172 1.02342 1.85688 1.56823 0.344256 0 0 0 -0.615044 -1.5533 3.58395 
153 1.36635 1.72337 1.67662 0.280178 0 0 0 -1.66311 12.4758 -21.7981 
341 1.49772 1.55245 1.52725 0.220824 0 0 0 -2.06988 -1.20748 -1.11708 
144 1.49737 1.55543 1.52765 0.221189 0 0 0 -2.02527 -1.23528 -0.918133 
332 1.49424 1.56547 1.53147 0.222688 0 0 0 -0.541019 -0.876604 -0.943422 
486 1.5315 1.94567 2.15279 0.420409 0 0 0 -0.552398 0.806802 -5.18648 
336 1.53233 1.71296 1.59081 0.255617 0 0 0 -2.86295 3.06922 0.0544458 
80 1.49759 1.55013 1.52642 0.220531 0 0 0 -2.00262 -1.21944 -1.11216 
232 0.492161 2.02195 2.69548 0.642611 0 0 0 -0.0745462 -0.804795 1.41705 
233 0.819153 1.89517 2.82464 0.638636 0 0 0 0.440511 -0.774782 1.02625 
255 -0.0545577 2.84034 2.49112 0.830806 0 0 0 -1.33128 0.6625 0.395588 
266 0.366653 1.98499 2.58794 0.636922 0 0 0 -0.320956 -0.7494 1.30894 
236 1.10598 2.61864 2.76414 0.65124 0 0 0 -0.0562978 -0.167821 1.86494 
237 0.37343 2.44496 2.4469 0.637518 0 0 0 -0.879449 -0.195092 1.14201 
262 0.719179 1.67966 2.53177 0.568063 0 0 0 0.926267 -0.484212 0.339133 
254 0.214175 2.73861 3.11697 0.891496 0 0 0 -0.712473 0.2734 1.45049 
118 0.028393 1.48111 2.6882 0.743108 0 0 0 -0.653597 -0.166583 1.01432 
241 0.939423 2.12978 3.11426 0.728298 0 0 0 0.13787 -0.661522 1.54258 
265 0.0329553 3.01139 2.61218 0.868523 0 0 0 -1.12544 0.909766 0.525472 
243 0.559649 3.01397 2.64267 0.760244 0 0 0 -0.508835 1.0028 0.858363 
244 -0.053846 3.17009 2.96979 1.01469 0 0 0 -0.989223 0.906806 0.853308 
245 1.25688 2.18075 2.86042 0.631953 0 0 0 -0.0453698 -0.97666 1.37665 
256 0.0639217 2.93296 2.98771 0.928311 0 0 0 -0.938695 0.617747 1.1011 
260 -0.0684622 2.86215 2.72929 0.884981 0 0 0 -1.22646 0.592825 0.736868 
248 0.535507 2.66342 2.98132 0.774499 0 0 0 -0.342578 0.0705756 1.64872 
507 1.514 2.78544 2.91086 0.717642 0 0 0 0.00162469 0.241188 1.77997 
258 0.563515 2.96535 3.08817 0.865752 0 0 0 -0.344519 0.62305 1.47811 
251 0.511304 2.47669 2.63315 0.654784 0 0 0 -0.499781 -0.285974 1.47388 
252 -0.111924 2.39186 2.39214 0.756581 0 0 0 -1.48803 -0.03976 0.500057 
253 1.04036 3.18639 2.78129 0.794805 0 0 0 -0.146935 1.14523 1.12595 
267 1.82892 0.385598 0.477777 0.596853 0 0 0 -0.154254 -0.0364284 -2.08401 
268 2.77884 0.405526 0.286062 0.786132 0 0 0 1.25567 -0.459831 -1.24518 
269 2.2067 0.0402861 -0.170099 0.890932 0 0 0 0.37426 -0.769622 -1.63991 
270 2.56706 0.0594578 -0.070174 0.911771 0 0 0 0.82707 -0.801599 -1.41335 
291 2.17938 0.517071 -0.0151485 0.745447 0 0 0 0.104536 -0.0265174 -1.80514 
272 2.88249 0.826455 0.434375 0.7207 0 0 0 1.24073 0.030956 -1.12 
273 1.72709 1.05679 0.271324 0.594022 0 0 0 -0.63913 0.752353 0.272451 
295 2.1713 1.36023 0.380863 0.583848 0 0 0 -1.32074 0.225633 0.26797 
275 2.66357 -0.0269333 -0.00181869 0.933268 0 0 0 0.952079 -0.903056 -1.25184 
276 1.80978 0.0752476 0.0483179 0.778949 0 0 0 -0.0838287 -0.687912 -1.77596 
294 1.7398 1.32132 0.468056 0.539315 0 0 0 -1.13504 0.0486814 2.88241 
278 1.84913 0.118938 -0.0193138 0.792009 0 0 0 -0.0537312 -0.613861 -1.79868 
279 2.175 0.767304 0.422031 0.586648 0 0 0 -0.127587 0.711312 -1.57241 
290 2.36631 1.24236 0.156959 0.668462 0 0 0 -0.466677 0.307255 -0.928685 
281 2.44926 1.10437 0.372456 0.618622 0 0 0 -0.226724 0.581786 -1.09595 
289 2.44023 0.744301 0.539647 0.597764 0 0 0 0.576932 0.38752 -1.48427 
292 2.33956 0.902124 0.628314 0.547957 0 0 0 0.151923 0.78701 -1.36187 
284 1.63517 0.788283 0.38501 0.57014 0 0 0 -0.509428 0.940163 -0.962194 
285 2.84964 1.17716 0.0625912 0.791309 0 0 0 0.715086 0.055514 -1.2482 
286 1.78723 0.485721 0.444938 0.58735 0 0 0 -0.294093 0.282611 -2.06145 
287 2.57698 1.17322 0.482562 0.61156 0 0 0 0.0428277 0.539613 -1.03 
288 2.12027 0.470308 0.103729 0.706467 0 0 0 0.0548085 -0.00960937 -1.83866 
283 2.43674 -0.0381387 0.797333 0.72071 0 0 0 1.11702 -1.28521 -0.558129 
297 2.10953 0.404042 1.31447 0.507881 0 0 0 1.90412 -1.28966 1.10998 
298 2.93 0.3784 1.22614 0.699641 0 0 0 1.80705 -0.768735 0.103679 
299 2.17785 0.794496 1.15772 0.446812 0 0 0 3.04149 -0.0323032 -0.486638 
326 2.16132 0.24158 1.27565 0.557615 0 0 0 1.36197 -1.47817 0.897732 
421 1.83954 1.44084 1.50274 0.295545 0 0 0 -2.291 -3.41409 -0.0478442 
302 2.2023 0.171769 1.03879 0.593099 0 0 0 1.23409 -1.32826 -0.190313 
409 1.68111 1.13812 1.38277 0.302339 0 0 0 7.62358 -3.47549 0.200802 
304 2.56842 0.907699 0.967203 0.532659 0 0 0 1.36619 0.342792 -0.843754 
327 2.48296 0.0221898 1.06097 0.685999 0 0 0 1.27706 -1.3448 -0.00758927 
271 2.0399 0.860397 1.25086 0.407327 0 0 0 4.83308 -0.126548 -0.068525 
325 1.98594 0.355552 1.00004 0.521514 0 0 0 1.37379 -1.15545 -1.0399 
308 1.84277 0.353846 1.39549 0.497794 0 0 0 1.14372 -1.67539 1.55099 
309 2.88629 1.00557 1.17505 0.594011 0 0 0 1.74584 0.142705 -0.102387 
352 2.85341 1.20475 1.47988 0.560578 0 0 0 1.76117 0.0542302 0.517 
311 2.00273 0.716305 0.965148 0.458608 0 0 0 2.42595 -0.00765243 -1.77906 
312 2.53391 1.33844 0.846885 0.525579 0 0 0 -0.117225 0.548473 -0.59713 
293 2.42309 1.11164 0.861816 0.504926 0 0 0 0.210305 0.810961 -0.879179 
324 1.62813 -0.0597971 0.885016 0.633873 0 0 0 -0.114651 -1.61404 -0.685102 
315 2.60039 1.07859 1.23024 0.500886 0 0 0 1.63807 0.261117 -0.0845872 
316 2.72627 0.872234 1.06806 0.566482 0 0 0 1.68893 0.0840135 -0.390918 
317 2.17447 0.008956 1.26039 0.630985 0 0 0 0.833491 -1.67307 0.738101 
345 2.10888 1.08501 1.35917 0.384712 0 0 0 3.15611 0.530795 0.35742 
323 2.38134 0.331226 1.4536 0.569985 0 0 0 1.39882 -1.12552 1.28541 
455 2.55583 1.28173 1.36755 0.472766 0 0 0 1.51357 0.132498 0.181893 
435 2.27639 1.22552 1.31462 0.411361 0 0 0 0.998629 0.0652736 0.56554 
448 2.20141 1.19778 1.32868 0.395787 0 0 0 1.29419 0.0628111 0.913643 
330 2.12819 0.968261 1.33153 0.403423 0 0 0 3.69313 0.317185 0.284993 
333 2.02459 1.08667 1.30522 0.371338 0 0 0 4.55177 0.01701 1.82269 
320 2.05153 1.24466 1.39439 0.356996 0 0 0 1.45096 -0.218424 1.67619 
85 1.93766 0.688029 1.22732 0.424793 0 0 0 4.19044 -1.03496 -0.38418 
72 1.85278 0.835644 1.34412 0.381422 0 0 0 5.99 -0.139693 -1.58454 
280 1.92793 1.15719 0.954514 0.418537 0 0 0 0.282008 -0.515973 5.51796 
282 1.82597 1.09003 1.37787 0.331795 0 0 0 7.68117 0.0350621 -2.08878 
58 1.53876 0.410762 0.794834 0.520965 0 0 0 -0.628879 -0.813603 -2.48366 
7 1.78037 0.749631 1.18988 0.399087 0 0 0 4.57918 -1.93027 -1.07279 
175 1.6862 0.702471 1.18442 0.402968 0 0 0 3.05528 -2.53252 -1.39659 
151 1.67337 0.694861 1.1842 0.404025 0 0 0 2.80362 -2.59524 -1.42875 
102 1.68173 0.685797 1.18738 0.406094 0 0 0 2.83223 -2.5341 -1.39627 
401 1.68763 1.2133 1.38464 0.290459 0 0 0 6.15726 -7.39969 9.30968 
431 1.82255 1.38593 1.47812 0.294161 0 0 0 -1.17636 -3.90157 1.50297 
230 1.56873 0.813994 1.19065 0.37519 0 0 0 1.9026 -3.51167 -0.549835 
402 1.95157 1.39055 1.18276 0.365158 0 0 0 -1.92883 -6.34847 17.6079 
61 2.0614 1.43224 1.48036 0.347741 0 0 0 -1.14293 -1.5826 0.681413 
305 2.1485 1.42894 1.51639 0.368184 0 0 0 -0.452241 -0.690372 -0.938344 
89 2.192 1.4391 1.48267 0.37819 0 0 0 -0.20869 -1.02957 0.257834 
363 1.70564 1.42065 1.51252 0.263054 0 0 0 1.53669 23.0407 -69.0441 
500 2.10569 1.32175 1.88391 0.412445 0 0 0 -1.33925 1.80853 -6.18396 
355 2.35839 0.184452 1.86313 0.63447 0 0 0 0.366742 -1.07703 1.05968 
381 3.11613 1.01979 2.35073 0.739096 0 0 0 1.30341 -0.262224 0.688406 
331 2.87923 0.0788066 2.06589 0.792853 0 0 0 1.08631 -1.15046 0.61147 
364 1.76963 0.73599 2.16028 0.517308 0 0 0 -0.565277 2.08265 -2.76998 
456 2.33967 1.28734 1.85279 0.45211 0 0 0 -0.0217363 -0.0187528 -0.567901 
334 2.84871 0.650638 1.56623 0.619735 0 0 0 1.61392 -0.52623 0.796497 
379 2.85971 0.751267 2.16119 0.662739 0 0 0 0.956981 -0.296432 0.71635 
357 2.79171 1.1106 1.69074 0.555739 0 0 0 1.4743 -0.156954 0.974921 
349 2.50806 1.06994 1.68912 0.485856 0 0 0 1.04804 -0.242937 1.07411 
338 2.91329 1.04907 1.57017 0.592008 0 0 0 1.69166 -0.0901713 0.716302 
339 2.60637 0.208205 1.78259 0.663658 0 0 0 0.880245 -1.09944 0.930359 
340 2.03196 0.919077 1.73824 0.427768 0 0 0 0.610088 2.04119 -2.76113 
380 2.25571 1.36196 2.17206 0.492286 0 0 0 -0.92218 0.227009 -1.48844 
356 2.53184 0.904635 2.0194 0.548951 0 0 0 0.229683 -0.0733478 0.595502 
359 2.00327 -0.0960515 2.15981 0.722347 0 0 0 0.00874958 -1.20851 0.52404 
344 2.80142 -0.0437798 2.11852 0.816015 0 0 0 0.909465 -1.29326 0.606356 
348 3.04077 1.33757 1.60003 0.619055 0 0 0 1.7434 -0.105231 0.435863 
346 1.58773 0.374972 1.94495 0.544623 0 0 0 0.0740625 0.360954 0.0551475 
354 2.04636 0.843231 1.58868 0.422711 0 0 0 2.33699 1.06379 -0.593067 
368 2.37677 0.682569 2.36623 0.614732 0 0 0 -0.272375 0.096705 0.0449633 
366 1.71031 1.38231 2.04878 0.405701 0 0 0 -1.48439 7.06487 -20.3618 
371 2.18583 0.971474 2.33558 0.551661 0 0 0 -0.951539 0.813073 -1.29552 
377 1.74601 1.18745 1.97098 0.407216 0 0 0 -1.2265 7.54502 -18.042 
360 1.90747 0.404478 2.3254 0.616733 0 0 0 -0.290909 0.209319 -0.467818 
361 2.15681 1.26107 2.27566 0.509605 0 0 0 -1.32494 0.772332 -2.22142 
335 2.54276 0.22358 1.52697 0.631493 0 0 0 1.20219 -1.16843 0.995525 
384 1.99729 -0.077637 2.77943 0.849447 0 0 0 0.0754791 -0.81769 0.466732 
376 2.66835 0.594172 2.77917 0.779063 0 0 0 0.370199 -0.267673 0.787317 
375 2.39585 0.989107 2.70504 0.665023 0 0 0 -0.364322 0.253867 0.190206 
362 2.50173 1.42621 2.86667 0.69643 0 0 0 -0.12694 -0.207822 0.712532 
126 1.54709 0.230959 2.44275 0.669909 0 0 0 0.190644 -0.0431745 -0.289625 
383 3.11738 1.16306 2.83543 0.835524 0 0 0 1.03593 -0.275978 0.893827 
365 2.9694 -0.0926766 2.52754 0.942726 0 0 0 0.964687 -1.1194 0.625888 
374 2.49303 0.362287 2.5845 0.739405 0 0 0 0.16376 -0.51899 0.603575 
367 2.83512 -0.0952175 2.44692 0.894594 0 0 0 0.828589 -1.20577 0.631826 
382 2.46012 0.611973 2.90139 0.779647 0 0 0 0.00280229 -0.0960483 0.703909 
369 2.63778 0.580109 2.64824 0.739167 0 0 0 0.331734 -0.276033 0.68884 
373 2.14105 0.726533 2.45078 0.603869 0 0 0 -0.651276 0.594284 -0.680575 
406 2.09112 2.16897 0.430839 0.611265 0 0 0 -1.06553 -1.43412 0.481109 
386 2.0284 2.99123 0.371049 0.772705 0 0 0 -0.203153 0.499833 -0.469319 
387 2.72329 1.69898 0.60938 0.62061 0 0 0 0.125392 -0.139218 -0.670056 
408 1.85314 2.49566 0.317939 0.670082 0 0 0 -0.440778 -0.943469 0.185426 
389 2.18616 3.05826 0.428308 0.790716 0 0 0 -0.0941003 0.695841 -0.557209 
390 2.98317 1.77901 0.535155 0.707931 0 0 0 0.849936 -0.129242 -0.779553 
391 2.11535 1.83161 0.648484 0.532527 0 0 0 -2.13321 -1.78883 1.75421 
403 2.5459 2.18678 0.119716 0.75135 0 0 0 -0.0754429 -0.411435 -0.815068 
393 2.66093 2.28842 0.183065 0.764202 0 0 0 0.173619 -0.246714 -0.873331 
405 2.78811 3.02173 -0.121111 1.01931 0 0 0 0.448673 0.483332 -0.80274 
395 1.81381 2.31843 0.625909 0.567286 0 0 0 -0.975032 -2.06636 1.31382 
396 2.10804 2.72738 0.663082 0.647389 0 0 0 -0.447571 -0.0233198 -0.39882 
397 2.16783 2.01056 -0.00250781 0.730131 0 0 0 -0.551797 -0.808914 -0.32691 
407 3.03609 2.65996 0.0661373 0.941521 0 0 0 0.752091 0.242124 -0.877931 
399 2.55634 2.07553 0.339481 0.678296 0 0 0 -0.217672 -0.510628 -0.662324 
400 3.03867 3.09633 0.0948059 1.03121 0 0 0 0.703318 0.615649 -0.726259 
404 2.54911 1.82912 0.1351 0.717734 0 0 0 -0.227234 -0.383315 -0.795844 
392 1.64897 1.70192 1.30231 0.313651 0 0 0 -4.39595 -24.5714 61.7875 
347 1.74968 2.58561 1.44171 0.482407 0 0 0 -0.442391 0.909026 -1.16964 
470 3.18034 2.73685 1.51285 0.777333 0 0 0 1.36502 0.545246 -0.283497 
412 2.83896 2.70487 0.90463 0.719796 0 0 0 0.791076 0.476962 -0.695045 
413 2.99687 2.31763 1.18363 0.663645 0 0 0 1.32584 -0.0830647 -0.625418 
414 2.35624 1.78558 1.13988 0.461764 0 0 0 -0.742085 -1.47676 0.0408472 
415 2.18729 1.9517 0.959638 0.482595 0 0 0 -2.14016 -2.22289 1.05739 
416 1.76813 2.56765 1.21183 0.503755 0 0 0 -0.959958 -0.469332 -0.755535 
454 1.96176 3.07035 1.40585 0.634754 0 0 0 -0.187826 1.4875 -0.88099 
427 1.90156 2.97812 1.41373 0.60058 0 0 0 -0.275436 1.39298 -1.01349 
419 3.09087 2.31628 1.28366 0.685429 0 0 0 1.47358 -0.0907578 -0.502458 
457 2.18048 2.18526 1.39274 0.445662 0 0 0 0.664279 -0.84851 -0.804416 
411 1.77753 1.49709 1.51758 0.279058 0 0 0 -3.50396 -3.86783 0.147205 
422 2.52327 1.82722 0.892714 0.53417 0 0 0 -0.488507 -0.711572 -0.445583 
423 2.22281 3.17064 1.41836 0.692847 0 0 0 0.211829 1.49871 -0.625277 
424 1.98908 2.69972 0.785544 0.609122 0 0 0 -0.644646 -0.213526 -0.311734 
425 2.52502 2.65947 0.978216 0.634303 0 0 0 0.284951 0.379824 -0.819759 
426 2.16555 2.22827 1.02762 0.500696 0 0 0 -1.39637 -1.51876 -0.2456 
446 2.15404 1.47217 1.43062 0.370645 0 0 0 -0.757948 -2.07803 2.30972 
441 3.15009 2.03261 1.39372 0.670918 0 0 0 1.68534 -0.393142 -0.321685 
429 2.28301 3.01719 0.830939 0.71077 0 0 0 -0.0175301 0.880805 -0.645503 
430 3.24666 2.98694 1.29672 0.866168 0 0 0 1.22318 0.801663 -0.328428 
449 2.29124 2.24049 1.41349 0.472487 0 0 0 0.979748 -0.238121 -1.01197 
388 1.59812 2.19683 1.01816 0.463185 0 0 0 -1.12526 -4.52484 4.55131 
433 2.03727 1.73801 1.21705 0.390797 0 0 0 -3.06218 -5.99445 9.07466 
434 1.60082 2.73668 1.06615 0.558629 0 0 0 -0.646766 -0.104376 -0.507383 
432 2.37388 1.88404 1.34991 0.447539 0 0 0 0.877494 -1.55947 -0.547217 
436 3.01036 2.09203 0.843109 0.681814 0 0 0 1.07794 -0.223371 -0.688422 
437 2.8462 1.57157 0.966139 0.587293 0 0 0 0.941057 0.0775727 -0.585519 
438 2.85549 2.16438 1.42914 0.589201 0 0 0 1.62875 -0.368337 -0.503905 
439 3.06985 3.26361 1.23339 0.897857 0 0 0 0.949549 1.11243 -0.325504 
440 2.10108 2.01539 0.939851 0.483859 0 0 0 -2.34466 -2.61684 1.56022 
458 2.14521 2.40779 1.42054 0.480223 0 0 0 0.451952 0.375957 -1.04741 
464 2.20089 2.07552 1.39204 0.431482 0 0 0 0.776183 -1.57488 -0.489506 
443 2.58771 1.94946 2.09056 0.535521 0 0 0 1.22741 -0.883212 1.06625 
444 2.84859 1.46504 1.86655 0.570207 0 0 0 1.47559 -0.495901 0.741122 
445 2.81527 2.21551 2.1293 0.614388 0 0 0 1.21889 -0.376529 0.61863 
310 1.78294 2.08928 1.76574 0.364647 0 0 0 2.92957 1.76753 -0.104242 
372 1.61022 2.19644 1.81033 0.377708 0 0 0 0.390878 3.52848 0.842751 
296 2.37676 1.99587 1.7502 0.45479 0 0 0 2.73141 -0.912763 0.691437 
471 1.98874 1.90613 1.68087 0.358625 0 0 0 3.68257 -2.27042 -0.855729 
450 2.67999 1.85887 1.96779 0.537546 0 0 0 1.57155 -0.979843 0.850368 
182 1.64286 1.88949 1.64868 0.302927 0 0 0 0.6316 1.14035 2.03366 
452 2.11881 2.90997 1.68517 0.592222 0 0 0 0.466503 1.44554 -0.398903 
453 1.56028 2.45095 2.19981 0.487035 0 0 0 0.354112 0.8274 2.32799 
469 2.08406 1.70843 2.0562 0.431065 0 0 0 0.0260595 -0.35522 -3.08906 
343 2.09718 1.70347 1.57754 0.360073 0 0 0 0.921711 -3.6059 0.0493514 
481 2.16303 2.25178 1.79843 0.451737 0 0 0 2.75687 0.771872 1.11109 
467 1.86345 2.6493 1.66668 0.495962 0 0 0 0.528495 1.84498 -0.479499 
378 1.78868 2.33535 1.81544 0.420987 0 0 0 1.83508 2.731 1.37874 
459 3.15663 2.7618 2.17728 0.80369 0 0 0 1.3311 0.599014 0.259746 
277 1.76728 1.99982 1.70693 0.34065 0 0 0 3.00498 0.914815 -1.08475 
461 1.65114 2.97998 1.7122 0.580968 0 0 0 -0.214509 1.91984 -0.769172 
263 1.87895 1.99472 1.72044 0.355845 0 0 0 3.87587 -0.294751 -0.870003 
261 1.68405 1.99279 1.69119 0.329302 0 0 0 1.71191 1.80477 -0.603582 
176 1.90639 1.54434 1.53657 0.31114 0 0 0 -2.19425 -3.76087 0.588165 
465 1.96043 2.96194 1.89533 0.597782 0 0 0 0.44138 1.55928 0.0162049 
466 2.24247 3.27131 1.79524 0.726835 0 0 0 0.419264 1.6269 -0.194183 
319 2.24975 1.91453 1.63878 0.411732 0 0 0 2.91662 -1.83106 0.106701 
478 2.18734 3.04935 2.25827 0.683237 0 0 0 0.53936 1.21412 0.572465 
484 1.90492 2.64751 2.31714 0.562312 0 0 0 0.647537 0.489743 1.45389 
187 2.13031 2.09995 1.70539 0.413709 0 0 0 3.45083 -0.361765 0.630747 
509 3.29297 2.84291 2.26144 0.875196 0 0 0 1.37373 0.653918 0.329603 
488 2.31766 1.87768 1.72535 0.429171 0 0 0 2.78252 -1.52825 0.406095 
492 2.70859 2.30871 2.28735 0.620862 0 0 0 0.893946 -0.213782 0.823955 
494 2.94687 2.34984 2.28063 0.68446 0 0 0 1.18416 -0.127231 0.575915 
504 2.87671 1.9456 2.27657 0.631953 0 0 0 1.10363 -0.739889 0.756546 
199 1.89315 1.96045 1.70229 0.351187 0 0 0 3.89509 -0.926792 -1.12815 
120 1.67258 1.9638 1.67438 0.321488 0 0 0 1.45896 1.53494 -0.00714466 
442 2.28184 1.67739 1.7112 0.410209 0 0 0 1.68415 -1.59495 -0.505024 
498 2.04613 1.55965 1.97778 0.409439 0 0 0 -0.910579 1.08508 -7.1473 
487 1.91916 2.03369 2.33112 0.488956 0 0 0 0.0326162 -0.698206 0.224829 
209 2.03145 1.70589 1.5911 0.345965 0 0 0 0.866015 -3.84871 -0.484461 
36 2.10179 2.14084 1.72251 0.416345 0 0 0 3.40637 0.0972687 0.774135 
191 1.67811 1.96819 1.67706 0.323025 0 0 0 1.57638 1.52179 -0.149255 
417 2.33714 2.53508 1.7657 0.533534 0 0 0 1.30005 0.973395 0.259025 
451 2.99114 2.22371 1.53029 0.633451 0 0 0 1.65108 -0.275898 -0.312242 
259 1.58512 1.88708 1.64909 0.29793 0 0 0 -0.810991 2.34927 2.43809 
463 1.58447 1.95969 1.66739 0.313835 0 0 0 -0.644422 2.58973 1.31874 
307 1.54446 1.74375 1.60346 0.263563 0 0 0 -2.47088 3.24246 0.804984 
220 1.54373 1.74205 1.60278 0.263122 0 0 0 -2.49525 3.24262 0.761445 
496 2.03147 2.50601 2.78625 0.657585 0 0 0 0.031054 -0.181222 1.52987 
472 2.0747 1.79642 2.63684 0.574765 0 0 0 -0.779197 -0.595602 -0.0764071 
473 1.75625 1.5959 2.58876 0.549215 0 0 0 -1.17766 0.12122 -2.34794 
474 2.95854 3.17647 2.68346 0.934254 0 0 0 0.901263 1.04183 0.755751 
497 1.61663 1.94128 2.57965 0.539008 0 0 0 -0.635533 -1.02514 -0.520707 
502 2.22662 2.57159 2.71503 0.667085 0 0 0 0.220395 0.0468159 1.38663 
477 3.17713 2.0138 2.59479 0.781978 0 0 0 1.29713 -0.453759 0.857144 
513 2.63016 3.0298 3.05944 0.919997 0 0 0 0.557671 0.805124 1.27699 
479 1.80985 1.75127 2.41699 0.49856 0 0 0 -1.15679 -0.356576 -2.63233 
501 1.6536 2.4538 3.00118 0.69825 0 0 0 -0.144828 -0.37635 1.73335 
503 2.03372 3.1535 2.47845 0.734325 0 0 0 0.32842 1.26102 0.849376 
482 1.57532 3.16057 3.12964 0.875848 0 0 0 0.0454471 0.862645 1.49566 
511 3.00814 2.13234 2.41307 0.702011 0 0 0 1.18574 -0.463512 0.75435 
510 2.10249 2.54653 2.61072 0.623521 0 0 0 0.225985 -0.0462955 1.38351 
508 2.62305 1.96044 3.05692 0.772121 0 0 0 0.282792 -0.409111 1.38038 
505 3.15567 2.91939 3.22206 1.06052 0 0 0 0.887149 0.587056 1.13087 
499 1.80691 1.78436 2.91322 0.645106 0 0 0 -0.70549 -0.515552 0.136752 
495 2.94831 1.72933 2.7966 0.758141 0 0 0 0.827147 -0.506845 1.0725 
489 3.12957 1.50361 3.00017 0.868009 0 0 0 0.959289 -0.334811 1.04648 
490 2.37284 2.40854 2.58346 0.629827 0 0 0 0.304731 -0.181171 1.22528 
491 2.27434 1.49882 2.74564 0.62995 0 0 0 -0.618171 -0.160368 0.104054 
506 1.97648 2.06882 3.04671 0.700279 0 0 0 -0.385119 -0.559229 1.21407 
493 3.07267 3.01075 2.79147 0.943094 0 0 0 1.00008 0.81725 0.886012 
480 2.35966 2.25058 2.39424 0.56922 0 0 0 0.406834 -0.387119 1.22443 
ITEM: TIMESTEP
800991
ITEM: NUMBER OF ATOMS
512
ITEM: BOX BOUNDS ss ss ss
-2.2775349561678951e-01 3.2932607586404616e+00
-4.0122540508749138e-01 3.2891132425832117e+00
-1.7039273299291779e-01 3.2223573019164853e+00
ITEM: ATOMS id x y z width_SPH x_COM y_COM z_COM vx vy vz 
23 0.539288 1.16104 0.372781 0.613015 0 0 0 0.633793 -0.097635 -0.569968 
3 -0.140331 -0.124434 0.093973 1.0357 0 0 0 -1.01065 -0.934122 -0.881339 
4 1.1215 0.71024 0.265508 0.622553 0 0 0 0.00937301 0.209787 -1.02933 
5 0.225459 1.27088 -0.0394023 0.78251 0 0 0 -0.197428 -0.301958 -0.96649 
6 0.0115256 1.14394 0.376958 0.727353 0 0 0 -0.762229 -0.268009 -0.70538 
22 0.128621 1.05029 0.0595991 0.785117 0 0 0 -0.507385 -0.424298 -0.970654 
8 0.686461 0.733454 -0.0391971 0.747514 0 0 0 0.0953361 -0.433137 -1.18303 
9 1.3567 -0.241855 0.26349 0.804206 0 0 0 -0.298884 -1.1864 -1.40895 
10 -0.0863169 -0.263406 0.026044 1.07371 0 0 0 -0.931965 -0.985724 -0.901899 
11 0.920706 1.15036 -0.0285258 0.696437 0 0 0 0.752231 -0.165333 -0.435078 
12 0.461887 1.343 0.164183 0.674424 0 0 0 0.502726 -0.204157 -0.606933 
13 0.278628 -0.29931 0.200451 0.957907 0 0 0 -0.806293 -1.14362 -1.01851 
14 0.97204 1.22081 0.39007 0.568523 0 0 0 1.27038 0.142498 0.81278 
15 1.08249 0.66997 0.304807 0.617964 0 0 0 -0.067888 0.142896 -1.1607 
16 0.612756 -0.235829 0.244739 0.869625 0 0 0 -0.630647 -1.16658 -1.20388 
17 0.878269 0.253887 0.00522744 0.783181 0 0 0 -0.2986 -0.660952 -1.49783 
18 0.562191 0.565602 0.356092 0.673122 0 0 0 -0.327146 -0.544887 -1.23563 
274 1.4895 1.31441 0.568093 0.508707 0 0 0 -0.20663 -0.281917 4.84923 
20 0.67939 0.940679 0.29778 0.628464 0 0 0 0.463994 -0.143612 -0.76644 
62 1.19143 1.02676 0.635987 0.499497 0 0 0 0.00574987 0.577739 1.37858 
50 0.549986 -0.381032 0.627222 0.850633 0 0 0 -0.738642 -1.36614 -0.856476 
31 -0.0666993 1.19079 0.657984 0.694831 0 0 0 -0.999913 -0.0999409 -0.584635 
44 0.384567 0.857336 0.611344 0.61198 0 0 0 -0.317968 -0.373734 -1.12025 
24 1.01877 -0.213786 1.39568 0.679355 0 0 0 -0.123957 -1.69285 0.603288 
353 1.43469 1.07794 1.35086 0.306619 0 0 0 -0.477985 -3.5692 0.635324 
26 -0.135939 1.02548 1.49494 0.658914 0 0 0 -1.52795 0.0880347 0.0612289 
27 0.398738 1.14913 0.832389 0.546231 0 0 0 -0.0929912 0.0262037 -1.24833 
28 0.947155 0.224997 1.38726 0.550774 0 0 0 -0.881453 -1.47364 0.742574 
91 0.800641 1.12867 1.21354 0.410234 0 0 0 -0.998659 -0.848698 -0.341463 
303 1.47401 1.06096 1.34497 0.30898 0 0 0 0.971359 -3.79511 0.77024 
65 0.669833 0.471781 1.33838 0.53013 0 0 0 -1.15558 -1.29713 0.0919785 
32 0.390326 -0.3474 1.28432 0.80911 0 0 0 -0.778083 -1.47594 -0.132794 
33 0.747581 -0.2119 1.15272 0.709654 0 0 0 -0.599461 -1.55105 -0.195141 
173 0.936214 0.960754 1.29479 0.396885 0 0 0 -3.46699 -1.14496 -0.810947 
35 1.49751 0.0185829 0.818711 0.616276 0 0 0 -0.421794 -1.4179 -1.15814 
21 1.50709 1.44185 1.49138 0.220514 0 0 0 0.245163 1.59436 0.618047 
154 1.32469 1.31545 1.43483 0.268891 0 0 0 1.65052 2.35665 -4.96159 
38 0.219851 1.02869 0.800809 0.601115 0 0 0 -0.640095 -0.16965 -1.01704 
39 -0.22746 0.894409 1.43968 0.703334 0 0 0 -1.58738 -0.0296972 -0.0849059 
2 1.14967 0.675238 1.21354 0.426028 0 0 0 -4.14272 -2.31402 -1.38028 
351 0.859145 1.19145 1.32514 0.381097 0 0 0 -0.727953 -0.464354 0.443698 
42 0.79997 1.37177 1.32996 0.382826 0 0 0 0.818869 -0.146459 1.05489 
195 1.40657 0.799866 1.18838 0.381451 0 0 0 -2.14171 -3.62157 -0.893318 
318 1.49221 1.0687 1.34922 0.306651 0 0 0 1.80137 -3.84513 0.632323 
45 0.998553 0.224028 1.32982 0.545673 0 0 0 -1.04165 -1.56828 0.537155 
46 0.610446 0.267936 0.790682 0.635117 0 0 0 -0.974927 -0.894081 -1.36005 
47 1.21211 0.915315 0.83575 0.454217 0 0 0 -1.731 -0.485146 0.988006 
48 0.526618 0.788819 1.37475 0.498784 0 0 0 -1.0529 -1.06535 0.0363399 
250 1.49187 1.08593 1.35641 0.302458 0 0 0 1.96545 -3.83533 0.344686 
79 1.49623 1.36941 1.46082 0.233518 0 0 0 3.64291 0.757626 0.550612 
51 0.476675 1.30496 0.949271 0.506038 0 0 0 0.169087 0.221636 -1.33575 
52 1.29203 0.226352 1.31754 0.525364 0 0 0 -0.907387 -1.91141 0.78493 
53 -0.0398862 0.626632 1.25892 0.678804 0 0 0 -1.45045 -0.441278 -0.414629 
54 1.02301 -0.400932 1.42876 0.747461 0 0 0 0.00507582 -1.74379 0.513766 
385 1.48526 1.28966 1.43147 0.252413 0 0 0 3.42469 -2.10699 0.490686 
56 1.27651 0.103591 1.02253 0.574015 0 0 0 -0.869652 -1.66904 -0.734821 
178 0.99503 1.43603 1.45857 0.329984 0 0 0 2.91019 1.35576 0.624044 
115 1.50526 1.15041 1.3764 0.28702 0 0 0 3.09618 -4.385 0.777847 
59 0.618216 0.602601 1.24067 0.517391 0 0 0 -1.31677 -1.26833 -0.59604 
124 1.46275 1.03846 1.33351 0.314952 0 0 0 0.307918 -3.79375 1.08058 
306 1.50773 -0.285866 0.765565 0.723846 0 0 0 -0.127712 -1.6043 -0.682424 
64 0.863755 -0.339056 1.3046 0.736469 0 0 0 -0.275645 -1.69422 0.221035 
119 1.46935 1.29803 1.43364 0.251085 0 0 0 3.24242 -1.67036 0.900289 
313 1.06027 1.33634 1.41902 0.322542 0 0 0 1.09858 0.946872 2.21121 
149 1.36226 1.21564 1.35164 0.28713 0 0 0 -1.32965 -1.55922 -0.796617 
179 1.27091 0.655442 1.19794 0.420362 0 0 0 -3.49655 -2.75723 -1.57707 
106 1.48398 1.28128 1.42805 0.254531 0 0 0 3.33299 -2.41773 0.653203 
322 1.48977 1.08075 1.35422 0.303752 0 0 0 1.82442 -3.82967 0.432354 
19 1.48533 0.423846 1.00494 0.484895 0 0 0 -0.852835 -1.86255 -1.91697 
512 1.49419 1.3562 1.4562 0.236441 0 0 0 3.67196 0.311631 0.467524 
301 0.930611 1.30713 1.40803 0.352103 0 0 0 0.84439 0.695689 0.47322 
214 1.39941 0.983951 1.30052 0.332296 0 0 0 -2.34877 -3.66495 1.32672 
77 0.453287 1.43621 1.29507 0.467504 0 0 0 -0.72998 0.322714 -0.756577 
358 0.802631 1.13455 1.1541 0.418095 0 0 0 -0.811565 -0.815798 -0.341103 
81 0.658631 0.594056 1.15419 0.517896 0 0 0 -1.4327 -1.24583 -1.06383 
71 0.654125 1.22741 1.34848 0.421632 0 0 0 -0.472689 -0.274676 -0.366884 
329 0.87255 1.19711 1.34631 0.376298 0 0 0 -0.663962 -0.284645 0.350688 
57 1.51229 0.6447 1.1874 0.412432 0 0 0 -0.122629 -3.05676 -1.62631 
122 1.21655 0.673188 1.2029 0.420715 0 0 0 -3.98086 -2.58494 -1.52524 
74 0.974795 0.845288 1.26176 0.41189 0 0 0 -4.06631 -1.5923 -1.05765 
228 1.19611 1.41564 1.46552 0.285848 0 0 0 3.66136 1.69391 2.54381 
198 0.988608 1.43717 1.45868 0.331364 0 0 0 2.87825 1.25699 0.754181 
165 1.32819 0.926629 1.25837 0.35344 0 0 0 -4.30456 -3.50947 0.956157 
101 1.00028 1.23476 1.37484 0.345701 0 0 0 -1.00794 0.365 1.16492 
82 0.914208 0.73178 1.19891 0.446425 0 0 0 -3.04105 -1.67019 -1.19377 
229 1.43794 1.01783 1.32157 0.321265 0 0 0 -0.817595 -3.73961 1.25684 
66 0.0779125 -0.209393 2.31732 0.901788 0 0 0 -0.687954 -1.05208 0.580833 
67 0.896592 0.389783 1.98979 0.568993 0 0 0 0.535195 -0.0874426 0.637797 
68 1.03629 0.897866 1.78784 0.431439 0 0 0 0.892997 2.98622 -4.25775 
95 0.398484 -0.0109036 2.10984 0.741995 0 0 0 -0.249923 -0.999984 0.679927 
70 0.431862 1.36488 2.12842 0.534681 0 0 0 0.501916 -0.113954 0.726894 
88 0.0603608 0.335404 2.25425 0.754696 0 0 0 -0.785907 -0.437358 0.780299 
55 0.179151 0.110081 1.56622 0.715517 0 0 0 -0.990356 -1.03047 0.129746 
63 0.0686961 1.42392 1.57716 0.57445 0 0 0 -1.32736 0.122348 0.333571 
87 -0.124827 0.602196 1.97093 0.726216 0 0 0 -1.23339 -0.227801 0.586438 
75 0.13423 1.38274 2.08426 0.597903 0 0 0 -0.600612 -0.111102 0.927871 
86 1.52819 0.494282 1.73489 0.483927 0 0 0 0.0889849 0.601258 0.00421547 
90 0.772498 1.18916 2.00601 0.467509 0 0 0 2.16492 1.08647 -1.69339 
78 0.397216 -0.00263117 2.21456 0.755242 0 0 0 -0.216487 -0.931591 0.705691 
113 0.978008 1.36 2.06098 0.439916 0 0 0 2.96972 2.54541 -6.73525 
93 0.811342 0.804863 2.0233 0.511044 0 0 0 1.24664 0.892038 -0.290662 
92 0.388019 0.389793 1.87057 0.619936 0 0 0 -0.311896 -0.630193 0.888693 
108 1.1812 0.815748 2.12936 0.500495 0 0 0 1.0368 2.73476 -3.26161 
83 0.717766 1.15514 1.91968 0.462905 0 0 0 1.76402 0.737042 -0.78692 
84 0.247413 0.0622351 2.16075 0.758666 0 0 0 -0.490192 -0.857547 0.680797 
96 1.42755 0.839312 1.89148 0.437819 0 0 0 0.311088 5.24146 -7.87433 
127 1.45838 0.642889 2.04464 0.504504 0 0 0 0.17939 2.32783 -2.5103 
34 -0.00995224 0.530521 1.66397 0.680598 0 0 0 -1.2569 -0.446993 0.292416 
60 0.616722 0.958432 1.89369 0.49654 0 0 0 0.906029 0.186403 0.694756 
25 1.06931 0.282777 1.61881 0.537639 0 0 0 -0.332273 -0.974025 1.42411 
76 0.5695 0.905025 1.57236 0.476953 0 0 0 -0.410872 -0.726924 0.959399 
94 0.548013 0.812209 1.57409 0.494661 0 0 0 -0.474155 -0.799144 1.01572 
37 0.451646 1.06436 1.55401 0.483798 0 0 0 -0.715229 -0.372705 0.801532 
49 -0.225097 0.992379 1.53528 0.693614 0 0 0 -1.56996 0.0719974 0.0721422 
125 1.09268 1.35857 2.31576 0.494745 0 0 0 1.87402 1.8793 -4.76211 
370 1.52837 0.876192 2.34621 0.535457 0 0 0 -0.114013 2.66185 -3.73618 
121 1.2299 0.055717 2.56175 0.739897 0 0 0 0.420646 -0.463452 0.188908 
97 0.741256 0.963636 2.6719 0.641808 0 0 0 0.791099 0.769511 -0.0277024 
98 0.311901 1.033 2.82434 0.738885 0 0 0 -0.0618675 0.189116 0.942182 
99 0.716606 0.0242829 2.58279 0.779047 0 0 0 0.238156 -0.650594 0.651577 
100 0.647803 0.403616 2.84607 0.773452 0 0 0 0.218156 0.0515966 0.748528 
128 0.383363 1.44118 2.49724 0.615766 0 0 0 0.2915 -0.114642 0.746883 
131 0.549718 1.23793 2.93584 0.721724 0 0 0 0.375446 0.238876 0.767529 
103 1.03332 0.516068 2.74005 0.695683 0 0 0 0.557502 0.579615 -0.00876433 
130 1.37067 0.465211 2.56845 0.651141 0 0 0 0.363724 0.736496 -0.682356 
114 1.06694 0.880379 2.58086 0.60421 0 0 0 0.894395 1.4752 -1.26378 
129 0.508149 0.0503794 3.07878 0.938569 0 0 0 -0.0943825 -0.452575 0.926424 
116 -0.0918057 0.828692 2.48471 0.768908 0 0 0 -0.926303 -0.00656023 0.912672 
117 -0.11281 0.373906 2.52757 0.849199 0 0 0 -0.96399 -0.312893 0.85835 
109 0.427185 0.944434 3.03849 0.793869 0 0 0 0.046003 0.256785 0.963222 
110 0.486302 -0.255058 2.78202 0.938173 0 0 0 -0.121538 -0.936647 0.764148 
123 1.28799 1.23656 2.37884 0.511352 0 0 0 0.834573 2.64152 -5.32642 
112 1.16532 0.424952 2.80165 0.724467 0 0 0 0.467858 0.431157 0.041303 
162 0.457141 2.5951 0.566883 0.691737 0 0 0 -0.198994 0.795897 -0.433717 
132 0.662221 2.53027 0.21789 0.732799 0 0 0 0.175156 0.27196 -0.335469 
133 0.0922397 1.78605 0.558714 0.665838 0 0 0 -0.455931 0.139886 -0.504163 
134 0.162152 2.01557 0.242429 0.73626 0 0 0 -0.340446 0.197187 -0.589831 
135 1.32373 2.40948 0.446202 0.616065 0 0 0 0.357542 -1.41327 1.05044 
136 1.10481 2.57107 0.555835 0.622616 0 0 0 0.397426 -0.469646 0.464787 
137 0.0490355 2.5059 0.614626 0.758155 0 0 0 -0.886018 0.864025 -0.494795 
138 0.513596 2.21214 0.0647104 0.745662 0 0 0 0.264204 0.00929653 -0.511827 
139 0.291597 2.24805 0.292715 0.722672 0 0 0 -0.186699 0.334751 -0.526099 
140 0.883335 2.73443 0.162877 0.770976 0 0 0 0.129488 0.361225 -0.290012 
141 -0.0439168 2.3866 0.16064 0.863761 0 0 0 -0.835647 0.58852 -0.612654 
142 1.45321 2.54108 0.57578 0.605432 0 0 0 -0.0152815 -1.15817 0.848442 
143 1.27571 2.91643 0.597735 0.687649 0 0 0 -0.0928426 0.533071 -0.00199034 
160 0.794611 3.07602 0.428214 0.804014 0 0 0 -0.2077 1.16479 -0.29027 
145 0.495422 2.00223 0.0139388 0.740951 0 0 0 0.384887 -0.140967 -0.551342 
146 1.33715 2.00136 0.341055 0.601081 0 0 0 0.654425 -2.10928 2.10563 
147 0.766199 1.82077 0.226307 0.636295 0 0 0 1.19529 -0.679993 0.317637 
148 1.26681 3.02295 0.25203 0.799051 0 0 0 -0.0618228 0.640655 -0.233346 
156 0.0923344 1.95726 0.419736 0.705679 0 0 0 -0.503541 0.220016 -0.514314 
150 1.0832 1.84153 0.514016 0.549521 0 0 0 1.65377 -2.03895 2.64039 
155 0.802651 1.62672 0.139303 0.650624 0 0 0 1.20365 -0.523868 0.232162 
161 1.37471 2.00683 0.411133 0.582785 0 0 0 0.55447 -2.40395 2.53754 
159 0.0392287 1.48545 -0.0352903 0.821637 0 0 0 -0.532887 -0.159705 -0.89107 
170 1.13968 2.09623 1.09396 0.440547 0 0 0 1.46599 -3.77868 4.57913 
163 0.512819 2.85755 0.715426 0.721364 0 0 0 -0.362565 1.26011 -0.434157 
202 0.614153 2.0095 1.00203 0.503112 0 0 0 1.09995 -0.139512 -1.05797 
167 0.867406 1.79174 1.05682 0.436401 0 0 0 2.56072 -1.83466 2.56804 
225 1.49735 1.51636 1.51443 0.217517 0 0 0 -0.855249 -0.815553 -0.887732 
169 0.925715 1.73867 1.43072 0.356733 0 0 0 1.84646 -1.94809 4.92862 
201 -0.0238983 2.74169 0.921927 0.78736 0 0 0 -1.10164 1.15805 -0.493666 
171 0.344798 1.88397 1.31499 0.510871 0 0 0 -0.752183 0.282534 -1.14349 
183 1.05569 1.45292 1.4625 0.315989 0 0 0 3.41749 1.60678 1.20759 
30 0.79209 1.64482 1.51741 0.376352 0 0 0 1.02612 0.0813318 0.161957 
174 0.206879 1.77876 1.03603 0.567114 0 0 0 -0.476548 0.230794 -1.02289 
210 1.50148 1.47893 1.50125 0.217347 0 0 0 0.564741 0.988337 0.142649 
157 1.18864 2.27083 1.02742 0.478469 0 0 0 0.927571 -2.54604 1.97881 
152 1.07997 2.08941 0.712467 0.523343 0 0 0 1.53883 -2.43135 2.37604 
314 1.50113 1.48138 1.50212 0.217249 0 0 0 0.469955 0.864404 0.0387147 
197 0.0748407 2.23525 1.0802 0.643443 0 0 0 -1.00241 0.595572 -0.809917 
180 0.421874 2.02562 1.49853 0.493813 0 0 0 -1.13656 0.339436 -0.727778 
181 0.627686 2.08579 1.41777 0.456517 0 0 0 -0.466904 0.710782 -1.41786 
428 1.18669 2.56475 1.42784 0.483302 0 0 0 -0.598137 1.18334 -1.62201 
410 1.4991 1.48774 1.50438 0.217077 0 0 0 0.802007 0.611588 -0.0323633 
184 0.816888 2.82807 1.23688 0.603671 0 0 0 -0.226958 1.57112 -1.1191 
460 1.49413 1.50152 1.50836 0.217102 0 0 0 -0.273504 -0.0777581 -0.508047 
186 0.975643 2.81774 1.04021 0.606021 0 0 0 -0.0236948 1.00239 -0.639736 
196 0.570964 1.70122 1.47318 0.432141 0 0 0 -0.553849 0.191655 -0.178926 
188 0.309624 2.5385 1.32084 0.613259 0 0 0 -0.883903 1.28406 -1.11734 
200 0.952342 2.70818 1.14964 0.565977 0 0 0 0.0652645 0.959669 -1.03812 
190 0.811569 1.85976 1.03819 0.453606 0 0 0 2.2127 -1.24137 0.979075 
166 0.578325 1.64115 0.820062 0.51415 0 0 0 1.37957 -0.1268 -0.491387 
192 0.613365 2.06273 1.28736 0.468808 0 0 0 0.152157 0.522688 -1.66712 
193 1.11512 2.50091 1.38662 0.476142 0 0 0 -0.418111 0.868701 -1.5248 
203 1.49709 1.53528 1.52114 0.218901 0 0 0 -1.53197 -1.18218 -1.05526 
208 1.50103 1.48233 1.50246 0.217215 0 0 0 0.443721 0.812206 0.00535612 
41 1.49969 1.49087 1.50544 0.217015 0 0 0 0.111135 0.31917 -0.333965 
342 1.4981 1.50466 1.51029 0.217086 0 0 0 -0.413066 -0.390655 -0.699262 
164 1.49914 1.49496 1.50687 0.216986 0 0 0 -0.0435594 0.0861147 -0.46389 
40 1.49907 1.4955 1.50706 0.216985 0 0 0 -0.0642777 0.0562572 -0.479667 
219 1.49839 1.50152 1.50918 0.217028 0 0 0 -0.293389 -0.249066 -0.63266 
73 1.49776 1.50902 1.51183 0.217208 0 0 0 -0.57903 -0.567808 -0.779508 
43 0.805604 1.44796 1.37081 0.376498 0 0 0 1.30541 -0.0247179 1.27886 
418 1.50719 1.47294 1.49917 0.21769 0 0 0 -0.374889 0.848846 0.0259557 
158 1.23226 1.80437 1.11318 0.38918 0 0 0 1.38691 -9.69043 21.2927 
394 1.50446 1.487 1.49865 0.217128 0 0 0 -0.307586 0.642704 -1.03712 
107 1.49844 1.45725 1.49537 0.218849 0 0 0 1.73309 1.28317 2.58439 
215 0.54087 2.16283 1.63004 0.479714 0 0 0 -1.42853 0.604026 -0.340505 
447 1.39749 2.80308 2.23839 0.567395 0 0 0 -0.109887 1.23068 1.24133 
205 0.0357088 1.958 2.06486 0.63064 0 0 0 -1.35405 -0.385497 0.701808 
206 1.02526 2.47209 2.29806 0.526082 0 0 0 -0.784538 0.0757738 2.24091 
207 0.438846 2.84842 1.72195 0.648682 0 0 0 -0.970144 1.7035 -0.719312 
257 1.1462 1.73854 1.5693 0.308092 0 0 0 0.150676 1.36719 0.792203 
194 0.555392 1.94539 1.63956 0.452294 0 0 0 -1.32467 0.0738547 0.248907 
235 1.21548 2.18612 2.35238 0.493661 0 0 0 -0.515625 -1.03703 1.78975 
211 0.956349 2.92222 2.05614 0.605036 0 0 0 -0.719749 1.80985 0.0663133 
212 0.45313 2.60916 1.67387 0.582915 0 0 0 -1.16159 1.49546 -0.741569 
213 0.821558 1.77282 1.80143 0.397827 0 0 0 -0.215317 0.0123025 -1.25216 
242 0.400459 2.35909 2.29194 0.595599 0 0 0 -1.03597 -0.27233 1.19628 
231 0.848341 2.32006 2.12816 0.491558 0 0 0 -1.4664 0.000741015 2.1859 
216 1.16683 2.94849 2.0896 0.599369 0 0 0 -0.547718 1.81478 0.245496 
217 0.343201 2.85139 1.83538 0.671173 0 0 0 -1.07812 1.48818 -0.520584 
218 0.188132 2.60236 1.94756 0.653438 0 0 0 -1.42615 0.765577 -0.0979106 
468 0.852818 2.30967 1.8553 0.453564 0 0 0 -2.19982 1.12489 0.887552 
204 0.982439 2.13675 1.79705 0.400181 0 0 0 -3.1138 1.07131 0.489702 
221 0.781361 2.16855 1.99554 0.461678 0 0 0 -1.81775 -0.142094 1.89154 
222 0.874645 2.13024 1.82114 0.418688 0 0 0 -2.52242 0.608161 0.876289 
223 0.648261 1.75377 1.73341 0.42543 0 0 0 -0.64742 -0.244265 0.582221 
246 1.14636 1.78049 1.58 0.313136 0 0 0 -0.965535 1.32009 0.384667 
104 0.233991 1.55829 2.31381 0.605702 0 0 0 -0.273984 -0.332357 0.943795 
226 1.33009 3.06355 2.06162 0.626231 0 0 0 -0.383213 1.88233 0.038348 
227 0.147301 1.58649 2.08044 0.590157 0 0 0 -0.739034 -0.333816 0.957672 
234 1.08919 1.77502 1.65724 0.327876 0 0 0 -0.111229 5.13766 -13.7861 
238 1.01266 1.72345 1.58264 0.333679 0 0 0 1.23727 1.37748 -3.74596 
321 1.32125 2.33262 1.84131 0.409754 0 0 0 -2.19687 3.09489 1.05814 
475 0.852223 2.20785 1.83084 0.434529 0 0 0 -2.39327 0.831248 0.936016 
476 1.236 2.27058 2.30391 0.488504 0 0 0 -0.669961 -0.59181 2.29724 
189 0.782455 2.23929 1.56136 0.444169 0 0 0 -1.22525 1.24339 -1.12484 
239 1.3495 1.89792 1.62616 0.304188 0 0 0 -5.24294 3.48691 3.25205 
328 1.239 2.61189 1.80516 0.48029 0 0 0 -1.13654 2.5566 -0.289761 
185 0.0296367 2.45809 1.54539 0.667553 0 0 0 -1.48899 0.759411 -0.529495 
337 1.08116 2.12647 1.79494 0.384859 0 0 0 -3.71922 1.54293 0.134456 
462 1.494 3.28882 1.96819 0.696856 0 0 0 -0.327496 1.96139 -0.252657 
168 1.33185 1.85861 1.63155 0.298786 0 0 0 -4.91612 3.88175 2.8665 
247 1.21226 2.26017 1.82707 0.399115 0 0 0 -3.19382 2.60101 0.841825 
177 1.34232 2.09073 1.75652 0.350182 0 0 0 -4.1039 3.77396 -1.22934 
485 1.5067 2.80876 2.33205 0.583721 0 0 0 0.0957706 0.928991 1.38007 
264 1.3721 2.24531 1.827 0.387489 0 0 0 -2.45596 3.42765 0.951544 
69 1.4045 2.22362 1.82304 0.381681 0 0 0 -2.28844 3.58826 0.832351 
483 1.42127 2.31225 1.83497 0.402123 0 0 0 -1.5772 3.46075 1.19416 
350 1.43899 2.29199 1.83175 0.39713 0 0 0 -1.51862 3.54179 1.19888 
249 0.810744 1.71806 2.34598 0.511764 0 0 0 1.1286 -0.64207 -0.195762 
420 1.11136 1.94425 1.68018 0.344427 0 0 0 -3.58137 1.60313 -2.54913 
240 1.42889 1.99382 1.67738 0.320759 0 0 0 -4.04918 3.95807 0.324318 
300 1.51916 1.67207 1.57346 0.245251 0 0 0 -3.20795 2.24316 -0.655832 
398 1.51863 1.67007 1.57263 0.244757 0 0 0 -3.21636 2.1926 -0.697798 
29 0.0998248 1.58839 1.57877 0.564953 0 0 0 -1.34135 0.0104279 0.251678 
224 1.1137 1.66991 1.54005 0.307837 0 0 0 2.25641 1.35921 0.490267 
111 0.951813 1.52523 1.75499 0.365728 0 0 0 2.94887 3.99152 -11.4186 
105 1.42238 1.7449 1.56873 0.264089 0 0 0 -3.21383 2.29604 8.89569 
172 1.02342 1.85688 1.56823 0.344256 0 0 0 -0.615071 -1.55323 3.58388 
153 1.36635 1.72338 1.67661 0.280177 0 0 0 -1.66317 12.4765 -21.7994 
341 1.49772 1.55245 1.52725 0.220824 0 0 0 -2.06993 -1.2073 -1.11722 
144 1.49737 1.55543 1.52765 0.221189 0 0 0 -2.02533 -1.23512 -0.918216 
332 1.49424 1.56547 1.53147 0.222688 0 0 0 -0.541141 -0.876439 -0.943521 
486 1.5315 1.94567 2.15279 0.420409 0 0 0 -0.552384 0.806822 -5.18653 
336 1.53233 1.71296 1.59081 0.255617 0 0 0 -2.86306 3.06943 0.0542883 
80 1.49759 1.55013 1.52642 0.220531 0 0 0 -2.00267 -1.21926 -1.1123 
232 0.492161 2.02195 2.69548 0.642611 0 0 0 -0.0745454 -0.804794 1.41705 
233 0.819153 1.89517 2.82464 0.638636 0 0 0 0.440513 -0.774781 1.02624 
255 -0.0545581 2.84034 2.49112 0.830806 0 0 0 -1.33128 0.6625 0.395587 
266 0.366653 1.98499 2.58794 0.636922 0 0 0 -0.320956 -0.7494 1.30894 
236 1.10598 2.61864 2.76414 0.65124 0 0 0 -0.0562939 -0.167821 1.86494 
237 0.373429 2.44496 2.4469 0.637518 0 0 0 -0.879449 -0.195092 1.14201 
262 0.71918 1.67966 2.53177 0.568063 0 0 0 0.926268 -0.484211 0.339126 
254 0.214175 2.73861 3.11697 0.891496 0 0 0 -0.712472 0.2734 1.45049 
118 0.0283928 1.48111 2.6882 0.743108 0 0 0 -0.653598 -0.166583 1.01432 
241 0.939423 2.12978 3.11426 0.728298 0 0 0 0.137872 -0.661522 1.54257 
265 0.032955 3.01139 2.61218 0.868523 0 0 0 -1.12544 0.909766 0.525471 
243 0.559648 3.01397 2.64267 0.760244 0 0 0 -0.508833 1.0028 0.858361 
244 -0.0538463 3.17009 2.96979 1.01469 0 0 0 -0.989223 0.906806 0.853306 
245 1.25688 2.18075 2.86042 0.631953 0 0 0 -0.0453653 -0.976659 1.37665 
256 0.0639215 2.93296 2.98771 0.928311 0 0 0 -0.938694 0.617747 1.10109 
260 -0.0684625 2.86215 2.72929 0.884981 0 0 0 -1.22646 0.592826 0.736867 
248 0.535507 2.66342 2.98132 0.774499 0 0 0 -0.342576 0.0705758 1.64872 
507 1.514 2.78544 2.91087 0.717642 0 0 0 0.0016273 0.241188 1.77996 
258 0.563515 2.96535 3.08817 0.865752 0 0 0 -0.344518 0.62305 1.47811 
251 0.511304 2.47669 2.63315 0.654784 0 0 0 -0.49978 -0.285974 1.47387 
252 -0.111925 2.39186 2.39214 0.756581 0 0 0 -1.48803 -0.0397598 0.500056 
253 1.04036 3.18639 2.78129 0.794805 0 0 0 -0.146933 1.14523 1.12595 
267 1.82892 0.385598 0.477777 0.596853 0 0 0 -0.154258 -0.0364295 -2.084 
268 2.77884 0.405526 0.286062 0.786133 0 0 0 1.25567 -0.459833 -1.24518 
269 2.2067 0.0402859 -0.170099 0.890932 0 0 0 0.37426 -0.769623 -1.63991 
270 2.56706 0.0594576 -0.0701743 0.911771 0 0 0 0.82707 -0.8016 -1.41335 
291 2.17938 0.517071 -0.0151489 0.745447 0 0 0 0.104535 -0.0265182 -1.80513 
272 2.88249 0.826455 0.434374 0.7207 0 0 0 1.24073 0.0309543 -1.12 
273 1.72709 1.05679 0.271324 0.594022 0 0 0 -0.639132 0.752354 0.272456 
295 2.1713 1.36023 0.380863 0.583848 0 0 0 -1.32074 0.225635 0.267973 
275 2.66358 -0.0269335 -0.001819 0.933268 0 0 0 0.952079 -0.903058 -1.25183 
276 1.80978 0.0752474 0.0483175 0.778949 0 0 0 -0.0838287 -0.687913 -1.77596 
294 1.7398 1.32132 0.468057 0.539315 0 0 0 -1.13504 0.048685 2.88243 
278 1.84913 0.118938 -0.0193142 0.792009 0 0 0 -0.0537312 -0.613861 -1.79868 
279 2.175 0.767304 0.422031 0.586648 0 0 0 -0.127591 0.71131 -1.57241 
290 2.36631 1.24236 0.156959 0.668462 0 0 0 -0.466679 0.307255 -0.928684 
281 2.44926 1.10437 0.372456 0.618622 0 0 0 -0.226725 0.581786 -1.09595 
289 2.44024 0.744301 0.539647 0.597764 0 0 0 0.57693 0.387518 -1.48427 
292 2.33956 0.902124 0.628314 0.547957 0 0 0 0.15192 0.787007 -1.36187 
284 1.63517 0.788283 0.38501 0.57014 0 0 0 -0.50943 0.940164 -0.96219 
285 2.84964 1.17716 0.0625909 0.791309 0 0 0 0.715087 0.0555141 -1.2482 
286 1.78723 0.485721 0.444937 0.58735 0 0 0 -0.294097 0.28261 -2.06145 
287 2.57698 1.17322 0.482562 0.61156 0 0 0 0.0428278 0.539614 -1.03 
288 2.12027 0.470308 0.103728 0.706467 0 0 0 0.0548072 -0.00961036 -1.83866 
283 2.43674 -0.0381391 0.797333 0.72071 0 0 0 1.11702 -1.28521 -0.558129 
297 2.10953 0.404042 1.31447 0.507881 0 0 0 1.90411 -1.28968 1.10998 
298 2.93 0.3784 1.22614 0.699641 0 0 0 1.80706 -0.768741 0.103679 
299 2.17785 0.794496 1.15772 0.446812 0 0 0 3.04148 -0.032328 -0.486643 
326 2.16132 0.24158 1.27565 0.557615 0 0 0 1.36196 -1.47818 0.897734 
421 1.83954 1.44084 1.50274 0.295545 0 0 0 -2.29091 -3.41411 -0.0479751 
302 2.2023 0.171769 1.03879 0.593099 0 0 0 1.23409 -1.32826 -0.190313 
409 1.68111 1.13812 1.38277 0.302339 0 0 0 7.62361 -3.47557 0.200715 
304 2.56842 0.907699 0.967203 0.532659 0 0 0 1.36619 0.342787 -0.843759 
327 2.48296 0.0221894 1.06097 0.685999 0 0 0 1.27706 -1.34481 -0.00758915 
271 2.0399 0.860397 1.25086 0.407328 0 0 0 4.83305 -0.126585 -0.0685254 
325 1.98594 0.355552 1.00004 0.521514 0 0 0 1.37378 -1.15546 -1.0399 
308 1.84277 0.353845 1.39549 0.497794 0 0 0 1.14371 -1.67541 1.55099 
309 2.88629 1.00557 1.17505 0.594011 0 0 0 1.74585 0.142702 -0.102388 
352 2.85341 1.20475 1.47988 0.560578 0 0 0 1.76118 0.0542289 0.517003 
311 2.00273 0.716305 0.965147 0.458608 0 0 0 2.42592 -0.00766504 -1.77907 
312 2.53391 1.33844 0.846885 0.525579 0 0 0 -0.117221 0.548477 -0.597134 
293 2.42309 1.11164 0.861816 0.504926 0 0 0 0.210306 0.810959 -0.879185 
324 1.62813 -0.0597975 0.885016 0.633873 0 0 0 -0.11465 -1.61404 -0.6851 
315 2.60039 1.07859 1.23024 0.500886 0 0 0 1.63809 0.261111 -0.0845891 
316 2.72627 0.872234 1.06806 0.566482 0 0 0 1.68894 0.0840084 -0.390921 
317 2.17447 0.00895558 1.26039 0.630985 0 0 0 0.833489 -1.67308 0.738102 
345 2.10888 1.08501 1.35917 0.384712 0 0 0 3.15611 0.530745 0.357423 
323 2.38134 0.331226 1.4536 0.569985 0 0 0 1.39882 -1.12553 1.28541 
455 2.55583 1.28173 1.36755 0.472766 0 0 0 1.51359 0.132498 0.181895 
435 2.27639 1.22552 1.31462 0.411361 0 0 0 0.998656 0.0652596 0.565542 
448 2.20141 1.19778 1.32868 0.395787 0 0 0 1.29421 0.0627866 0.913645 
330 2.12819 0.968261 1.33153 0.403423 0 0 0 3.69312 0.317141 0.284992 
333 2.02459 1.08667 1.30522 0.371338 0 0 0 4.55174 0.0169584 1.82268 
320 2.05153 1.24466 1.39439 0.356996 0 0 0 1.45099 -0.218475 1.6762 
85 1.93766 0.688029 1.22732 0.424793 0 0 0 4.19041 -1.03498 -0.384178 
72 1.85278 0.835644 1.34412 0.381422 0 0 0 5.98998 -0.139748 -1.58452 
280 1.92793 1.15719 0.954516 0.418537 0 0 0 0.281997 -0.515999 5.51799 
282 1.82598 1.09003 1.37787 0.331795 0 0 0 7.68113 0.034976 -2.08875 
58 1.53876 0.410762 0.794833 0.520965 0 0 0 -0.628882 -0.813601 -2.48366 
7 1.78037 0.74963 1.18988 0.399087 0 0 0 4.57914 -1.93029 -1.07278 
175 1.6862 0.702471 1.18442 0.402968 0 0 0 3.05525 -2.53253 -1.39658 
151 1.67337 0.694861 1.1842 0.404025 0 0 0 2.8036 -2.59525 -1.42874 
102 1.68173 0.685797 1.18738 0.406094 0 0 0 2.8322 -2.53411 -1.39626 
401 1.68763 1.2133 1.38464 0.290459 0 0 0 6.15732 -7.39983 9.30965 
431 1.82255 1.38593 1.47812 0.294161 0 0 0 -1.17625 -3.90162 1.50283 
230 1.56873 0.813993 1.19065 0.37519 0 0 0 1.90258 -3.51168 -0.549825 
402 1.95157 1.39054 1.18276 0.365156 0 0 0 -1.92879 -6.34858 17.6081 
61 2.0614 1.43224 1.48036 0.347741 0 0 0 -1.14288 -1.58261 0.681446 
305 2.1485 1.42894 1.51639 0.368183 0 0 0 -0.452197 -0.690373 -0.938321 
89 2.192 1.4391 1.48267 0.37819 0 0 0 -0.208649 -1.02957 0.25785 
363 1.70564 1.42066 1.5125 0.263053 0 0 0 1.53664 23.0398 -69.0422 
500 2.10569 1.32175 1.88391 0.412445 0 0 0 -1.33922 1.80854 -6.18401 
355 2.35839 0.184452 1.86313 0.63447 0 0 0 0.366742 -1.07704 1.05968 
381 3.11613 1.01979 2.35073 0.739096 0 0 0 1.30341 -0.262226 0.68841 
331 2.87923 0.0788063 2.06589 0.792854 0 0 0 1.08631 -1.15047 0.611472 
364 1.76963 0.735991 2.16028 0.517308 0 0 0 -0.565271 2.08265 -2.76999 
456 2.33967 1.28734 1.85279 0.45211 0 0 0 -0.0217147 -0.0187569 -0.567892 
334 2.84871 0.650638 1.56623 0.619735 0 0 0 1.61392 -0.526237 0.796501 
379 2.85971 0.751267 2.16119 0.662739 0 0 0 0.956985 -0.296437 0.716356 
357 2.79171 1.1106 1.69075 0.555739 0 0 0 1.47431 -0.156958 0.974928 
349 2.50806 1.06994 1.68912 0.485856 0 0 0 1.04806 -0.242948 1.07412 
338 2.91329 1.04907 1.57017 0.592008 0 0 0 1.69167 -0.0901746 0.716306 
339 2.60637 0.208205 1.78259 0.663658 0 0 0 0.880246 -1.09945 0.930362 
340 2.03196 0.919077 1.73824 0.427768 0 0 0 0.610105 2.04117 -2.76116 
380 2.25571 1.36196 2.17206 0.492286 0 0 0 -0.922173 0.227007 -1.48844 
356 2.53184 0.904635 2.0194 0.548951 0 0 0 0.22969 -0.0733549 0.59551 
359 2.00327 -0.0960518 2.15981 0.722347 0 0 0 0.00875107 -1.20852 0.524041 
344 2.80142 -0.0437801 2.11852 0.816015 0 0 0 0.909467 -1.29327 0.606358 
348 3.04077 1.33757 1.60003 0.619055 0 0 0 1.74341 -0.105231 0.435866 
346 1.58773 0.374972 1.94495 0.544623 0 0 0 0.0740661 0.360946 0.055144 
354 2.04636 0.843231 1.58868 0.422711 0 0 0 2.33699 1.06375 -0.593072 
368 2.37677 0.682569 2.36623 0.614732 0 0 0 -0.272373 0.0967013 0.0449676 
366 1.71031 1.38231 2.04877 0.4057 0 0 0 -1.48435 7.06505 -20.3624 
371 2.18583 0.971475 2.33558 0.551661 0 0 0 -0.951536 0.81307 -1.29552 
377 1.74601 1.18745 1.97097 0.407214 0 0 0 -1.22646 7.54516 -18.0425 
360 1.90747 0.404478 2.3254 0.616733 0 0 0 -0.290906 0.209315 -0.467817 
361 2.15681 1.26107 2.27566 0.509605 0 0 0 -1.32494 0.77233 -2.22142 
335 2.54276 0.223579 1.52697 0.631494 0 0 0 1.20219 -1.16844 0.995527 
384 1.99729 -0.0776372 2.77943 0.849447 0 0 0 0.0754814 -0.817693 0.466733 
376 2.66835 0.594172 2.77917 0.779063 0 0 0 0.370201 -0.267676 0.78732 
375 2.39585 0.989107 2.70504 0.665023 0 0 0 -0.36432 0.253864 0.190208 
362 2.50173 1.42621 2.86667 0.69643 0 0 0 -0.126939 -0.207824 0.712534 
126 1.54709 0.230959 2.44275 0.669909 0 0 0 0.190647 -0.0431775 -0.289625 
383 3.11738 1.16306 2.83543 0.835524 0 0 0 1.03593 -0.275979 0.89383 
365 2.9694 -0.0926769 2.52754 0.942726 0 0 0 0.96469 -1.1194 0.625891 
374 2.49303 0.362287 2.5845 0.739405 0 0 0 0.163762 -0.518993 0.603578 
367 2.83512 -0.0952178 2.44692 0.894594 0 0 0 0.828591 -1.20577 0.631829 
382 2.46012 0.611973 2.90139 0.779647 0 0 0 0.00280478 -0.0960507 0.703911 
369 2.63778 0.580109 2.64824 0.739167 0 0 0 0.331737 -0.276036 0.688844 
373 2.14105 0.726533 2.45078 0.603869 0 0 0 -0.651274 0.594282 -0.680573 
406 2.09112 2.16896 0.430839 0.611265 0 0 0 -1.06554 -1.43411 0.481113 
386 2.0284 2.99123 0.371049 0.772705 0 0 0 -0.203153 0.499834 -0.469319 
387 2.72329 1.69898 0.609379 0.620611 0 0 0 0.125393 -0.139214 -0.670057 
408 1.85314 2.49566 0.317939 0.670082 0 0 0 -0.440779 -0.943468 0.185429 
389 2.18616 3.05826 0.428308 0.790716 0 0 0 -0.0941003 0.695841 -0.557209 
390 2.98317 1.77901 0.535155 0.707931 0 0 0 0.849938 -0.129239 -0.779554 
391 2.11535 1.83161 0.648484 0.532527 0 0 0 -2.13321 -1.78883 1.75422 
403 2.5459 2.18678 0.119716 0.75135 0 0 0 -0.0754427 -0.411433 -0.815066 
393 2.66093 2.28842 0.183065 0.764202 0 0 0 0.17362 -0.246712 -0.873329 
405 2.78811 3.02173 -0.121111 1.01931 0 0 0 0.448673 0.483333 -0.80274 
395 1.81381 2.31843 0.625909 0.567286 0 0 0 -0.975034 -2.06636 1.31383 
396 2.10804 2.72738 0.663081 0.647389 0 0 0 -0.447571 -0.0233192 -0.398819 
397 2.16783 2.01056 -0.00250789 0.730131 0 0 0 -0.551797 -0.808911 -0.326907 
407 3.03609 2.65996 0.0661371 0.941521 0 0 0 0.752092 0.242126 -0.877931 
399 2.55634 2.07553 0.339481 0.678297 0 0 0 -0.217672 -0.510624 -0.662323 
400 3.03867 3.09633 0.0948057 1.03122 0 0 0 0.703318 0.61565 -0.726258 
404 2.54911 1.82912 0.1351 0.717734 0 0 0 -0.227234 -0.383312 -0.795843 
392 1.64897 1.70191 1.30233 0.313645 0 0 0 -4.3961 -24.5724 61.7905 
347 1.74968 2.58561 1.44171 0.482407 0 0 0 -0.442395 0.909025 -1.16964 
470 3.18034 2.73685 1.51285 0.777333 0 0 0 1.36502 0.545248 -0.283498 
412 2.83896 2.70487 0.90463 0.719796 0 0 0 0.791075 0.476964 -0.695045 
413 2.99687 2.31763 1.18363 0.663645 0 0 0 1.32584 -0.0830611 -0.625419 
414 2.35624 1.78558 1.13988 0.461764 0 0 0 -0.742082 -1.47675 0.0408523 
415 2.18729 1.9517 0.959638 0.482594 0 0 0 -2.14017 -2.22289 1.0574 
416 1.76813 2.56765 1.21183 0.503755 0 0 0 -0.95996 -0.469333 -0.755532 
454 1.96176 3.07035 1.40585 0.634755 0 0 0 -0.187826 1.4875 -0.88099 
427 1.90156 2.97812 1.41373 0.600581 0 0 0 -0.275435 1.39298 -1.01349 
419 3.09087 2.31628 1.28366 0.68543 0 0 0 1.47358 -0.0907546 -0.502459 
457 2.18048 2.18526 1.39274 0.445662 0 0 0 0.664267 -0.848498 -0.804412 
411 1.77753 1.49709 1.51758 0.279057 0 0 0 -3.50389 -3.86785 0.147112 
422 2.52327 1.82722 0.892714 0.53417 0 0 0 -0.488507 -0.711565 -0.445584 
423 2.22281 3.17064 1.41836 0.692848 0 0 0 0.211829 1.49871 -0.625277 
424 1.98908 2.69972 0.785544 0.609122 0 0 0 -0.644646 -0.213526 -0.311734 
425 2.52502 2.65947 0.978215 0.634303 0 0 0 0.28495 0.379826 -0.81976 
426 2.16555 2.22826 1.02762 0.500696 0 0 0 -1.39637 -1.51876 -0.245595 
446 2.15404 1.47217 1.43062 0.370645 0 0 0 -0.757909 -2.07801 2.30973 
441 3.15009 2.03261 1.39372 0.670918 0 0 0 1.68535 -0.393139 -0.321686 
429 2.28301 3.01719 0.830939 0.710771 0 0 0 -0.0175301 0.880806 -0.645503 
430 3.24666 2.98694 1.29672 0.866169 0 0 0 1.22318 0.801664 -0.328428 
449 2.29124 2.24049 1.41349 0.472487 0 0 0 0.979739 -0.238111 -1.01197 
388 1.59812 2.19683 1.01816 0.463185 0 0 0 -1.12526 -4.52485 4.55136 
433 2.03727 1.73801 1.21706 0.390797 0 0 0 -3.06218 -5.99447 9.0748 
434 1.60082 2.73668 1.06615 0.558629 0 0 0 -0.646765 -0.104377 -0.507383 
432 2.37388 1.88404 1.34991 0.447539 0 0 0 0.877498 -1.55945 -0.547213 
436 3.01036 2.09203 0.843109 0.681814 0 0 0 1.07794 -0.223367 -0.688423 
437 2.8462 1.57157 0.966139 0.587293 0 0 0 0.941063 0.0775773 -0.585522 
438 2.8555 2.16438 1.42914 0.589201 0 0 0 1.62875 -0.368332 -0.503907 
439 3.06985 3.26361 1.23339 0.897857 0 0 0 0.949549 1.11243 -0.325504 
440 2.10108 2.01538 0.939851 0.483859 0 0 0 -2.34467 -2.61684 1.56023 
458 2.14521 2.40779 1.42054 0.480223 0 0 0 0.451942 0.375963 -1.04741 
464 2.20089 2.07552 1.39204 0.431482 0 0 0 0.776172 -1.57486 -0.4895 
443 2.58771 1.94946 2.09056 0.535521 0 0 0 1.22741 -0.883208 1.06626 
444 2.84859 1.46504 1.86655 0.570207 0 0 0 1.4756 -0.495901 0.741129 
445 2.81527 2.21551 2.1293 0.614388 0 0 0 1.21889 -0.376527 0.618632 
310 1.78294 2.08928 1.76574 0.364647 0 0 0 2.92955 1.76752 -0.104242 
372 1.61022 2.19644 1.81033 0.377709 0 0 0 0.39088 3.52848 0.842742 
296 2.37676 1.99587 1.7502 0.45479 0 0 0 2.7314 -0.91275 0.691444 
471 1.98874 1.90613 1.68087 0.358625 0 0 0 3.68253 -2.27041 -0.85572 
450 2.67999 1.85887 1.96779 0.537546 0 0 0 1.57155 -0.979839 0.850374 
182 1.64286 1.88949 1.64868 0.302927 0 0 0 0.631555 1.14038 2.03365 
452 2.11881 2.90997 1.68517 0.592222 0 0 0 0.466501 1.44554 -0.398903 
453 1.56028 2.45095 2.19981 0.487035 0 0 0 0.35412 0.827393 2.32798 
469 2.08406 1.70843 2.0562 0.431065 0 0 0 0.0260621 -0.355209 -3.08906 
343 2.09718 1.70346 1.57754 0.360073 0 0 0 0.921704 -3.60586 0.0493645 
481 2.16303 2.25178 1.79843 0.451738 0 0 0 2.75685 0.771879 1.1111 
467 1.86345 2.6493 1.66668 0.495962 0 0 0 0.52849 1.84498 -0.4795 
378 1.78868 2.33535 1.81545 0.420987 0 0 0 1.83507 2.73099 1.37874 
459 3.15663 2.7618 2.17728 0.803691 0 0 0 1.3311 0.599015 0.259746 
277 1.76728 1.99982 1.70693 0.34065 0 0 0 3.00494 0.914803 -1.08472 
461 1.65114 2.97998 1.7122 0.580968 0 0 0 -0.214506 1.91984 -0.769173 
263 1.87895 1.99472 1.72044 0.355845 0 0 0 3.87583 -0.294751 -0.869994 
261 1.68405 1.99279 1.69119 0.329302 0 0 0 1.71189 1.80475 -0.603537 
176 1.90639 1.54434 1.53657 0.31114 0 0 0 -2.19422 -3.76084 0.588124 
465 1.96043 2.96194 1.89533 0.597783 0 0 0 0.44138 1.55928 0.0162037 
466 2.24247 3.27131 1.79524 0.726835 0 0 0 0.419263 1.6269 -0.194184 
319 2.24975 1.91453 1.63878 0.411732 0 0 0 2.91661 -1.83103 0.106709 
478 2.18734 3.04935 2.25827 0.683237 0 0 0 0.539359 1.21412 0.572464 
484 1.90492 2.64751 2.31714 0.562312 0 0 0 0.647537 0.489742 1.45389 
187 2.13031 2.09995 1.70539 0.41371 0 0 0 3.4508 -0.36175 0.630751 
509 3.29297 2.84291 2.26144 0.875196 0 0 0 1.37373 0.653918 0.329603 
488 2.31766 1.87768 1.72535 0.429171 0 0 0 2.78252 -1.52823 0.406105 
492 2.70859 2.30871 2.28735 0.620862 0 0 0 0.893945 -0.21378 0.823957 
494 2.94687 2.34984 2.28063 0.68446 0 0 0 1.18416 -0.127229 0.575916 
504 2.87671 1.9456 2.27657 0.631953 0 0 0 1.10363 -0.739888 0.75655 
199 1.89315 1.96045 1.70229 0.351187 0 0 0 3.89505 -0.926791 -1.12814 
120 1.67259 1.9638 1.67438 0.321488 0 0 0 1.45893 1.53493 -0.00709052 
442 2.28184 1.67739 1.7112 0.410209 0 0 0 1.68416 -1.59493 -0.505009 
498 2.04613 1.55965 1.97778 0.409438 0 0 0 -0.910565 1.08511 -7.14735 
487 1.91916 2.03369 2.33112 0.488956 0 0 0 0.0326136 -0.698204 0.224823 
209 2.03145 1.70589 1.5911 0.345965 0 0 0 0.865998 -3.84866 -0.484447 
36 2.10179 2.14084 1.72251 0.416345 0 0 0 3.40635 0.0972807 0.774138 
191 1.67811 1.96819 1.67706 0.323025 0 0 0 1.57635 1.52178 -0.149203 
417 2.33714 2.53508 1.7657 0.533535 0 0 0 1.30004 0.973399 0.259025 
451 2.99114 2.22371 1.53029 0.633452 0 0 0 1.65108 -0.275894 -0.312243 
259 1.58512 1.88708 1.64909 0.29793 0 0 0 -0.811042 2.34932 2.43805 
463 1.58447 1.95969 1.66739 0.313835 0 0 0 -0.644456 2.58973 1.31878 
307 1.54446 1.74375 1.60346 0.263563 0 0 0 -2.47097 3.24266 0.804807 
220 1.54373 1.74205 1.60278 0.263122 0 0 0 -2.49535 3.24282 0.761268 
496 2.03147 2.50601 2.78625 0.657585 0 0 0 0.0310549 -0.181223 1.52987 
472 2.0747 1.79642 2.63684 0.574765 0 0 0 -0.779195 -0.595603 -0.0764102 
473 1.75625 1.5959 2.58876 0.549215 0 0 0 -1.17765 0.12122 -2.34796 
474 2.95854 3.17647 2.68346 0.934254 0 0 0 0.901263 1.04183 0.755751 
497 1.61663 1.94128 2.57965 0.539008 0 0 0 -0.635527 -1.02514 -0.520718 
502 2.22662 2.57159 2.71503 0.667085 0 0 0 0.220395 0.0468155 1.38663 
477 3.17713 2.0138 2.59479 0.781978 0 0 0 1.29713 -0.453759 0.857147 
513 2.63016 3.0298 3.05944 0.919997 0 0 0 0.557671 0.805124 1.27699 
479 1.80985 1.75127 2.41699 0.49856 0 0 0 -1.15678 -0.356573 -2.63235 
501 1.6536 2.4538 3.00118 0.69825 0 0 0 -0.144825 -0.376351 1.73335 
503 2.03372 3.1535 2.47845 0.734326 0 0 0 0.32842 1.26102 0.849374 
482 1.57532 3.16058 3.12964 0.875848 0 0 0 0.0454486 0.862645 1.49566 
511 3.00814 2.13234 2.41307 0.702011 0 0 0 1.18574 -0.463511 0.754353 
510 2.10249 2.54653 2.61072 0.623521 0 0 0 0.225985 -0.0462958 1.38351 
508 2.62305 1.96044 3.05692 0.772121 0 0 0 0.282792 -0.409112 1.38038 
505 3.15567 2.91939 3.22206 1.06052 0 0 0 0.887149 0.587055 1.13086 
499 1.80691 1.78436 2.91322 0.645106 0 0 0 -0.705485 -0.515554 0.136747 
495 2.94831 1.72933 2.7966 0.758142 0 0 0 0.827148 -0.506846 1.0725 
489 3.12957 1.50361 3.00017 0.868009 0 0 0 0.959291 -0.334812 1.04649 
490 2.37284 2.40854 2.58346 0.629827 0 0 0 0.30473 -0.181171 1.22528 
491 2.27434 1.49882 2.74564 0.62995 0 0 0 -0.618169 -0.16037 0.104053 
506 1.97648 2.06882 3.04671 0.700279 0 0 0 -0.385117 -0.559229 1.21407 
493 3.07267 3.01075 2.79147 0.943094 0 0 0 1.00008 0.81725 0.886012 
480 2.35966 2.25058 2.39424 0.56922 0 0 0 0.406832 -0.387117 1.22443 
ITEM: TIMESTEP
800992
ITEM: NUMBER OF ATOMS
512
ITEM: BOX BOUNDS ss ss ss
-2.2775349561678951e-01 3.2932607586404616e+00
-4.0122540508749138e-01 3.2891132425832117e+00
-1.7039273299291779e-01 3.2223573019164853e+00
ITEM: ATOMS id x y z width_SPH x_COM y_COM z_COM vx vy vz 
23 0.539288 1.16104 0.37278 0.613015 0 0 0 0.633793 -0.0976331 -0.569966 
3 -0.140331 -0.124434 0.0939728 1.0357 0 0 0 -1.01065 -0.934121 -0.881338 
4 1.1215 0.71024 0.265508 0.622553 0 0 0 0.00937458 0.209788 -1.02933 
5 0.225458 1.27088 -0.0394026 0.78251 0 0 0 -0.197428 -0.301956 -0.966489 
6 0.0115254 1.14394 0.376958 0.727353 0 0 0 -0.76223 -0.268007 -0.705379 
22 0.12862 1.05029 0.0595989 0.785117 0 0 0 -0.507385 -0.424297 -0.970653 
8 0.686461 0.733454 -0.0391974 0.747514 0 0 0 0.0953369 -0.433135 -1.18302 
9 1.3567 -0.241855 0.26349 0.804206 0 0 0 -0.298883 -1.1864 -1.40894 
10 -0.0863172 -0.263406 0.0260438 1.07371 0 0 0 -0.931964 -0.985722 -0.901898 
11 0.920706 1.15036 -0.0285259 0.696437 0 0 0 0.752231 -0.165331 -0.435075 
12 0.461887 1.343 0.164183 0.674424 0 0 0 0.502726 -0.204155 -0.606931 
13 0.278627 -0.29931 0.200451 0.957907 0 0 0 -0.806291 -1.14362 -1.01851 
14 0.97204 1.22081 0.39007 0.568523 0 0 0 1.27038 0.1425 0.812785 
15 1.08249 0.66997 0.304807 0.617964 0 0 0 -0.0678861 0.142897 -1.1607 
16 0.612756 -0.235829 0.244739 0.869626 0 0 0 -0.630645 -1.16658 -1.20388 
17 0.878269 0.253887 0.00522707 0.783182 0 0 0 -0.298599 -0.66095 -1.49782 
18 0.562191 0.565602 0.356091 0.673122 0 0 0 -0.327144 -0.544885 -1.23562 
274 1.4895 1.31441 0.568094 0.508707 0 0 0 -0.206633 -0.281915 4.84925 
20 0.67939 0.940679 0.29778 0.628464 0 0 0 0.463995 -0.14361 -0.766438 
62 1.19143 1.02676 0.635987 0.499497 0 0 0 0.00575245 0.577742 1.37859 
50 0.549986 -0.381032 0.627222 0.850633 0 0 0 -0.73864 -1.36614 -0.856474 
31 -0.0666995 1.19079 0.657984 0.694832 0 0 0 -0.999914 -0.0999397 -0.584634 
44 0.384567 0.857336 0.611344 0.61198 0 0 0 -0.317967 -0.373732 -1.12025 
24 1.01877 -0.213786 1.39568 0.679355 0 0 0 -0.123954 -1.69285 0.603289 
353 1.43469 1.07794 1.35086 0.306619 0 0 0 -0.47799 -3.56924 0.635231 
26 -0.135939 1.02548 1.49494 0.658915 0 0 0 -1.52795 0.0880355 0.0612287 
27 0.398738 1.14913 0.832388 0.546231 0 0 0 -0.0929918 0.0262056 -1.24833 
28 0.947154 0.224997 1.38726 0.550774 0 0 0 -0.881446 -1.47364 0.742576 
91 0.800641 1.12867 1.21354 0.410234 0 0 0 -0.99865 -0.848705 -0.341464 
303 1.47401 1.06096 1.34497 0.308981 0 0 0 0.97136 -3.79515 0.77015 
65 0.669832 0.47178 1.33838 0.53013 0 0 0 -1.15557 -1.29713 0.0919808 
32 0.390325 -0.3474 1.28432 0.809111 0 0 0 -0.778081 -1.47594 -0.132793 
33 0.747581 -0.211901 1.15272 0.709654 0 0 0 -0.599458 -1.55105 -0.195139 
173 0.936213 0.960754 1.29479 0.396885 0 0 0 -3.46696 -1.14496 -0.81094 
35 1.49751 0.0185825 0.818711 0.616276 0 0 0 -0.421793 -1.4179 -1.15814 
21 1.50709 1.44185 1.49138 0.220514 0 0 0 0.245214 1.59453 0.617482 
154 1.32469 1.31545 1.43483 0.268891 0 0 0 1.65053 2.35657 -4.96146 
38 0.219851 1.02869 0.800809 0.601115 0 0 0 -0.640096 -0.169648 -1.01704 
39 -0.22746 0.894409 1.43968 0.703334 0 0 0 -1.58738 -0.0296962 -0.0849058 
2 1.14967 0.675237 1.21353 0.426028 0 0 0 -4.1427 -2.31402 -1.38027 
351 0.859144 1.19145 1.32514 0.381098 0 0 0 -0.727943 -0.464371 0.443691 
42 0.79997 1.37177 1.32996 0.382826 0 0 0 0.818861 -0.14648 1.05488 
195 1.40657 0.799866 1.18838 0.381451 0 0 0 -2.14172 -3.62157 -0.893306 
318 1.49221 1.0687 1.34922 0.306651 0 0 0 1.80138 -3.84518 0.632229 
45 0.998553 0.224027 1.32982 0.545673 0 0 0 -1.04164 -1.56828 0.537157 
46 0.610445 0.267935 0.790682 0.635118 0 0 0 -0.974924 -0.894079 -1.36005 
47 1.21211 0.915315 0.83575 0.454217 0 0 0 -1.73099 -0.485138 0.988009 
48 0.526618 0.788819 1.37475 0.498784 0 0 0 -1.05289 -1.06535 0.0363412 
250 1.49187 1.08593 1.35641 0.302458 0 0 0 1.96546 -3.83538 0.34459 
79 1.49623 1.36941 1.46082 0.233518 0 0 0 3.64295 0.757569 0.55044 
51 0.476675 1.30496 0.94927 0.506039 0 0 0 0.169085 0.221636 -1.33574 
52 1.29203 0.226352 1.31754 0.525364 0 0 0 -0.90738 -1.91141 0.784932 
53 -0.0398865 0.626632 1.25892 0.678804 0 0 0 -1.45045 -0.441276 -0.414628 
54 1.02301 -0.400933 1.42876 0.747461 0 0 0 0.00507863 -1.74379 0.513768 
385 1.48526 1.28966 1.43147 0.252413 0 0 0 3.42475 -2.1071 0.490508 
56 1.27651 0.10359 1.02253 0.574015 0 0 0 -0.869647 -1.66904 -0.734819 
178 0.995031 1.43603 1.45857 0.329983 0 0 0 2.91018 1.35575 0.624042 
115 1.50526 1.15041 1.3764 0.28702 0 0 0 3.09622 -4.38511 0.777787 
59 0.618215 0.6026 1.24067 0.517391 0 0 0 -1.31677 -1.26833 -0.596038 
124 1.46275 1.03845 1.33351 0.314952 0 0 0 0.307911 -3.79378 1.0805 
306 1.50773 -0.285866 0.765565 0.723846 0 0 0 -0.127711 -1.6043 -0.682422 
64 0.863755 -0.339057 1.3046 0.736469 0 0 0 -0.275642 -1.69422 0.221037 
119 1.46935 1.29803 1.43364 0.251085 0 0 0 3.24248 -1.67045 0.900114 
313 1.06027 1.33634 1.41902 0.322542 0 0 0 1.0986 0.946855 2.2112 
149 1.36226 1.21564 1.35164 0.28713 0 0 0 -1.32969 -1.55964 -0.795662 
179 1.27091 0.655441 1.19793 0.420362 0 0 0 -3.49654 -2.75723 -1.57706 
106 1.48398 1.28128 1.42805 0.254531 0 0 0 3.33306 -2.41784 0.653033 
322 1.48977 1.08075 1.35422 0.303752 0 0 0 1.82443 -3.82972 0.432258 
19 1.48533 0.423846 1.00493 0.484895 0 0 0 -0.852837 -1.86255 -1.91697 
512 1.49419 1.3562 1.4562 0.236441 0 0 0 3.67201 0.311567 0.467338 
301 0.930611 1.30713 1.40803 0.352103 0 0 0 0.844396 0.695663 0.473214 
214 1.39941 0.98395 1.30053 0.332296 0 0 0 -2.34879 -3.66495 1.32668 
77 0.453286 1.43621 1.29507 0.467504 0 0 0 -0.72999 0.322708 -0.75658 
358 0.802631 1.13455 1.1541 0.418095 0 0 0 -0.811556 -0.815803 -0.341102 
81 0.65863 0.594056 1.15419 0.517896 0 0 0 -1.4327 -1.24583 -1.06383 
71 0.654125 1.22741 1.34848 0.421632 0 0 0 -0.472693 -0.274686 -0.366888 
329 0.87255 1.19711 1.34631 0.376298 0 0 0 -0.66395 -0.284663 0.350681 
57 1.51229 0.6447 1.1874 0.412433 0 0 0 -0.122642 -3.05677 -1.6263 
122 1.21655 0.673187 1.2029 0.420715 0 0 0 -3.98085 -2.58493 -1.52523 
74 0.974794 0.845288 1.26176 0.41189 0 0 0 -4.06627 -1.5923 -1.05765 
228 1.19611 1.41564 1.46552 0.285848 0 0 0 3.66135 1.69399 2.54368 
198 0.988608 1.43717 1.45868 0.331364 0 0 0 2.87824 1.25698 0.754172 
165 1.32819 0.926628 1.25837 0.35344 0 0 0 -4.30457 -3.50946 0.956144 
101 1.00028 1.23476 1.37484 0.345701 0 0 0 -1.00791 0.364974 1.16492 
82 0.914208 0.73178 1.19891 0.446425 0 0 0 -3.04102 -1.67018 -1.19377 
229 1.43794 1.01783 1.32157 0.321266 0 0 0 -0.81761 -3.73963 1.25678 
66 0.0779123 -0.209393 2.31732 0.901788 0 0 0 -0.687953 -1.05208 0.580833 
67 0.896592 0.389783 1.98979 0.568993 0 0 0 0.535197 -0.0874449 0.637796 
68 1.03629 0.897867 1.78784 0.431439 0 0 0 0.892996 2.98622 -4.25779 
95 0.398484 -0.0109039 2.10984 0.741995 0 0 0 -0.249922 -0.999984 0.679928 
70 0.431862 1.36488 2.12842 0.534682 0 0 0 0.501913 -0.113953 0.726888 
88 0.0603606 0.335403 2.25425 0.754696 0 0 0 -0.785907 -0.437358 0.780299 
55 0.179151 0.11008 1.56622 0.715517 0 0 0 -0.990355 -1.03047 0.129747 
63 0.0686958 1.42392 1.57716 0.57445 0 0 0 -1.32736 0.122347 0.333568 
87 -0.124827 0.602196 1.97093 0.726216 0 0 0 -1.23339 -0.227801 0.586438 
75 0.13423 1.38274 2.08426 0.597903 0 0 0 -0.600615 -0.111102 0.927868 
86 1.52819 0.494282 1.73489 0.483927 0 0 0 0.0889888 0.601246 0.00420378 
90 0.772498 1.18916 2.00601 0.467509 0 0 0 2.16492 1.08647 -1.69341 
78 0.397216 -0.0026314 2.21456 0.755242 0 0 0 -0.216485 -0.931591 0.705691 
113 0.978009 1.36 2.06098 0.439915 0 0 0 2.96973 2.54544 -6.73534 
93 0.811342 0.804863 2.02329 0.511044 0 0 0 1.24664 0.892038 -0.29067 
92 0.388019 0.389793 1.87057 0.619936 0 0 0 -0.311896 -0.630192 0.888693 
108 1.1812 0.815749 2.12936 0.500495 0 0 0 1.03681 2.73477 -3.26163 
83 0.717766 1.15514 1.91968 0.462904 0 0 0 1.76402 0.737044 -0.786939 
84 0.247413 0.0622349 2.16075 0.758666 0 0 0 -0.490191 -0.857547 0.680797 
96 1.42755 0.839313 1.89148 0.437818 0 0 0 0.311097 5.24149 -7.87443 
127 1.45838 0.642889 2.04464 0.504504 0 0 0 0.179396 2.32783 -2.51032 
34 -0.00995255 0.530521 1.66397 0.680598 0 0 0 -1.2569 -0.446992 0.292416 
60 0.616722 0.958432 1.89369 0.49654 0 0 0 0.906027 0.186403 0.694749 
25 1.06931 0.282777 1.61881 0.537639 0 0 0 -0.332266 -0.974028 1.42411 
76 0.569499 0.905025 1.57236 0.476953 0 0 0 -0.410872 -0.726924 0.959397 
94 0.548013 0.812209 1.57409 0.494661 0 0 0 -0.474154 -0.799143 1.01572 
37 0.451645 1.06436 1.55401 0.483799 0 0 0 -0.715232 -0.372705 0.80153 
49 -0.225097 0.992379 1.53528 0.693614 0 0 0 -1.56997 0.0719981 0.0721419 
125 1.09268 1.35857 2.31576 0.494744 0 0 0 1.87403 1.87931 -4.76214 
370 1.52837 0.876192 2.34621 0.535457 0 0 0 -0.114006 2.66186 -3.7362 
121 1.2299 0.0557169 2.56175 0.739897 0 0 0 0.420648 -0.463454 0.188908 
97 0.741256 0.963636 2.6719 0.641808 0 0 0 0.791101 0.769512 -0.0277077 
98 0.311901 1.033 2.82434 0.738885 0 0 0 -0.0618672 0.189116 0.942179 
99 0.716606 0.0242827 2.58279 0.779047 0 0 0 0.238158 -0.650594 0.651577 
100 0.647803 0.403616 2.84607 0.773452 0 0 0 0.218158 0.0515961 0.748527 
128 0.383363 1.44118 2.49724 0.615766 0 0 0 0.291499 -0.114642 0.746879 
131 0.549718 1.23793 2.93584 0.721724 0 0 0 0.375447 0.238875 0.767525 
103 1.03332 0.516068 2.74005 0.695683 0 0 0 0.557505 0.579615 -0.00876709 
130 1.37067 0.465211 2.56845 0.651141 0 0 0 0.363728 0.736495 -0.682359 
114 1.06694 0.880379 2.58086 0.60421 0 0 0 0.894399 1.47521 -1.26379 
129 0.508149 0.0503793 3.07878 0.938569 0 0 0 -0.0943812 -0.452576 0.926423 
116 -0.0918059 0.828692 2.48471 0.768909 0 0 0 -0.926304 -0.00656011 0.91267 
117 -0.11281 0.373906 2.52757 0.849199 0 0 0 -0.96399 -0.312893 0.858349 
109 0.427185 0.944434 3.03849 0.793869 0 0 0 0.0460039 0.256785 0.963219 
110 0.486302 -0.255058 2.78202 0.938173 0 0 0 -0.121537 -0.936648 0.764148 
123 1.28799 1.23656 2.37884 0.511352 0 0 0 0.834582 2.64153 -5.32645 
112 1.16532 0.424952 2.80165 0.724468 0 0 0 0.467861 0.431156 0.041301 
162 0.457141 2.5951 0.566883 0.691737 0 0 0 -0.198996 0.795899 -0.433719 
132 0.662221 2.53027 0.21789 0.732799 0 0 0 0.175155 0.271962 -0.335469 
133 0.0922396 1.78605 0.558714 0.665838 0 0 0 -0.455933 0.139887 -0.504163 
134 0.162152 2.01557 0.242429 0.73626 0 0 0 -0.340447 0.197189 -0.589832 
135 1.32373 2.40948 0.446202 0.616065 0 0 0 0.357541 -1.41327 1.05044 
136 1.10481 2.57107 0.555835 0.622616 0 0 0 0.397425 -0.469644 0.464786 
137 0.0490353 2.5059 0.614626 0.758156 0 0 0 -0.88602 0.864026 -0.494797 
138 0.513596 2.21214 0.0647103 0.745662 0 0 0 0.264203 0.00929869 -0.511826 
139 0.291597 2.24805 0.292715 0.722672 0 0 0 -0.1867 0.334753 -0.5261 
140 0.883335 2.73443 0.162877 0.770976 0 0 0 0.129487 0.361227 -0.290013 
141 -0.043917 2.3866 0.16064 0.863761 0 0 0 -0.835649 0.588521 -0.612655 
142 1.45321 2.54108 0.57578 0.605432 0 0 0 -0.0152822 -1.15817 0.848442 
143 1.27571 2.91643 0.597735 0.687649 0 0 0 -0.0928431 0.533072 -0.00199228 
160 0.794611 3.07602 0.428214 0.804014 0 0 0 -0.2077 1.16479 -0.290272 
145 0.495422 2.00223 0.0139387 0.740951 0 0 0 0.384886 -0.140965 -0.551341 
146 1.33715 2.00136 0.341055 0.601081 0 0 0 0.654425 -2.10928 2.10563 
147 0.766199 1.82077 0.226307 0.636295 0 0 0 1.19529 -0.679991 0.31764 
148 1.26681 3.02295 0.25203 0.799051 0 0 0 -0.0618235 0.640657 -0.233347 
156 0.0923343 1.95726 0.419736 0.705679 0 0 0 -0.503543 0.220018 -0.514315 
150 1.0832 1.84153 0.514017 0.549521 0 0 0 1.65377 -2.03895 2.64041 
155 0.802652 1.62672 0.139303 0.650624 0 0 0 1.20365 -0.523866 0.232165 
161 1.37471 2.00683 0.411134 0.582785 0 0 0 0.55447 -2.40395 2.53755 
159 0.0392285 1.48545 -0.0352905 0.821638 0 0 0 -0.532888 -0.159703 -0.891068 
170 1.13968 2.09623 1.09396 0.440546 0 0 0 1.46598 -3.77869 4.57918 
163 0.512819 2.85755 0.715426 0.721364 0 0 0 -0.362567 1.26011 -0.43416 
202 0.614153 2.0095 1.00203 0.503112 0 0 0 1.09994 -0.139511 -1.05797 
167 0.867407 1.79173 1.05682 0.4364 0 0 0 2.56071 -1.83467 2.56807 
225 1.49735 1.51636 1.51443 0.217517 0 0 0 -0.85527 -0.815378 -0.887919 
169 0.925715 1.73867 1.43072 0.356733 0 0 0 1.84642 -1.94808 4.92862 
201 -0.0238986 2.74169 0.921927 0.787361 0 0 0 -1.10164 1.15805 -0.493668 
171 0.344798 1.88397 1.31499 0.510871 0 0 0 -0.752194 0.282534 -1.14349 
183 1.0557 1.45292 1.4625 0.315989 0 0 0 3.41747 1.60676 1.20762 
30 0.79209 1.64482 1.51741 0.376352 0 0 0 1.02609 0.0813273 0.161944 
174 0.206879 1.77876 1.03603 0.567114 0 0 0 -0.476554 0.230793 -1.02289 
210 1.50148 1.47893 1.50125 0.217347 0 0 0 0.564716 0.988452 0.142408 
157 1.18864 2.27083 1.02742 0.478469 0 0 0 0.92757 -2.54604 1.97882 
152 1.07997 2.08941 0.712467 0.523343 0 0 0 1.53883 -2.43135 2.37605 
314 1.50113 1.48138 1.50212 0.217249 0 0 0 0.469931 0.864525 0.0384765 
197 0.0748405 2.23525 1.0802 0.643443 0 0 0 -1.00242 0.595573 -0.80992 
180 0.421874 2.02562 1.49853 0.493813 0 0 0 -1.13657 0.339438 -0.727784 
181 0.627686 2.08579 1.41776 0.456517 0 0 0 -0.466919 0.710791 -1.41787 
428 1.18669 2.56475 1.42783 0.483302 0 0 0 -0.59813 1.18334 -1.62201 
410 1.4991 1.48774 1.50438 0.217076 0 0 0 0.801969 0.611723 -0.0326039 
184 0.816888 2.82807 1.23688 0.603671 0 0 0 -0.226958 1.57112 -1.1191 
460 1.49413 1.50152 1.50836 0.217102 0 0 0 -0.273494 -0.0776187 -0.508184 
186 0.975643 2.81774 1.04021 0.606021 0 0 0 -0.0236952 1.0024 -0.639739 
196 0.570964 1.70122 1.47318 0.432141 0 0 0 -0.553873 0.191652 -0.178934 
188 0.309624 2.5385 1.32084 0.61326 0 0 0 -0.883907 1.28407 -1.11734 
200 0.952342 2.70818 1.14964 0.565977 0 0 0 0.0652641 0.959671 -1.03812 
190 0.81157 1.85976 1.03819 0.453606 0 0 0 2.21269 -1.24137 0.979091 
166 0.578325 1.64115 0.820062 0.51415 0 0 0 1.37957 -0.126801 -0.491382 
192 0.613365 2.06273 1.28736 0.468808 0 0 0 0.152144 0.522693 -1.66712 
193 1.11512 2.50091 1.38662 0.476142 0 0 0 -0.418107 0.868708 -1.5248 
203 1.49709 1.53528 1.52114 0.218901 0 0 0 -1.53201 -1.18201 -1.05542 
208 1.50103 1.48233 1.50246 0.217215 0 0 0 0.443696 0.812329 0.00511876 
41 1.49969 1.49087 1.50544 0.217015 0 0 0 0.111114 0.319311 -0.334185 
342 1.4981 1.50466 1.51029 0.217086 0 0 0 -0.413085 -0.39049 -0.699462 
164 1.49914 1.49496 1.50687 0.216986 0 0 0 -0.0435788 0.0862641 -0.464103 
40 1.49907 1.4955 1.50706 0.216985 0 0 0 -0.064297 0.0564077 -0.479879 
219 1.49839 1.50152 1.50918 0.217028 0 0 0 -0.293407 -0.248906 -0.632864 
73 1.49776 1.50902 1.51183 0.217207 0 0 0 -0.579049 -0.567639 -0.779703 
43 0.805604 1.44796 1.37081 0.376497 0 0 0 1.30539 -0.0247391 1.27886 
418 1.50719 1.47294 1.49917 0.21769 0 0 0 -0.3749 0.848949 0.0257311 
158 1.23226 1.80437 1.11318 0.389178 0 0 0 1.38687 -9.69059 21.2933 
394 1.50446 1.487 1.49865 0.217127 0 0 0 -0.307634 0.642613 -1.03673 
107 1.49844 1.45725 1.49537 0.218849 0 0 0 1.73309 1.28336 2.58385 
215 0.540869 2.16283 1.63004 0.479714 0 0 0 -1.42854 0.604032 -0.34051 
447 1.39749 2.80308 2.23839 0.567395 0 0 0 -0.109881 1.23068 1.24133 
205 0.0357084 1.958 2.06486 0.63064 0 0 0 -1.35405 -0.385498 0.701806 
206 1.02526 2.47209 2.29806 0.526082 0 0 0 -0.784528 0.0757724 2.2409 
207 0.438845 2.84842 1.72195 0.648682 0 0 0 -0.970145 1.7035 -0.719313 
257 1.1462 1.73854 1.5693 0.308091 0 0 0 0.150615 1.36725 0.792269 
194 0.555392 1.94539 1.63956 0.452294 0 0 0 -1.32468 0.073859 0.248901 
235 1.21548 2.18612 2.35238 0.493661 0 0 0 -0.515611 -1.03703 1.78973 
211 0.956349 2.92222 2.05614 0.605036 0 0 0 -0.719745 1.80985 0.0663118 
212 0.45313 2.60916 1.67387 0.582915 0 0 0 -1.16159 1.49546 -0.741572 
213 0.821558 1.77282 1.80143 0.397827 0 0 0 -0.215329 0.0123178 -1.25218 
242 0.400459 2.35909 2.29194 0.595599 0 0 0 -1.03597 -0.27233 1.19628 
231 0.84834 2.32006 2.12816 0.491558 0 0 0 -1.46639 0.000741034 2.1859 
216 1.16683 2.94849 2.0896 0.599369 0 0 0 -0.547712 1.81478 0.245494 
217 0.343201 2.85139 1.83538 0.671173 0 0 0 -1.07812 1.48818 -0.520585 
218 0.188132 2.60236 1.94756 0.653438 0 0 0 -1.42615 0.765578 -0.0979121 
468 0.852817 2.30967 1.8553 0.453564 0 0 0 -2.19981 1.12489 0.88755 
204 0.982438 2.13675 1.79705 0.400181 0 0 0 -3.11378 1.07134 0.489698 
221 0.781361 2.16855 1.99554 0.461678 0 0 0 -1.81775 -0.14209 1.89153 
222 0.874644 2.13024 1.82114 0.418688 0 0 0 -2.52242 0.608177 0.876287 
223 0.648261 1.75377 1.73341 0.42543 0 0 0 -0.647438 -0.244261 0.58221 
246 1.14636 1.78049 1.58 0.313136 0 0 0 -0.965581 1.32013 0.384769 
104 0.233991 1.55829 2.31381 0.605702 0 0 0 -0.273987 -0.332357 0.943791 
226 1.33009 3.06355 2.06162 0.626231 0 0 0 -0.383209 1.88233 0.0383466 
227 0.147301 1.58649 2.08044 0.590157 0 0 0 -0.739037 -0.333817 0.957669 
234 1.08919 1.77502 1.65724 0.327876 0 0 0 -0.111268 5.13764 -13.7859 
238 1.01266 1.72345 1.58264 0.333679 0 0 0 1.23724 1.37749 -3.74588 
321 1.32125 2.33262 1.84131 0.409755 0 0 0 -2.19684 3.09489 1.05813 
475 0.852223 2.20785 1.83084 0.434529 0 0 0 -2.39326 0.831259 0.936013 
476 1.236 2.27058 2.30391 0.488505 0 0 0 -0.669946 -0.591813 2.29723 
189 0.782454 2.23929 1.56136 0.444169 0 0 0 -1.22525 1.24341 -1.12484 
239 1.3495 1.89792 1.62616 0.304188 0 0 0 -5.24299 3.48692 3.25216 
328 1.239 2.61189 1.80516 0.48029 0 0 0 -1.13653 2.5566 -0.289766 
185 0.0296363 2.45809 1.54539 0.667553 0 0 0 -1.48899 0.759412 -0.529497 
337 1.08116 2.12647 1.79494 0.384859 0 0 0 -3.71919 1.54295 0.134452 
462 1.494 3.28882 1.96819 0.696856 0 0 0 -0.327494 1.96139 -0.252658 
168 1.33185 1.85861 1.63155 0.298786 0 0 0 -4.91617 3.88184 2.86641 
247 1.21226 2.26017 1.82707 0.399115 0 0 0 -3.19378 2.60102 0.841816 
177 1.34232 2.09074 1.75652 0.350182 0 0 0 -4.10387 3.77396 -1.22932 
485 1.5067 2.80876 2.33205 0.583721 0 0 0 0.0957754 0.928989 1.38007 
264 1.3721 2.24531 1.827 0.38749 0 0 0 -2.45593 3.42766 0.951532 
69 1.4045 2.22362 1.82304 0.381681 0 0 0 -2.28842 3.58826 0.83234 
483 1.42127 2.31225 1.83497 0.402123 0 0 0 -1.57718 3.46075 1.19414 
350 1.43899 2.29199 1.83175 0.397131 0 0 0 -1.5186 3.54179 1.19887 
249 0.810744 1.71806 2.34598 0.511764 0 0 0 1.1286 -0.642067 -0.195774 
420 1.11136 1.94425 1.68018 0.344427 0 0 0 -3.58135 1.60315 -2.54909 
240 1.42889 1.99382 1.67738 0.320759 0 0 0 -4.04919 3.95806 0.32438 
300 1.51916 1.67207 1.57346 0.245251 0 0 0 -3.20806 2.24337 -0.655939 
398 1.51863 1.67007 1.57263 0.244757 0 0 0 -3.21647 2.19281 -0.697903 
29 0.0998245 1.58839 1.57877 0.564953 0 0 0 -1.34136 0.0104264 0.251675 
224 1.1137 1.66991 1.54005 0.307837 0 0 0 2.25635 1.35925 0.490378 
111 0.951813 1.52524 1.75499 0.365727 0 0 0 2.94886 3.99156 -11.4187 
105 1.42238 1.7449 1.56873 0.264089 0 0 0 -3.214 2.29602 8.89622 
172 1.02342 1.85688 1.56823 0.344256 0 0 0 -0.615098 -1.55317 3.58382 
153 1.36635 1.72338 1.67661 0.280176 0 0 0 -1.66323 12.4772 -21.8007 
341 1.49772 1.55245 1.52725 0.220824 0 0 0 -2.06998 -1.20712 -1.11736 
144 1.49737 1.55543 1.52765 0.221189 0 0 0 -2.02539 -1.23496 -0.918298 
332 1.49424 1.56547 1.53147 0.222687 0 0 0 -0.541262 -0.876273 -0.94362 
486 1.5315 1.94567 2.15279 0.420409 0 0 0 -0.55237 0.806843 -5.18658 
336 1.53233 1.71296 1.59081 0.255617 0 0 0 -2.86316 3.06965 0.0541307 
80 1.49759 1.55013 1.52642 0.22053 0 0 0 -2.00271 -1.21908 -1.11244 
232 0.49216 2.02195 2.69548 0.642611 0 0 0 -0.0745446 -0.804794 1.41704 
233 0.819153 1.89517 2.82464 0.638636 0 0 0 0.440515 -0.774781 1.02624 
255 -0.0545584 2.84034 2.49112 0.830807 0 0 0 -1.33128 0.6625 0.395586 
266 0.366653 1.98499 2.58794 0.636923 0 0 0 -0.320956 -0.749399 1.30894 
236 1.10598 2.61864 2.76414 0.65124 0 0 0 -0.0562901 -0.167821 1.86494 
237 0.373429 2.44496 2.4469 0.637518 0 0 0 -0.879449 -0.195092 1.142 
262 0.71918 1.67966 2.53177 0.568063 0 0 0 0.926269 -0.48421 0.339119 
254 0.214175 2.73861 3.11697 0.891496 0 0 0 -0.712471 0.2734 1.45049 
118 0.0283926 1.48111 2.6882 0.743108 0 0 0 -0.653599 -0.166583 1.01432 
241 0.939423 2.12978 3.11426 0.728299 0 0 0 0.137875 -0.661521 1.54257 
265 0.0329547 3.01139 2.61218 0.868523 0 0 0 -1.12544 0.909766 0.525469 
243 0.559648 3.01397 2.64267 0.760244 0 0 0 -0.508832 1.0028 0.85836 
244 -0.0538465 3.17009 2.96979 1.01469 0 0 0 -0.989222 0.906806 0.853305 
245 1.25688 2.18075 2.86043 0.631953 0 0 0 -0.0453608 -0.976658 1.37664 
256 0.0639212 2.93296 2.98771 0.928311 0 0 0 -0.938694 0.617748 1.10109 
260 -0.0684628 2.86215 2.72929 0.884981 0 0 0 -1.22646 0.592826 0.736865 
248 0.535507 2.66342 2.98132 0.774499 0 0 0 -0.342575 0.0705761 1.64872 
507 1.514 2.78544 2.91087 0.717642 0 0 0 0.0016299 0.241188 1.77996 
258 0.563515 2.96535 3.08817 0.865752 0 0 0 -0.344517 0.62305 1.47811 
251 0.511304 2.47669 2.63315 0.654784 0 0 0 -0.499778 -0.285974 1.47387 
252 -0.111925 2.39186 2.39214 0.756582 0 0 0 -1.48803 -0.0397596 0.500054 
253 1.04036 3.18639 2.78129 0.794806 0 0 0 -0.146931 1.14523 1.12595 
267 1.82892 0.385598 0.477776 0.596853 0 0 0 -0.154261 -0.0364306 -2.084 
268 2.77884 0.405525 0.286062 0.786133 0 0 0 1.25567 -0.459836 -1.24518 
269 2.2067 0.0402857 -0.1701 0.890932 0 0 0 0.374259 -0.769623 -1.63991 
270 2.56706 0.0594574 -0.0701747 0.911771 0 0 0 0.82707 -0.801602 -1.41335 
291 2.17938 0.517071 -0.0151494 0.745448 0 0 0 0.104534 -0.026519 -1.80513 
272 2.88249 0.826455 0.434374 0.7207 0 0 0 1.24073 0.0309527 -1.12 
273 1.72709 1.05679 0.271324 0.594022 0 0 0 -0.639134 0.752355 0.272461 
295 2.1713 1.36023 0.380863 0.583848 0 0 0 -1.32074 0.225638 0.267977 
275 2.66358 -0.0269338 -0.00181931 0.933269 0 0 0 0.952079 -0.90306 -1.25183 
276 1.80978 0.0752472 0.048317 0.778949 0 0 0 -0.0838287 -0.687913 -1.77595 
294 1.7398 1.32132 0.468058 0.539315 0 0 0 -1.13504 0.0486886 2.88244 
278 1.84913 0.118938 -0.0193147 0.79201 0 0 0 -0.0537313 -0.613861 -1.79868 
279 2.175 0.767304 0.422031 0.586648 0 0 0 -0.127595 0.711309 -1.57241 
290 2.36631 1.24236 0.156959 0.668462 0 0 0 -0.46668 0.307256 -0.928682 
281 2.44926 1.10437 0.372455 0.618622 0 0 0 -0.226727 0.581787 -1.09595 
289 2.44024 0.744301 0.539646 0.597764 0 0 0 0.576928 0.387515 -1.48427 
292 2.33956 0.902124 0.628313 0.547957 0 0 0 0.151916 0.787005 -1.36188 
284 1.63517 0.788283 0.38501 0.57014 0 0 0 -0.509433 0.940164 -0.962186 
285 2.84964 1.17716 0.0625906 0.79131 0 0 0 0.715088 0.0555142 -1.2482 
286 1.78723 0.485721 0.444937 0.58735 0 0 0 -0.2941 0.282609 -2.06145 
287 2.57698 1.17322 0.482562 0.61156 0 0 0 0.0428278 0.539614 -1.03 
288 2.12027 0.470308 0.103728 0.706467 0 0 0 0.0548059 -0.00961136 -1.83866 
283 2.43674 -0.0381394 0.797333 0.72071 0 0 0 1.11702 -1.28522 -0.558129 
297 2.10953 0.404041 1.31448 0.507881 0 0 0 1.9041 -1.28969 1.10998 
298 2.93 0.3784 1.22614 0.699642 0 0 0 1.80706 -0.768746 0.10368 
299 2.17785 0.794496 1.15772 0.446812 0 0 0 3.04147 -0.0323528 -0.486648 
326 2.16132 0.24158 1.27565 0.557615 0 0 0 1.36195 -1.47819 0.897735 
421 1.83954 1.44084 1.50274 0.295544 0 0 0 -2.29082 -3.41412 -0.048106 
302 2.2023 0.171768 1.03879 0.593099 0 0 0 1.23408 -1.32827 -0.190313 
409 1.68111 1.13811 1.38277 0.30234 0 0 0 7.62364 -3.47566 0.200627 
304 2.56842 0.907699 0.967203 0.532659 0 0 0 1.3662 0.342781 -0.843764 
327 2.48296 0.0221891 1.06097 0.685999 0 0 0 1.27706 -1.34482 -0.00758904 
271 2.0399 0.860397 1.25086 0.407328 0 0 0 4.83301 -0.126623 -0.0685257 
325 1.98594 0.355552 1.00004 0.521514 0 0 0 1.37377 -1.15547 -1.0399 
308 1.84277 0.353845 1.39549 0.497794 0 0 0 1.1437 -1.67542 1.55099 
309 2.88629 1.00557 1.17505 0.594011 0 0 0 1.74586 0.1427 -0.102388 
352 2.85341 1.20475 1.47988 0.560578 0 0 0 1.76119 0.0542277 0.517006 
311 2.00273 0.716305 0.965147 0.458609 0 0 0 2.4259 -0.00767764 -1.77907 
312 2.53391 1.33844 0.846885 0.525579 0 0 0 -0.117217 0.54848 -0.597138 
293 2.42309 1.11164 0.861815 0.504926 0 0 0 0.210308 0.810957 -0.87919 
324 1.62813 -0.0597979 0.885016 0.633873 0 0 0 -0.11465 -1.61405 -0.685098 
315 2.60039 1.07859 1.23024 0.500886 0 0 0 1.6381 0.261106 -0.0845911 
316 2.72627 0.872234 1.06806 0.566482 0 0 0 1.68894 0.0840034 -0.390923 
317 2.17447 0.00895517 1.26039 0.630986 0 0 0 0.833486 -1.67309 0.738103 
345 2.10888 1.08501 1.35917 0.384712 0 0 0 3.15611 0.530696 0.357427 
323 2.38134 0.331226 1.4536 0.569985 0 0 0 1.39882 -1.12555 1.28541 
455 2.55583 1.28173 1.36755 0.472766 0 0 0 1.51361 0.132498 0.181897 
435 2.27639 1.22552 1.31462 0.41136 0 0 0 0.998684 0.0652456 0.565543 
448 2.20141 1.19778 1.32868 0.395786 0 0 0 1.29424 0.0627621 0.913646 
330 2.12819 0.968261 1.33153 0.403423 0 0 0 3.69311 0.317097 0.284991 
333 2.02459 1.08667 1.30523 0.371338 0 0 0 4.55171 0.0169067 1.82268 
320 2.05153 1.24466 1.39439 0.356995 0 0 0 1.45102 -0.218526 1.67621 
85 1.93766 0.688029 1.22732 0.424793 0 0 0 4.19038 -1.03501 -0.384176 
72 1.85278 0.835644 1.34412 0.381422 0 0 0 5.98995 -0.139803 -1.58449 
280 1.92793 1.15719 0.954517 0.418537 0 0 0 0.281986 -0.516025 5.51801 
282 1.82598 1.09003 1.37787 0.331795 0 0 0 7.6811 0.03489 -2.08872 
58 1.53876 0.410762 0.794832 0.520965 0 0 0 -0.628885 -0.813599 -2.48365 
7 1.78037 0.74963 1.18988 0.399087 0 0 0 4.5791 -1.93031 -1.07278 
175 1.6862 0.70247 1.18442 0.402968 0 0 0 3.05522 -2.53255 -1.39657 
151 1.67337 0.69486 1.1842 0.404025 0 0 0 2.80357 -2.59527 -1.42873 
102 1.68173 0.685796 1.18738 0.406094 0 0 0 2.83218 -2.53413 -1.39625 
401 1.68763 1.2133 1.38464 0.290459 0 0 0 6.15738 -7.39998 9.30963 
431 1.82255 1.38593 1.47813 0.294161 0 0 0 -1.17614 -3.90168 1.5027 
230 1.56873 0.813992 1.19065 0.37519 0 0 0 1.90256 -3.51169 -0.549816 
402 1.95157 1.39054 1.18276 0.365155 0 0 0 -1.92876 -6.34869 17.6083 
61 2.0614 1.43224 1.48036 0.34774 0 0 0 -1.14283 -1.58262 0.681479 
305 2.1485 1.42894 1.51639 0.368183 0 0 0 -0.452154 -0.690373 -0.938298 
89 2.192 1.4391 1.48267 0.37819 0 0 0 -0.208609 -1.02956 0.257867 
363 1.70564 1.42066 1.51248 0.263052 0 0 0 1.53658 23.0389 -69.0404 
500 2.10569 1.32175 1.88391 0.412445 0 0 0 -1.3392 1.80856 -6.18406 
355 2.35839 0.184452 1.86313 0.63447 0 0 0 0.366743 -1.07705 1.05969 
381 3.11613 1.01979 2.35073 0.739097 0 0 0 1.30342 -0.262229 0.688415 
331 2.87923 0.078806 2.06589 0.792854 0 0 0 1.08632 -1.15047 0.611475 
364 1.76963 0.735991 2.16028 0.517308 0 0 0 -0.565265 2.08265 -2.77 
456 2.33967 1.28734 1.85279 0.45211 0 0 0 -0.021693 -0.0187609 -0.567884 
334 2.84871 0.650638 1.56623 0.619735 0 0 0 1.61393 -0.526244 0.796504 
379 2.85971 0.751267 2.16119 0.662739 0 0 0 0.95699 -0.296441 0.716362 
357 2.79171 1.1106 1.69075 0.555739 0 0 0 1.47433 -0.156963 0.974935 
349 2.50806 1.06994 1.68912 0.485856 0 0 0 1.04808 -0.242958 1.07413 
338 2.91329 1.04907 1.57017 0.592008 0 0 0 1.69168 -0.090178 0.71631 
339 2.60637 0.208205 1.78259 0.663658 0 0 0 0.880248 -1.09945 0.930365 
340 2.03196 0.919078 1.73824 0.427768 0 0 0 0.610122 2.04114 -2.76118 
380 2.25571 1.36196 2.17206 0.492286 0 0 0 -0.922167 0.227005 -1.48843 
356 2.53184 0.904635 2.0194 0.548951 0 0 0 0.229697 -0.0733621 0.595519 
359 2.00327 -0.0960521 2.15981 0.722347 0 0 0 0.00875255 -1.20852 0.524043 
344 2.80142 -0.0437804 2.11852 0.816015 0 0 0 0.909469 -1.29327 0.606361 
348 3.04077 1.33757 1.60003 0.619055 0 0 0 1.74342 -0.105231 0.435869 
346 1.58773 0.374972 1.94495 0.544623 0 0 0 0.0740696 0.360939 0.0551405 
354 2.04636 0.843232 1.58868 0.422711 0 0 0 2.337 1.06371 -0.593077 
368 2.37677 0.682569 2.36623 0.614732 0 0 0 -0.272371 0.0966975 0.044972 
366 1.71031 1.38231 2.04877 0.405698 0 0 0 -1.48432 7.06523 -20.3629 
371 2.18583 0.971475 2.33558 0.55166 0 0 0 -0.951533 0.813067 -1.29552 
377 1.74601 1.18745 1.97097 0.407213 0 0 0 -1.22642 7.5453 -18.0429 
360 1.90747 0.404478 2.3254 0.616733 0 0 0 -0.290903 0.209312 -0.467816 
361 2.15681 1.26107 2.27566 0.509605 0 0 0 -1.32494 0.772328 -2.22143 
335 2.54276 0.223579 1.52697 0.631494 0 0 0 1.20219 -1.16845 0.99553 
384 1.99729 -0.0776374 2.77943 0.849447 0 0 0 0.0754836 -0.817696 0.466734 
376 2.66835 0.594172 2.77917 0.779063 0 0 0 0.370204 -0.267679 0.787323 
375 2.39585 0.989107 2.70504 0.665023 0 0 0 -0.364318 0.253862 0.19021 
362 2.50173 1.42621 2.86667 0.696431 0 0 0 -0.126937 -0.207826 0.712536 
126 1.54709 0.230959 2.44275 0.669909 0 0 0 0.19065 -0.0431805 -0.289625 
383 3.11738 1.16306 2.83543 0.835524 0 0 0 1.03594 -0.275981 0.893833 
365 2.9694 -0.0926771 2.52754 0.942726 0 0 0 0.964692 -1.1194 0.625893 
374 2.49303 0.362286 2.5845 0.739405 0 0 0 0.163764 -0.518997 0.603581 
367 2.83512 -0.0952181 2.44692 0.894594 0 0 0 0.828594 -1.20578 0.631831 
382 2.46012 0.611973 2.90139 0.779647 0 0 0 0.00280726 -0.0960532 0.703913 
369 2.63778 0.580109 2.64824 0.739167 0 0 0 0.331739 -0.276039 0.688847 
373 2.14105 0.726533 2.45078 0.603869 0 0 0 -0.651271 0.594279 -0.680572 
406 2.09112 2.16896 0.430839 0.611265 0 0 0 -1.06554 -1.43411 0.481117 
386 2.0284 2.99123 0.371049 0.772706 0 0 0 -0.203153 0.499835 -0.469318 
387 2.72329 1.69898 0.609379 0.620611 0 0 0 0.125395 -0.13921 -0.670058 
408 1.85314 2.49566 0.317939 0.670082 0 0 0 -0.440779 -0.943467 0.185431 
389 2.18616 3.05826 0.428307 0.790717 0 0 0 -0.0941003 0.695842 -0.557209 
390 2.98317 1.77901 0.535155 0.707931 0 0 0 0.849941 -0.129236 -0.779555 
391 2.11535 1.83161 0.648485 0.532527 0 0 0 -2.13322 -1.78882 1.75423 
403 2.5459 2.18678 0.119716 0.75135 0 0 0 -0.0754426 -0.411431 -0.815064 
393 2.66093 2.28842 0.183065 0.764202 0 0 0 0.17362 -0.24671 -0.873328 
405 2.78811 3.02173 -0.121111 1.01931 0 0 0 0.448673 0.483334 -0.802739 
395 1.81381 2.31843 0.625909 0.567286 0 0 0 -0.975037 -2.06637 1.31383 
396 2.10804 2.72738 0.663081 0.647389 0 0 0 -0.447571 -0.0233186 -0.398819 
397 2.16783 2.01056 -0.00250798 0.730132 0 0 0 -0.551798 -0.808909 -0.326904 
407 3.03609 2.65996 0.0661368 0.941521 0 0 0 0.752092 0.242127 -0.87793 
399 2.55634 2.07553 0.33948 0.678297 0 0 0 -0.217672 -0.510621 -0.662322 
400 3.03867 3.09633 0.0948055 1.03122 0 0 0 0.703318 0.61565 -0.726258 
404 2.54911 1.82912 0.1351 0.717735 0 0 0 -0.227234 -0.38331 -0.795841 
392 1.64897 1.7019 1.30235 0.313639 0 0 0 -4.39625 -24.5733 61.7935 
347 1.74968 2.58561 1.44171 0.482407 0 0 0 -0.442398 0.909024 -1.16964 
470 3.18034 2.73685 1.51285 0.777333 0 0 0 1.36502 0.545249 -0.283498 
412 2.83896 2.70487 0.90463 0.719796 0 0 0 0.791075 0.476966 -0.695046 
413 2.99687 2.31763 1.18363 0.663645 0 0 0 1.32585 -0.0830576 -0.625421 
414 2.35624 1.78558 1.13988 0.461764 0 0 0 -0.742078 -1.47674 0.0408574 
415 2.18729 1.9517 0.959638 0.482594 0 0 0 -2.14018 -2.22288 1.05741 
416 1.76813 2.56765 1.21183 0.503755 0 0 0 -0.959962 -0.469335 -0.755528 
454 1.96176 3.07035 1.40585 0.634755 0 0 0 -0.187825 1.4875 -0.880991 
427 1.90156 2.97812 1.41373 0.600581 0 0 0 -0.275435 1.39298 -1.01349 
419 3.09087 2.31628 1.28366 0.68543 0 0 0 1.47358 -0.0907514 -0.50246 
457 2.18048 2.18526 1.39274 0.445662 0 0 0 0.664255 -0.848487 -0.804408 
411 1.77753 1.49709 1.51758 0.279057 0 0 0 -3.50382 -3.86787 0.14702 
422 2.52327 1.82722 0.892714 0.534171 0 0 0 -0.488507 -0.711558 -0.445586 
423 2.22281 3.17064 1.41836 0.692848 0 0 0 0.211828 1.49871 -0.625278 
424 1.98908 2.69972 0.785544 0.609122 0 0 0 -0.644646 -0.213526 -0.311734 
425 2.52502 2.65947 0.978215 0.634304 0 0 0 0.284949 0.379828 -0.819761 
426 2.16555 2.22826 1.02762 0.500696 0 0 0 -1.39638 -1.51875 -0.245589 
446 2.15404 1.47217 1.43062 0.370644 0 0 0 -0.75787 -2.078 2.30975 
441 3.15009 2.03261 1.39372 0.670918 0 0 0 1.68535 -0.393136 -0.321686 
429 2.28301 3.01719 0.830939 0.710771 0 0 0 -0.0175302 0.880806 -0.645503 
430 3.24666 2.98695 1.29672 0.866169 0 0 0 1.22318 0.801665 -0.328428 
449 2.29124 2.24049 1.41349 0.472487 0 0 0 0.979731 -0.238101 -1.01197 
388 1.59812 2.19683 1.01816 0.463185 0 0 0 -1.12527 -4.52487 4.5514 
433 2.03727 1.73801 1.21706 0.390796 0 0 0 -3.06218 -5.9945 9.07495 
434 1.60082 2.73668 1.06615 0.558629 0 0 0 -0.646764 -0.104377 -0.507384 
432 2.37388 1.88404 1.34991 0.447539 0 0 0 0.877501 -1.55944 -0.54721 
436 3.01036 2.09203 0.843109 0.681814 0 0 0 1.07794 -0.223364 -0.688424 
437 2.8462 1.57157 0.966139 0.587293 0 0 0 0.941069 0.0775818 -0.585525 
438 2.8555 2.16438 1.42914 0.589202 0 0 0 1.62875 -0.368326 -0.503908 
439 3.06985 3.26361 1.23339 0.897857 0 0 0 0.949548 1.11243 -0.325505 
440 2.10108 2.01538 0.939852 0.483859 0 0 0 -2.34468 -2.61684 1.56025 
458 2.14521 2.40779 1.42054 0.480223 0 0 0 0.451932 0.375968 -1.04741 
464 2.20089 2.07552 1.39204 0.431482 0 0 0 0.776162 -1.57485 -0.489493 
443 2.58771 1.94946 2.09056 0.535521 0 0 0 1.22741 -0.883204 1.06626 
444 2.84859 1.46504 1.86655 0.570207 0 0 0 1.47561 -0.495901 0.741136 
445 2.81527 2.21551 2.1293 0.614388 0 0 0 1.21889 -0.376524 0.618635 
310 1.78294 2.08929 1.76574 0.364647 0 0 0 2.92952 1.76752 -0.104242 
372 1.61022 2.19644 1.81033 0.377709 0 0 0 0.390883 3.52848 0.842732 
296 2.37676 1.99587 1.7502 0.45479 0 0 0 2.73139 -0.912736 0.69145 
471 1.98874 1.90613 1.68087 0.358625 0 0 0 3.68248 -2.27039 -0.855712 
450 2.67999 1.85887 1.96779 0.537546 0 0 0 1.57156 -0.979835 0.85038 
182 1.64286 1.88949 1.64868 0.302927 0 0 0 0.631509 1.1404 2.03364 
452 2.11881 2.90997 1.68517 0.592223 0 0 0 0.4665 1.44554 -0.398904 
453 1.56028 2.45095 2.19982 0.487035 0 0 0 0.354127 0.827386 2.32797 
469 2.08406 1.70843 2.0562 0.431065 0 0 0 0.0260647 -0.355198 -3.08907 
343 2.09718 1.70346 1.57754 0.360073 0 0 0 0.921697 -3.60582 0.0493776 
481 2.16303 2.25178 1.79843 0.451738 0 0 0 2.75683 0.771886 1.1111 
467 1.86345 2.64931 1.66668 0.495962 0 0 0 0.528486 1.84498 -0.479501 
378 1.78868 2.33535 1.81545 0.420987 0 0 0 1.83505 2.73099 1.37873 
459 3.15663 2.7618 2.17728 0.803691 0 0 0 1.3311 0.599016 0.259746 
277 1.76728 1.99982 1.70693 0.34065 0 0 0 3.00491 0.914791 -1.08469 
461 1.65114 2.97998 1.7122 0.580968 0 0 0 -0.214503 1.91984 -0.769174 
263 1.87895 1.99472 1.72044 0.355845 0 0 0 3.87579 -0.294751 -0.869985 
261 1.68405 1.99279 1.69119 0.329302 0 0 0 1.71186 1.80474 -0.603491 
176 1.90638 1.54434 1.53657 0.311139 0 0 0 -2.19418 -3.76081 0.588083 
465 1.96043 2.96194 1.89533 0.597783 0 0 0 0.44138 1.55928 0.0162025 
466 2.24247 3.27131 1.79524 0.726836 0 0 0 0.419263 1.62689 -0.194184 
319 2.24975 1.91453 1.63878 0.411732 0 0 0 2.91659 -1.83101 0.106718 
478 2.18734 3.04935 2.25827 0.683237 0 0 0 0.539359 1.21412 0.572463 
484 1.90492 2.64751 2.31714 0.562312 0 0 0 0.647536 0.489741 1.45389 
187 2.13031 2.09995 1.70539 0.41371 0 0 0 3.45077 -0.361736 0.630755 
509 3.29297 2.84291 2.26144 0.875196 0 0 0 1.37373 0.653919 0.329603 
488 2.31766 1.87768 1.72535 0.429171 0 0 0 2.78251 -1.52821 0.406115 
492 2.70859 2.30871 2.28735 0.620862 0 0 0 0.893943 -0.213779 0.823959 
494 2.94687 2.34984 2.28063 0.68446 0 0 0 1.18416 -0.127228 0.575918 
504 2.87671 1.9456 2.27657 0.631953 0 0 0 1.10363 -0.739888 0.756554 
199 1.89315 1.96045 1.70229 0.351187 0 0 0 3.89501 -0.926791 -1.12813 
120 1.67259 1.9638 1.67438 0.321489 0 0 0 1.4589 1.53491 -0.00703637 
442 2.28184 1.67739 1.7112 0.410209 0 0 0 1.68417 -1.59491 -0.504994 
498 2.04613 1.55965 1.97778 0.409438 0 0 0 -0.910551 1.08513 -7.1474 
487 1.91916 2.03369 2.33112 0.488957 0 0 0 0.032611 -0.698201 0.224817 
209 2.03145 1.70589 1.5911 0.345965 0 0 0 0.86598 -3.84862 -0.484433 
36 2.10179 2.14084 1.72251 0.416346 0 0 0 3.40632 0.0972928 0.774141 
191 1.67811 1.96819 1.67706 0.323025 0 0 0 1.57632 1.52176 -0.14915 
417 2.33714 2.53508 1.7657 0.533535 0 0 0 1.30004 0.973403 0.259024 
451 2.99114 2.22371 1.53029 0.633452 0 0 0 1.65108 -0.27589 -0.312243 
259 1.58512 1.88708 1.64909 0.29793 0 0 0 -0.811092 2.34937 2.43802 
463 1.58447 1.95969 1.66739 0.313835 0 0 0 -0.64449 2.58974 1.31883 
307 1.54445 1.74375 1.60346 0.263563 0 0 0 -2.47107 3.24286 0.80463 
220 1.54372 1.74205 1.60278 0.263123 0 0 0 -2.49544 3.24302 0.761091 
496 2.03147 2.50601 2.78625 0.657586 0 0 0 0.0310557 -0.181223 1.52987 
472 2.0747 1.79642 2.63684 0.574765 0 0 0 -0.779193 -0.595603 -0.0764134 
473 1.75625 1.5959 2.58876 0.549215 0 0 0 -1.17764 0.12122 -2.34797 
474 2.95854 3.17647 2.68346 0.934254 0 0 0 0.901262 1.04183 0.75575 
497 1.61663 1.94127 2.57965 0.539008 0 0 0 -0.635521 -1.02514 -0.520729 
502 2.22662 2.57159 2.71503 0.667085 0 0 0 0.220395 0.0468151 1.38662 
477 3.17713 2.0138 2.59479 0.781978 0 0 0 1.29713 -0.453759 0.857149 
513 2.63016 3.0298 3.05944 0.919997 0 0 0 0.557671 0.805124 1.27699 
479 1.80985 1.75127 2.41699 0.49856 0 0 0 -1.15678 -0.356569 -2.63236 
501 1.6536 2.4538 3.00118 0.69825 0 0 0 -0.144822 -0.376351 1.73335 
503 2.03372 3.1535 2.47845 0.734326 0 0 0 0.328421 1.26101 0.849373 
482 1.57532 3.16058 3.12964 0.875848 0 0 0 0.0454502 0.862644 1.49566 
511 3.00814 2.13234 2.41307 0.702011 0 0 0 1.18574 -0.463511 0.754355 
510 2.10249 2.54653 2.61072 0.623521 0 0 0 0.225984 -0.046296 1.38351 
508 2.62305 1.96044 3.05692 0.772121 0 0 0 0.282793 -0.409113 1.38038 
505 3.15568 2.91939 3.22206 1.06052 0 0 0 0.887149 0.587055 1.13086 
499 1.80691 1.78436 2.91322 0.645106 0 0 0 -0.705481 -0.515555 0.136741 
495 2.94831 1.72933 2.7966 0.758142 0 0 0 0.827149 -0.506847 1.07251 
489 3.12957 1.50361 3.00017 0.868009 0 0 0 0.959293 -0.334813 1.04649 
490 2.37284 2.40854 2.58346 0.629827 0 0 0 0.304729 -0.181171 1.22528 
491 2.27434 1.49882 2.74564 0.62995 0 0 0 -0.618167 -0.160372 0.104053 
506 1.97648 2.06882 3.04671 0.700279 0 0 0 -0.385114 -0.55923 1.21407 
493 3.07267 3.01075 2.79147 0.943094 0 0 0 1.00008 0.81725 0.886011 
480 2.35966 2.25058 2.39424 0.56922 0 0 0 0.406829 -0.387116 1.22443 
ITEM: TIMESTEP
800993
ITEM: NUMBER OF ATOMS
512
ITEM: BOX BOUNDS ss ss ss
-2.2775349561678951e-01 3.2932607586404616e+00
-4.0122540508749138e-01 3.2891132425832117e+00
-1.7039273299291779e-01 3.2223573019164853e+00
ITEM: ATOMS id x y z width_SPH x_COM y_COM z_COM vx vy vz 
23 0.539288 1.16104 0.37278 0.613015 0 0 0 0.633793 -0.0976312 -0.569964 
3 -0.140331 -0.124435 0.0939725 1.0357 0 0 0 -1.01065 -0.93412 -0.881337 
4 1.1215 0.710241 0.265508 0.622554 0 0 0 0.00937614 0.209789 -1.02932 
5 0.225458 1.27088 -0.0394028 0.78251 0 0 0 -0.197429 -0.301955 -0.966487 
6 0.0115252 1.14394 0.376958 0.727353 0 0 0 -0.76223 -0.268006 -0.705378 
22 0.12862 1.05029 0.0595986 0.785117 0 0 0 -0.507385 -0.424295 -0.970651 
8 0.686461 0.733454 -0.0391977 0.747514 0 0 0 0.0953377 -0.433133 -1.18302 
9 1.3567 -0.241855 0.26349 0.804206 0 0 0 -0.298882 -1.1864 -1.40894 
10 -0.0863174 -0.263407 0.0260435 1.07371 0 0 0 -0.931963 -0.985721 -0.901897 
11 0.920707 1.15036 -0.028526 0.696437 0 0 0 0.752231 -0.165329 -0.435072 
12 0.461887 1.343 0.164183 0.674424 0 0 0 0.502726 -0.204154 -0.606929 
13 0.278627 -0.299311 0.200451 0.957907 0 0 0 -0.80629 -1.14362 -1.01851 
14 0.972041 1.22081 0.390071 0.568523 0 0 0 1.27038 0.142502 0.812791 
15 1.08249 0.669971 0.304806 0.617965 0 0 0 -0.0678841 0.142899 -1.16069 
16 0.612756 -0.235829 0.244738 0.869626 0 0 0 -0.630643 -1.16658 -1.20387 
17 0.878269 0.253887 0.00522669 0.783182 0 0 0 -0.298598 -0.660949 -1.49782 
18 0.56219 0.565602 0.356091 0.673122 0 0 0 -0.327143 -0.544883 -1.23562 
274 1.4895 1.31441 0.568096 0.508706 0 0 0 -0.206636 -0.281913 4.84928 
20 0.67939 0.940679 0.297779 0.628464 0 0 0 0.463996 -0.143608 -0.766436 
62 1.19143 1.02676 0.635988 0.499497 0 0 0 0.00575503 0.577746 1.3786 
50 0.549986 -0.381033 0.627222 0.850633 0 0 0 -0.738638 -1.36614 -0.856472 
31 -0.0666998 1.19079 0.657984 0.694832 0 0 0 -0.999915 -0.0999386 -0.584633 
44 0.384567 0.857336 0.611344 0.61198 0 0 0 -0.317967 -0.373729 -1.12025 
24 1.01877 -0.213787 1.39568 0.679355 0 0 0 -0.12395 -1.69286 0.603291 
353 1.43469 1.07794 1.35086 0.30662 0 0 0 -0.477994 -3.56927 0.635138 
26 -0.135939 1.02548 1.49494 0.658915 0 0 0 -1.52795 0.0880363 0.0612285 
27 0.398738 1.14913 0.832388 0.546231 0 0 0 -0.0929924 0.0262074 -1.24832 
28 0.947154 0.224996 1.38726 0.550774 0 0 0 -0.881438 -1.47364 0.742579 
91 0.800641 1.12867 1.21354 0.410234 0 0 0 -0.998641 -0.848713 -0.341465 
303 1.47401 1.06096 1.34497 0.308981 0 0 0 0.971361 -3.79519 0.770059 
65 0.669832 0.47178 1.33838 0.53013 0 0 0 -1.15557 -1.29713 0.0919831 
32 0.390325 -0.347401 1.28432 0.809111 0 0 0 -0.778078 -1.47593 -0.132791 
33 0.747581 -0.211901 1.15272 0.709655 0 0 0 -0.599455 -1.55105 -0.195137 
173 0.936212 0.960754 1.29479 0.396885 0 0 0 -3.46692 -1.14497 -0.810933 
35 1.49751 0.0185822 0.818711 0.616277 0 0 0 -0.421792 -1.41791 -1.15813 
21 1.50709 1.44185 1.49138 0.220514 0 0 0 0.245264 1.59471 0.616917 
154 1.32469 1.31546 1.43483 0.268891 0 0 0 1.65054 2.35648 -4.96132 
38 0.219851 1.02869 0.800809 0.601116 0 0 0 -0.640097 -0.169646 -1.01704 
39 -0.227461 0.894409 1.43968 0.703334 0 0 0 -1.58738 -0.0296952 -0.0849056 
2 1.14967 0.675237 1.21353 0.426029 0 0 0 -4.14268 -2.31401 -1.38026 
351 0.859144 1.19145 1.32514 0.381098 0 0 0 -0.727932 -0.464387 0.443685 
42 0.799971 1.37177 1.32996 0.382826 0 0 0 0.818852 -0.146501 1.05488 
195 1.40657 0.799865 1.18838 0.381451 0 0 0 -2.14174 -3.62157 -0.893293 
318 1.49221 1.0687 1.34922 0.306651 0 0 0 1.80139 -3.84522 0.632134 
45 0.998552 0.224027 1.32982 0.545673 0 0 0 -1.04163 -1.56828 0.537159 
46 0.610445 0.267935 0.790682 0.635118 0 0 0 -0.974921 -0.894077 -1.36005 
47 1.21211 0.915315 0.83575 0.454217 0 0 0 -1.73098 -0.485131 0.988013 
48 0.526618 0.788819 1.37475 0.498784 0 0 0 -1.05289 -1.06535 0.0363424 
250 1.49187 1.08593 1.35641 0.302458 0 0 0 1.96547 -3.83543 0.344494 
79 1.49624 1.36941 1.46082 0.233518 0 0 0 3.64299 0.757513 0.550268 
51 0.476675 1.30496 0.94927 0.506039 0 0 0 0.169084 0.221636 -1.33574 
52 1.29203 0.226351 1.31754 0.525364 0 0 0 -0.907373 -1.91141 0.784934 
53 -0.0398869 0.626632 1.25892 0.678805 0 0 0 -1.45045 -0.441274 -0.414627 
54 1.02301 -0.400933 1.42876 0.747461 0 0 0 0.00508145 -1.74379 0.513769 
385 1.48526 1.28966 1.43147 0.252413 0 0 0 3.42481 -2.10721 0.490331 
56 1.27651 0.10359 1.02253 0.574016 0 0 0 -0.869642 -1.66904 -0.734817 
178 0.995032 1.43603 1.45857 0.329983 0 0 0 2.91017 1.35573 0.62404 
115 1.50526 1.15041 1.3764 0.28702 0 0 0 3.09625 -4.38522 0.777728 
59 0.618215 0.6026 1.24066 0.517391 0 0 0 -1.31677 -1.26832 -0.596036 
124 1.46275 1.03845 1.33351 0.314953 0 0 0 0.307904 -3.79381 1.08042 
306 1.50773 -0.285866 0.765564 0.723847 0 0 0 -0.127709 -1.6043 -0.68242 
64 0.863755 -0.339057 1.3046 0.736469 0 0 0 -0.275639 -1.69422 0.221038 
119 1.46935 1.29803 1.43364 0.251085 0 0 0 3.24253 -1.67055 0.899939 
313 1.06027 1.33634 1.41902 0.322542 0 0 0 1.09861 0.946838 2.21119 
149 1.36226 1.21564 1.35164 0.28713 0 0 0 -1.32973 -1.56006 -0.794708 
179 1.27091 0.65544 1.19793 0.420362 0 0 0 -3.49653 -2.75722 -1.57705 
106 1.48398 1.28128 1.42805 0.254532 0 0 0 3.33312 -2.41796 0.652863 
322 1.48977 1.08075 1.35422 0.303752 0 0 0 1.82444 -3.82977 0.432162 
19 1.48533 0.423845 1.00493 0.484896 0 0 0 -0.85284 -1.86255 -1.91696 
512 1.49419 1.3562 1.4562 0.236441 0 0 0 3.67206 0.311502 0.467151 
301 0.930612 1.30713 1.40803 0.352103 0 0 0 0.844403 0.695638 0.473208 
214 1.3994 0.983949 1.30053 0.332296 0 0 0 -2.34881 -3.66496 1.32663 
77 0.453286 1.43621 1.29507 0.467505 0 0 0 -0.73 0.322703 -0.756583 
358 0.802631 1.13455 1.1541 0.418095 0 0 0 -0.811548 -0.815808 -0.341102 
81 0.65863 0.594055 1.15419 0.517896 0 0 0 -1.43269 -1.24582 -1.06383 
71 0.654125 1.22741 1.34848 0.421632 0 0 0 -0.472697 -0.274696 -0.366893 
329 0.87255 1.19711 1.34631 0.376298 0 0 0 -0.663938 -0.284682 0.350674 
57 1.51229 0.644699 1.1874 0.412433 0 0 0 -0.122656 -3.05678 -1.62629 
122 1.21655 0.673187 1.2029 0.420716 0 0 0 -3.98083 -2.58492 -1.52522 
74 0.974793 0.845287 1.26176 0.41189 0 0 0 -4.06624 -1.5923 -1.05764 
228 1.19611 1.41564 1.46552 0.285847 0 0 0 3.66134 1.69407 2.54355 
198 0.988609 1.43717 1.45868 0.331364 0 0 0 2.87823 1.25697 0.754162 
165 1.32818 0.926627 1.25837 0.353441 0 0 0 -4.30458 -3.50945 0.956131 
101 1.00028 1.23476 1.37485 0.345702 0 0 0 -1.00788 0.364948 1.16492 
82 0.914207 0.731779 1.19891 0.446425 0 0 0 -3.041 -1.67017 -1.19376 
229 1.43794 1.01783 1.32157 0.321266 0 0 0 -0.817624 -3.73965 1.25671 
66 0.0779121 -0.209394 2.31732 0.901788 0 0 0 -0.687952 -1.05208 0.580834 
67 0.896593 0.389783 1.98979 0.568994 0 0 0 0.535199 -0.0874473 0.637794 
68 1.03629 0.897868 1.78784 0.431439 0 0 0 0.892995 2.98623 -4.25783 
95 0.398484 -0.0109041 2.10984 0.741995 0 0 0 -0.24992 -0.999984 0.679928 
70 0.431862 1.36488 2.12842 0.534682 0 0 0 0.50191 -0.113953 0.726883 
88 0.0603604 0.335403 2.25425 0.754696 0 0 0 -0.785906 -0.437357 0.780298 
55 0.179151 0.11008 1.56622 0.715517 0 0 0 -0.990353 -1.03047 0.129748 
63 0.0686954 1.42392 1.57716 0.57445 0 0 0 -1.32737 0.122346 0.333566 
87 -0.124827 0.602196 1.97093 0.726216 0 0 0 -1.23339 -0.2278 0.586438 
75 0.13423 1.38274 2.08426 0.597904 0 0 0 -0.600618 -0.111103 0.927865 
86 1.52819 0.494282 1.73489 0.483927 0 0 0 0.0889926 0.601235 0.00419209 
90 0.772499 1.18916 2.00601 0.467508 0 0 0 2.16492 1.08648 -1.69343 
78 0.397216 -0.00263163 2.21456 0.755242 0 0 0 -0.216484 -0.931591 0.705692 
113 0.978009 1.36001 2.06097 0.439915 0 0 0 2.96974 2.54546 -6.73542 
93 0.811342 0.804863 2.02329 0.511044 0 0 0 1.24664 0.892038 -0.290678 
92 0.388019 0.389793 1.87057 0.619936 0 0 0 -0.311895 -0.630192 0.888694 
108 1.1812 0.81575 2.12936 0.500495 0 0 0 1.03681 2.73477 -3.26166 
83 0.717767 1.15514 1.91968 0.462904 0 0 0 1.76401 0.737046 -0.786957 
84 0.247413 0.0622346 2.16075 0.758666 0 0 0 -0.49019 -0.857547 0.680798 
96 1.42755 0.839315 1.89148 0.437818 0 0 0 0.311107 5.24151 -7.87454 
127 1.45838 0.64289 2.04464 0.504503 0 0 0 0.179402 2.32782 -2.51033 
34 -0.00995287 0.530521 1.66397 0.680599 0 0 0 -1.2569 -0.446991 0.292417 
60 0.616722 0.958432 1.89369 0.49654 0 0 0 0.906025 0.186403 0.694742 
25 1.06931 0.282777 1.61881 0.537639 0 0 0 -0.332259 -0.97403 1.42411 
76 0.569499 0.905025 1.57236 0.476953 0 0 0 -0.410871 -0.726924 0.959395 
94 0.548013 0.812209 1.57409 0.494661 0 0 0 -0.474154 -0.799142 1.01572 
37 0.451645 1.06436 1.55401 0.483799 0 0 0 -0.715234 -0.372706 0.801527 
49 -0.225097 0.992379 1.53528 0.693614 0 0 0 -1.56997 0.0719988 0.0721417 
125 1.09268 1.35857 2.31576 0.494744 0 0 0 1.87403 1.87932 -4.76218 
370 1.52837 0.876193 2.34621 0.535457 0 0 0 -0.113998 2.66186 -3.73622 
121 1.2299 0.0557168 2.56175 0.739898 0 0 0 0.420651 -0.463456 0.188908 
97 0.741256 0.963637 2.6719 0.641808 0 0 0 0.791102 0.769512 -0.027713 
98 0.311901 1.033 2.82434 0.738885 0 0 0 -0.061867 0.189116 0.942176 
99 0.716606 0.0242826 2.58279 0.779047 0 0 0 0.23816 -0.650595 0.651577 
100 0.647803 0.403616 2.84607 0.773452 0 0 0 0.21816 0.0515956 0.748525 
128 0.383363 1.44118 2.49724 0.615766 0 0 0 0.291498 -0.114642 0.746874 
131 0.549718 1.23793 2.93584 0.721724 0 0 0 0.375448 0.238875 0.767521 
103 1.03332 0.516068 2.74005 0.695683 0 0 0 0.557508 0.579614 -0.00876985 
130 1.37067 0.465211 2.56845 0.651141 0 0 0 0.363732 0.736494 -0.682361 
114 1.06694 0.88038 2.58086 0.60421 0 0 0 0.894403 1.47521 -1.2638 
129 0.508149 0.0503791 3.07878 0.938569 0 0 0 -0.0943798 -0.452577 0.926422 
116 -0.0918061 0.828692 2.48471 0.768909 0 0 0 -0.926305 -0.00655999 0.912669 
117 -0.11281 0.373906 2.52757 0.849199 0 0 0 -0.963989 -0.312893 0.858349 
109 0.427185 0.944434 3.03849 0.793869 0 0 0 0.0460048 0.256785 0.963216 
110 0.486302 -0.255059 2.78202 0.938173 0 0 0 -0.121535 -0.936648 0.764148 
123 1.28799 1.23656 2.37884 0.511352 0 0 0 0.83459 2.64154 -5.32649 
112 1.16532 0.424952 2.80165 0.724468 0 0 0 0.467864 0.431155 0.041299 
162 0.457141 2.5951 0.566883 0.691737 0 0 0 -0.198997 0.795901 -0.433721 
132 0.662221 2.53027 0.21789 0.732799 0 0 0 0.175154 0.271964 -0.33547 
133 0.0922395 1.78605 0.558714 0.665838 0 0 0 -0.455935 0.139888 -0.504163 
134 0.162152 2.01557 0.242429 0.73626 0 0 0 -0.340449 0.197191 -0.589832 
135 1.32373 2.40948 0.446202 0.616065 0 0 0 0.357541 -1.41327 1.05044 
136 1.10481 2.57107 0.555835 0.622616 0 0 0 0.397424 -0.469643 0.464785 
137 0.0490351 2.5059 0.614626 0.758156 0 0 0 -0.886023 0.864028 -0.494799 
138 0.513596 2.21214 0.0647101 0.745662 0 0 0 0.264202 0.00930086 -0.511826 
139 0.291597 2.24805 0.292715 0.722673 0 0 0 -0.186701 0.334755 -0.5261 
140 0.883335 2.73443 0.162877 0.770976 0 0 0 0.129486 0.361229 -0.290013 
141 -0.0439173 2.3866 0.16064 0.863761 0 0 0 -0.83565 0.588523 -0.612656 
142 1.45321 2.54108 0.57578 0.605432 0 0 0 -0.0152829 -1.15817 0.848442 
143 1.27571 2.91643 0.597735 0.687649 0 0 0 -0.0928437 0.533073 -0.00199422 
160 0.794611 3.07602 0.428214 0.804014 0 0 0 -0.207701 1.16479 -0.290273 
145 0.495422 2.00223 0.0139385 0.740951 0 0 0 0.384885 -0.140963 -0.551339 
146 1.33715 2.00136 0.341056 0.60108 0 0 0 0.654424 -2.10928 2.10564 
147 0.766199 1.82077 0.226307 0.636296 0 0 0 1.19529 -0.679988 0.317643 
148 1.26681 3.02295 0.25203 0.799051 0 0 0 -0.0618242 0.640658 -0.233347 
156 0.0923342 1.95726 0.419735 0.705679 0 0 0 -0.503545 0.220019 -0.514315 
150 1.0832 1.84153 0.514018 0.549521 0 0 0 1.65377 -2.03895 2.64042 
155 0.802652 1.62672 0.139303 0.650624 0 0 0 1.20365 -0.523863 0.232169 
161 1.37471 2.00683 0.411134 0.582785 0 0 0 0.55447 -2.40395 2.53756 
159 0.0392284 1.48545 -0.0352907 0.821638 0 0 0 -0.532889 -0.159702 -0.891067 
170 1.13968 2.09623 1.09396 0.440546 0 0 0 1.46598 -3.77869 4.57922 
163 0.512818 2.85755 0.715426 0.721364 0 0 0 -0.362568 1.26011 -0.434163 
202 0.614154 2.0095 1.00203 0.503112 0 0 0 1.09994 -0.139509 -1.05797 
167 0.867408 1.79173 1.05683 0.4364 0 0 0 2.56069 -1.83468 2.5681 
225 1.49735 1.51636 1.51443 0.217517 0 0 0 -0.855292 -0.815204 -0.888106 
169 0.925716 1.73867 1.43072 0.356733 0 0 0 1.84638 -1.94806 4.92862 
201 -0.0238988 2.74169 0.921927 0.787361 0 0 0 -1.10164 1.15805 -0.49367 
171 0.344798 1.88397 1.31499 0.510871 0 0 0 -0.752205 0.282533 -1.1435 
183 1.0557 1.45292 1.4625 0.315989 0 0 0 3.41745 1.60675 1.20766 
30 0.792091 1.64482 1.51741 0.376352 0 0 0 1.02606 0.0813227 0.161931 
174 0.206879 1.77876 1.03603 0.567114 0 0 0 -0.476559 0.230793 -1.0229 
210 1.50148 1.47893 1.50125 0.217347 0 0 0 0.564692 0.988568 0.142166 
157 1.18864 2.27083 1.02742 0.478469 0 0 0 0.927568 -2.54604 1.97884 
152 1.07997 2.08941 0.712468 0.523342 0 0 0 1.53883 -2.43135 2.37606 
314 1.50113 1.48138 1.50212 0.217249 0 0 0 0.469907 0.864646 0.0382383 
197 0.0748402 2.23525 1.0802 0.643444 0 0 0 -1.00242 0.595574 -0.809922 
180 0.421873 2.02562 1.49853 0.493813 0 0 0 -1.13658 0.33944 -0.727789 
181 0.627686 2.08579 1.41776 0.456517 0 0 0 -0.466934 0.710799 -1.41787 
428 1.18669 2.56475 1.42783 0.483302 0 0 0 -0.598124 1.18335 -1.62202 
410 1.4991 1.48774 1.50438 0.217076 0 0 0 0.80193 0.611859 -0.0328446 
184 0.816888 2.82807 1.23688 0.603671 0 0 0 -0.226959 1.57112 -1.11911 
460 1.49413 1.50152 1.50836 0.217102 0 0 0 -0.273485 -0.0774793 -0.50832 
186 0.975643 2.81775 1.04021 0.606021 0 0 0 -0.0236956 1.0024 -0.639742 
196 0.570964 1.70122 1.47318 0.432141 0 0 0 -0.553896 0.191648 -0.178941 
188 0.309624 2.5385 1.32084 0.61326 0 0 0 -0.88391 1.28407 -1.11734 
200 0.952342 2.70818 1.14964 0.565977 0 0 0 0.0652637 0.959674 -1.03813 
190 0.81157 1.85976 1.03819 0.453605 0 0 0 2.21268 -1.24138 0.979106 
166 0.578326 1.64115 0.820062 0.51415 0 0 0 1.37957 -0.126802 -0.491378 
192 0.613366 2.06273 1.28736 0.468808 0 0 0 0.152131 0.522698 -1.66712 
193 1.11512 2.50091 1.38662 0.476142 0 0 0 -0.418102 0.868715 -1.5248 
203 1.49709 1.53528 1.52114 0.2189 0 0 0 -1.53204 -1.18183 -1.05558 
208 1.50103 1.48233 1.50246 0.217215 0 0 0 0.443672 0.812452 0.00488137 
41 1.49969 1.49087 1.50544 0.217015 0 0 0 0.111094 0.319452 -0.334406 
342 1.4981 1.50466 1.51029 0.217086 0 0 0 -0.413104 -0.390326 -0.699662 
164 1.49914 1.49496 1.50687 0.216986 0 0 0 -0.0435981 0.0864135 -0.464316 
40 1.49907 1.4955 1.50706 0.216985 0 0 0 -0.0643162 0.0565581 -0.480091 
219 1.49839 1.50152 1.50918 0.217027 0 0 0 -0.293426 -0.248746 -0.633068 
73 1.49776 1.50902 1.51183 0.217207 0 0 0 -0.579069 -0.567471 -0.779898 
43 0.805605 1.44796 1.37081 0.376497 0 0 0 1.30538 -0.0247603 1.27886 
418 1.50719 1.47294 1.49917 0.21769 0 0 0 -0.37491 0.849051 0.0255065 
158 1.23226 1.80437 1.11319 0.389176 0 0 0 1.38682 -9.69075 21.2939 
394 1.50446 1.487 1.49865 0.217127 0 0 0 -0.307682 0.642522 -1.03633 
107 1.49844 1.45725 1.49537 0.218849 0 0 0 1.73309 1.28354 2.58331 
215 0.540869 2.16283 1.63004 0.479714 0 0 0 -1.42855 0.604037 -0.340514 
447 1.39749 2.80308 2.23839 0.567395 0 0 0 -0.109875 1.23068 1.24132 
205 0.0357081 1.958 2.06486 0.63064 0 0 0 -1.35406 -0.385498 0.701803 
206 1.02526 2.47209 2.29806 0.526082 0 0 0 -0.784518 0.075771 2.2409 
207 0.438845 2.84842 1.72195 0.648682 0 0 0 -0.970145 1.7035 -0.719315 
257 1.1462 1.73854 1.5693 0.308091 0 0 0 0.150554 1.36732 0.792335 
194 0.555391 1.94539 1.63956 0.452294 0 0 0 -1.3247 0.0738633 0.248896 
235 1.21548 2.18612 2.35238 0.493662 0 0 0 -0.515597 -1.03703 1.78972 
211 0.956349 2.92222 2.05614 0.605036 0 0 0 -0.719741 1.80985 0.0663103 
212 0.453129 2.60916 1.67387 0.582915 0 0 0 -1.16159 1.49547 -0.741574 
213 0.821558 1.77282 1.80143 0.397827 0 0 0 -0.215341 0.0123331 -1.2522 
242 0.400459 2.35909 2.29194 0.595599 0 0 0 -1.03597 -0.27233 1.19628 
231 0.84834 2.32006 2.12816 0.491558 0 0 0 -1.46638 0.000741054 2.1859 
216 1.16683 2.94849 2.0896 0.599369 0 0 0 -0.547707 1.81478 0.245493 
217 0.343201 2.85139 1.83538 0.671173 0 0 0 -1.07812 1.48818 -0.520586 
218 0.188131 2.60236 1.94756 0.653438 0 0 0 -1.42615 0.765578 -0.0979136 
468 0.852817 2.30967 1.8553 0.453564 0 0 0 -2.1998 1.1249 0.887547 
204 0.982437 2.13675 1.79705 0.400181 0 0 0 -3.11376 1.07136 0.489695 
221 0.781361 2.16855 1.99554 0.461678 0 0 0 -1.81774 -0.142086 1.89153 
222 0.874643 2.13024 1.82114 0.418688 0 0 0 -2.52241 0.608192 0.876284 
223 0.64826 1.75377 1.73341 0.42543 0 0 0 -0.647457 -0.244257 0.582199 
246 1.14636 1.78049 1.58 0.313136 0 0 0 -0.965627 1.32017 0.384872 
104 0.233991 1.55829 2.31381 0.605702 0 0 0 -0.273989 -0.332357 0.943788 
226 1.33009 3.06355 2.06162 0.626231 0 0 0 -0.383204 1.88233 0.0383452 
227 0.147301 1.58649 2.08044 0.590157 0 0 0 -0.739041 -0.333817 0.957666 
234 1.08919 1.77502 1.65724 0.327875 0 0 0 -0.111307 5.13761 -13.7856 
238 1.01266 1.72345 1.58264 0.333679 0 0 0 1.2372 1.37749 -3.7458 
321 1.32125 2.33262 1.84131 0.409755 0 0 0 -2.19681 3.09489 1.05812 
475 0.852222 2.20785 1.83084 0.434529 0 0 0 -2.39325 0.831271 0.936011 
476 1.236 2.27058 2.30391 0.488505 0 0 0 -0.66993 -0.591816 2.29721 
189 0.782454 2.23929 1.56136 0.444169 0 0 0 -1.22526 1.24342 -1.12485 
239 1.34949 1.89792 1.62616 0.304188 0 0 0 -5.24303 3.48693 3.25227 
328 1.239 2.61189 1.80516 0.480291 0 0 0 -1.13652 2.5566 -0.289771 
185 0.0296359 2.45809 1.54539 0.667553 0 0 0 -1.489 0.759413 -0.529499 
337 1.08116 2.12647 1.79494 0.384859 0 0 0 -3.71916 1.54297 0.134447 
462 1.494 3.28882 1.96819 0.696856 0 0 0 -0.327491 1.96139 -0.252659 
168 1.33185 1.85862 1.63155 0.298786 0 0 0 -4.91622 3.88194 2.86633 
247 1.21226 2.26017 1.82707 0.399115 0 0 0 -3.19375 2.60103 0.841807 
177 1.34231 2.09074 1.75652 0.350182 0 0 0 -4.10385 3.77397 -1.22931 
485 1.5067 2.80876 2.33205 0.583721 0 0 0 0.0957803 0.928988 1.38006 
264 1.3721 2.24531 1.827 0.38749 0 0 0 -2.4559 3.42766 0.95152 
69 1.4045 2.22362 1.82304 0.381682 0 0 0 -2.28839 3.58826 0.832328 
483 1.42127 2.31225 1.83497 0.402124 0 0 0 -1.57716 3.46075 1.19413 
350 1.43899 2.29199 1.83175 0.397131 0 0 0 -1.51858 3.54179 1.19886 
249 0.810744 1.71806 2.34598 0.511764 0 0 0 1.1286 -0.642065 -0.195786 
420 1.11136 1.94425 1.68018 0.344427 0 0 0 -3.58133 1.60317 -2.54905 
240 1.42889 1.99382 1.67738 0.320759 0 0 0 -4.0492 3.95806 0.324442 
300 1.51916 1.67208 1.57346 0.245251 0 0 0 -3.20817 2.24357 -0.656046 
398 1.51863 1.67007 1.57263 0.244757 0 0 0 -3.21658 2.19301 -0.698008 
29 0.0998241 1.58839 1.57877 0.564953 0 0 0 -1.34136 0.0104249 0.251673 
224 1.1137 1.66991 1.54005 0.307837 0 0 0 2.25628 1.35928 0.490488 
111 0.951814 1.52524 1.75498 0.365726 0 0 0 2.94885 3.99161 -11.4188 
105 1.42238 1.74491 1.56873 0.264089 0 0 0 -3.21417 2.29601 8.89675 
172 1.02342 1.85688 1.56823 0.344256 0 0 0 -0.615125 -1.5531 3.58376 
153 1.36635 1.72338 1.6766 0.280175 0 0 0 -1.66329 12.4778 -21.802 
341 1.49772 1.55245 1.52725 0.220824 0 0 0 -2.07003 -1.20695 -1.1175 
144 1.49737 1.55543 1.52765 0.221189 0 0 0 -2.02544 -1.23481 -0.91838 
332 1.49424 1.56547 1.53147 0.222687 0 0 0 -0.541384 -0.876108 -0.943719 
486 1.5315 1.94567 2.15279 0.420409 0 0 0 -0.552357 0.806864 -5.18663 
336 1.53233 1.71297 1.59081 0.255617 0 0 0 -2.86327 3.06986 0.0539732 
80 1.49759 1.55013 1.52642 0.22053 0 0 0 -2.00276 -1.21891 -1.11258 
232 0.49216 2.02195 2.69548 0.642611 0 0 0 -0.0745438 -0.804793 1.41704 
233 0.819153 1.89517 2.82464 0.638636 0 0 0 0.440518 -0.77478 1.02623 
255 -0.0545587 2.84034 2.49112 0.830807 0 0 0 -1.33128 0.662501 0.395584 
266 0.366653 1.98499 2.58794 0.636923 0 0 0 -0.320957 -0.749399 1.30893 
236 1.10598 2.61864 2.76414 0.65124 0 0 0 -0.0562863 -0.167821 1.86493 
237 0.373429 2.44496 2.4469 0.637518 0 0 0 -0.879449 -0.195091 1.142 
262 0.71918 1.67966 2.53177 0.568063 0 0 0 0.926271 -0.48421 0.339112 
254 0.214175 2.73861 3.11697 0.891496 0 0 0 -0.71247 0.273401 1.45049 
118 0.0283925 1.48111 2.6882 0.743108 0 0 0 -0.6536 -0.166583 1.01432 
241 0.939423 2.12978 3.11426 0.728299 0 0 0 0.137877 -0.661521 1.54257 
265 0.0329544 3.01139 2.61218 0.868523 0 0 0 -1.12544 0.909767 0.525468 
243 0.559648 3.01397 2.64267 0.760244 0 0 0 -0.50883 1.0028 0.858358 
244 -0.0538468 3.17009 2.96979 1.01469 0 0 0 -0.989222 0.906807 0.853303 
245 1.25688 2.18075 2.86043 0.631953 0 0 0 -0.0453563 -0.976658 1.37663 
256 0.063921 2.93296 2.98771 0.928311 0 0 0 -0.938693 0.617748 1.10109 
260 -0.0684631 2.86215 2.72929 0.884981 0 0 0 -1.22646 0.592826 0.736864 
248 0.535507 2.66342 2.98132 0.7745 0 0 0 -0.342573 0.0705763 1.64872 
507 1.514 2.78544 2.91087 0.717642 0 0 0 0.00163251 0.241187 1.77996 
258 0.563515 2.96535 3.08817 0.865753 0 0 0 -0.344515 0.62305 1.47811 
251 0.511304 2.47669 2.63315 0.654784 0 0 0 -0.499777 -0.285973 1.47387 
252 -0.111925 2.39186 2.39214 0.756582 0 0 0 -1.48803 -0.0397594 0.500053 
253 1.04036 3.18639 2.78129 0.794806 0 0 0 -0.146929 1.14523 1.12595 
267 1.82892 0.385598 0.477775 0.596854 0 0 0 -0.154264 -0.0364318 -2.084 
268 2.77884 0.405525 0.286061 0.786133 0 0 0 1.25567 -0.459838 -1.24518 
269 2.2067 0.0402855 -0.1701 0.890932 0 0 0 0.374259 -0.769624 -1.6399 
270 2.56706 0.0594572 -0.070175 0.911771 0 0 0 0.82707 -0.801603 -1.41334 
291 2.17938 0.517071 -0.0151498 0.745448 0 0 0 0.104533 -0.0265198 -1.80513 
272 2.88249 0.826455 0.434374 0.7207 0 0 0 1.24073 0.0309511 -1.12 
273 1.72709 1.05679 0.271324 0.594022 0 0 0 -0.639135 0.752357 0.272466 
295 2.1713 1.36023 0.380863 0.583848 0 0 0 -1.32074 0.225641 0.267981 
275 2.66358 -0.026934 -0.00181963 0.933269 0 0 0 0.952079 -0.903061 -1.25183 
276 1.80978 0.0752471 0.0483166 0.778949 0 0 0 -0.0838287 -0.687913 -1.77595 
294 1.7398 1.32132 0.468058 0.539315 0 0 0 -1.13505 0.0486922 2.88245 
278 1.84913 0.118937 -0.0193151 0.79201 0 0 0 -0.0537314 -0.613861 -1.79867 
279 2.175 0.767305 0.42203 0.586649 0 0 0 -0.127599 0.711307 -1.57241 
290 2.36631 1.24236 0.156959 0.668462 0 0 0 -0.466681 0.307257 -0.928681 
281 2.44926 1.10437 0.372455 0.618622 0 0 0 -0.226728 0.581787 -1.09595 
289 2.44024 0.744301 0.539646 0.597764 0 0 0 0.576926 0.387512 -1.48427 
292 2.33956 0.902124 0.628313 0.547957 0 0 0 0.151913 0.787002 -1.36188 
284 1.63517 0.788283 0.38501 0.57014 0 0 0 -0.509435 0.940165 -0.962181 
285 2.84964 1.17716 0.0625903 0.79131 0 0 0 0.715089 0.0555143 -1.2482 
286 1.78723 0.485721 0.444936 0.58735 0 0 0 -0.294103 0.282609 -2.06145 
287 2.57698 1.17322 0.482561 0.61156 0 0 0 0.0428279 0.539615 -1.03 
288 2.12027 0.470308 0.103728 0.706468 0 0 0 0.0548045 -0.00961236 -1.83866 
283 2.43674 -0.0381397 0.797333 0.72071 0 0 0 1.11702 -1.28522 -0.558129 
297 2.10953 0.404041 1.31448 0.507881 0 0 0 1.90409 -1.28971 1.10999 
298 2.93001 0.3784 1.22614 0.699642 0 0 0 1.80706 -0.768752 0.10368 
299 2.17785 0.794496 1.15772 0.446812 0 0 0 3.04145 -0.0323777 -0.486654 
326 2.16132 0.241579 1.27565 0.557615 0 0 0 1.36195 -1.4782 0.897737 
421 1.83954 1.44084 1.50274 0.295544 0 0 0 -2.29072 -3.41414 -0.0482368 
302 2.2023 0.171768 1.03879 0.593099 0 0 0 1.23408 -1.32828 -0.190313 
409 1.68111 1.13811 1.38277 0.30234 0 0 0 7.62367 -3.47574 0.200539 
304 2.56842 0.907699 0.967203 0.532659 0 0 0 1.36621 0.342776 -0.843769 
327 2.48296 0.0221887 1.06097 0.686 0 0 0 1.27706 -1.34482 -0.00758892 
271 2.03991 0.860397 1.25086 0.407328 0 0 0 4.83298 -0.12666 -0.068526 
325 1.98594 0.355551 1.00004 0.521514 0 0 0 1.37376 -1.15547 -1.0399 
308 1.84277 0.353844 1.39549 0.497794 0 0 0 1.1437 -1.67543 1.551 
309 2.88629 1.00557 1.17505 0.594011 0 0 0 1.74587 0.142697 -0.102389 
352 2.85341 1.20475 1.47988 0.560578 0 0 0 1.76121 0.0542264 0.517009 
311 2.00273 0.716305 0.965146 0.458609 0 0 0 2.42587 -0.00769025 -1.77907 
312 2.53391 1.33844 0.846885 0.525579 0 0 0 -0.117213 0.548483 -0.597142 
293 2.42309 1.11164 0.861815 0.504926 0 0 0 0.21031 0.810955 -0.879196 
324 1.62813 -0.0597983 0.885015 0.633874 0 0 0 -0.11465 -1.61405 -0.685096 
315 2.60039 1.07859 1.23024 0.500886 0 0 0 1.63812 0.261101 -0.0845931 
316 2.72627 0.872234 1.06806 0.566482 0 0 0 1.68895 0.0839983 -0.390926 
317 2.17447 0.00895475 1.26039 0.630986 0 0 0 0.833484 -1.67309 0.738104 
345 2.10888 1.08501 1.35917 0.384712 0 0 0 3.15611 0.530646 0.35743 
323 2.38134 0.331225 1.4536 0.569985 0 0 0 1.39882 -1.12556 1.28541 
455 2.55583 1.28173 1.36755 0.472766 0 0 0 1.51364 0.132498 0.181899 
435 2.27639 1.22552 1.31462 0.41136 0 0 0 0.998712 0.0652317 0.565545 
448 2.20141 1.19778 1.32869 0.395786 0 0 0 1.29426 0.0627376 0.913648 
330 2.12819 0.968261 1.33153 0.403423 0 0 0 3.6931 0.317054 0.28499 
333 2.02459 1.08667 1.30523 0.371338 0 0 0 4.55168 0.016855 1.82267 
320 2.05153 1.24466 1.39439 0.356995 0 0 0 1.45105 -0.218578 1.67623 
85 1.93766 0.688029 1.22732 0.424794 0 0 0 4.19035 -1.03504 -0.384174 
72 1.85278 0.835644 1.34412 0.381422 0 0 0 5.98992 -0.139858 -1.58447 
280 1.92793 1.15719 0.954519 0.418536 0 0 0 0.281976 -0.516051 5.51804 
282 1.82598 1.09003 1.37787 0.331795 0 0 0 7.68107 0.0348039 -2.08869 
58 1.53876 0.410762 0.794832 0.520966 0 0 0 -0.628888 -0.813597 -2.48365 
7 1.78037 0.749629 1.18988 0.399087 0 0 0 4.57907 -1.93033 -1.07277 
175 1.6862 0.702469 1.18442 0.402969 0 0 0 3.05519 -2.53256 -1.39656 
151 1.67338 0.69486 1.1842 0.404026 0 0 0 2.80355 -2.59528 -1.42872 
102 1.68173 0.685795 1.18738 0.406095 0 0 0 2.83215 -2.53414 -1.39625 
401 1.68763 1.2133 1.38464 0.290459 0 0 0 6.15744 -7.40013 9.3096 
431 1.82255 1.38593 1.47813 0.29416 0 0 0 -1.17603 -3.90173 1.50256 
230 1.56873 0.813991 1.19065 0.375191 0 0 0 1.90253 -3.5117 -0.549806 
402 1.95157 1.39054 1.18277 0.365154 0 0 0 -1.92873 -6.3488 17.6086 
61 2.0614 1.43224 1.48036 0.34774 0 0 0 -1.14278 -1.58263 0.681512 
305 2.1485 1.42894 1.51639 0.368183 0 0 0 -0.45211 -0.690373 -0.938275 
89 2.192 1.4391 1.48267 0.378189 0 0 0 -0.208568 -1.02956 0.257883 
363 1.70564 1.42067 1.51247 0.26305 0 0 0 1.53653 23.0379 -69.0385 
500 2.10569 1.32175 1.88391 0.412444 0 0 0 -1.33917 1.80857 -6.18411 
355 2.35839 0.184452 1.86313 0.63447 0 0 0 0.366743 -1.07705 1.05969 
381 3.11613 1.01979 2.35073 0.739097 0 0 0 1.30342 -0.262231 0.68842 
331 2.87923 0.0788058 2.06589 0.792854 0 0 0 1.08632 -1.15048 0.611478 
364 1.76962 0.735992 2.16028 0.517308 0 0 0 -0.565259 2.08265 -2.77001 
456 2.33967 1.28734 1.85279 0.45211 0 0 0 -0.0216713 -0.0187649 -0.567875 
334 2.84871 0.650637 1.56623 0.619735 0 0 0 1.61394 -0.526251 0.796508 
379 2.85971 0.751267 2.16119 0.66274 0 0 0 0.956994 -0.296445 0.716368 
357 2.79171 1.1106 1.69075 0.555739 0 0 0 1.47434 -0.156967 0.974941 
349 2.50806 1.06994 1.68912 0.485856 0 0 0 1.0481 -0.242969 1.07414 
338 2.91329 1.04907 1.57017 0.592008 0 0 0 1.69169 -0.0901814 0.716314 
339 2.60637 0.208204 1.78259 0.663658 0 0 0 0.88025 -1.09946 0.930368 
340 2.03196 0.919078 1.73824 0.427767 0 0 0 0.610139 2.04112 -2.7612 
380 2.25571 1.36196 2.17206 0.492286 0 0 0 -0.92216 0.227004 -1.48843 
356 2.53184 0.904635 2.0194 0.548951 0 0 0 0.229704 -0.0733693 0.595527 
359 2.00327 -0.0960524 2.15981 0.722347 0 0 0 0.00875403 -1.20853 0.524045 
344 2.80142 -0.0437808 2.11852 0.816015 0 0 0 0.909472 -1.29328 0.606363 
348 3.04077 1.33757 1.60003 0.619055 0 0 0 1.74343 -0.105231 0.435872 
346 1.58773 0.374972 1.94495 0.544623 0 0 0 0.0740732 0.360932 0.055137 
354 2.04636 0.843232 1.58868 0.422711 0 0 0 2.337 1.06367 -0.593082 
368 2.37677 0.682569 2.36623 0.614732 0 0 0 -0.272369 0.0966938 0.0449763 
366 1.71031 1.38231 2.04876 0.405696 0 0 0 -1.48428 7.06541 -20.3635 
371 2.18583 0.971475 2.33558 0.55166 0 0 0 -0.95153 0.813064 -1.29552 
377 1.74601 1.18746 1.97096 0.407211 0 0 0 -1.22638 7.54544 -18.0434 
360 1.90747 0.404478 2.3254 0.616733 0 0 0 -0.290901 0.209308 -0.467815 
361 2.15681 1.26107 2.27566 0.509605 0 0 0 -1.32493 0.772326 -2.22143 
335 2.54276 0.223579 1.52697 0.631494 0 0 0 1.20219 -1.16846 0.995532 
384 1.99729 -0.0776376 2.77943 0.849448 0 0 0 0.0754859 -0.817699 0.466735 
376 2.66835 0.594172 2.77917 0.779063 0 0 0 0.370206 -0.267682 0.787326 
375 2.39585 0.989107 2.70504 0.665024 0 0 0 -0.364316 0.253859 0.190212 
362 2.50173 1.42621 2.86667 0.696431 0 0 0 -0.126936 -0.207828 0.712537 
126 1.54709 0.230959 2.44275 0.669909 0 0 0 0.190653 -0.0431836 -0.289625 
383 3.11738 1.16306 2.83543 0.835524 0 0 0 1.03594 -0.275983 0.893836 
365 2.96941 -0.0926774 2.52754 0.942726 0 0 0 0.964694 -1.11941 0.625895 
374 2.49303 0.362286 2.5845 0.739405 0 0 0 0.163767 -0.519001 0.603584 
367 2.83512 -0.0952184 2.44692 0.894594 0 0 0 0.828596 -1.20578 0.631833 
382 2.46012 0.611973 2.90139 0.779648 0 0 0 0.00280975 -0.0960557 0.703915 
369 2.63778 0.580109 2.64824 0.739167 0 0 0 0.331741 -0.276042 0.688851 
373 2.14105 0.726534 2.45077 0.603869 0 0 0 -0.651269 0.594277 -0.680571 
406 2.09112 2.16896 0.430839 0.611265 0 0 0 -1.06554 -1.43411 0.481121 
386 2.0284 2.99123 0.371048 0.772706 0 0 0 -0.203153 0.499836 -0.469318 
387 2.72329 1.69898 0.609379 0.620611 0 0 0 0.125396 -0.139206 -0.67006 
408 1.85314 2.49566 0.317939 0.670082 0 0 0 -0.44078 -0.943465 0.185433 
389 2.18616 3.05826 0.428307 0.790717 0 0 0 -0.0941002 0.695843 -0.557208 
390 2.98317 1.77901 0.535155 0.707931 0 0 0 0.849943 -0.129233 -0.779555 
391 2.11535 1.83161 0.648485 0.532527 0 0 0 -2.13322 -1.78882 1.75424 
403 2.5459 2.18678 0.119716 0.75135 0 0 0 -0.0754424 -0.411429 -0.815062 
393 2.66093 2.28842 0.183064 0.764203 0 0 0 0.17362 -0.246708 -0.873327 
405 2.78811 3.02173 -0.121112 1.01931 0 0 0 0.448673 0.483335 -0.802738 
395 1.81381 2.31843 0.62591 0.567286 0 0 0 -0.975039 -2.06637 1.31384 
396 2.10804 2.72738 0.663081 0.647389 0 0 0 -0.447572 -0.023318 -0.398818 
397 2.16783 2.01056 -0.00250806 0.730132 0 0 0 -0.551798 -0.808907 -0.3269 
407 3.03609 2.65996 0.0661366 0.941521 0 0 0 0.752092 0.242128 -0.877929 
399 2.55634 2.07553 0.33948 0.678297 0 0 0 -0.217672 -0.510618 -0.66232 
400 3.03867 3.09633 0.0948054 1.03122 0 0 0 0.703318 0.615651 -0.726257 
404 2.54911 1.82912 0.1351 0.717735 0 0 0 -0.227234 -0.383307 -0.795839 
392 1.64897 1.7019 1.30236 0.313633 0 0 0 -4.3964 -24.5743 61.7965 
347 1.74968 2.58561 1.44171 0.482407 0 0 0 -0.442402 0.909023 -1.16963 
470 3.18034 2.73685 1.51285 0.777333 0 0 0 1.36502 0.545251 -0.283498 
412 2.83896 2.70487 0.90463 0.719796 0 0 0 0.791075 0.476968 -0.695046 
413 2.99687 2.31763 1.18363 0.663646 0 0 0 1.32585 -0.0830541 -0.625422 
414 2.35624 1.78558 1.13988 0.461764 0 0 0 -0.742075 -1.47672 0.0408624 
415 2.18729 1.9517 0.959638 0.482594 0 0 0 -2.14019 -2.22288 1.05743 
416 1.76813 2.56765 1.21183 0.503755 0 0 0 -0.959964 -0.469336 -0.755524 
454 1.96176 3.07035 1.40585 0.634755 0 0 0 -0.187825 1.4875 -0.880991 
427 1.90156 2.97812 1.41373 0.600581 0 0 0 -0.275434 1.39298 -1.01349 
419 3.09087 2.31628 1.28366 0.68543 0 0 0 1.47358 -0.0907483 -0.502461 
457 2.18048 2.18526 1.39274 0.445662 0 0 0 0.664243 -0.848475 -0.804403 
411 1.77753 1.49709 1.51758 0.279057 0 0 0 -3.50375 -3.86789 0.146927 
422 2.52327 1.82722 0.892714 0.534171 0 0 0 -0.488507 -0.71155 -0.445587 
423 2.22281 3.17064 1.41836 0.692848 0 0 0 0.211828 1.49871 -0.625278 
424 1.98908 2.69972 0.785544 0.609123 0 0 0 -0.644647 -0.213526 -0.311734 
425 2.52502 2.65947 0.978215 0.634304 0 0 0 0.284948 0.37983 -0.819761 
426 2.16555 2.22826 1.02762 0.500696 0 0 0 -1.39639 -1.51875 -0.245584 
446 2.15404 1.47216 1.43062 0.370644 0 0 0 -0.757831 -2.07799 2.30977 
441 3.15009 2.03261 1.39372 0.670918 0 0 0 1.68535 -0.393132 -0.321687 
429 2.28301 3.01719 0.830939 0.710771 0 0 0 -0.0175302 0.880806 -0.645503 
430 3.24666 2.98695 1.29672 0.866169 0 0 0 1.22318 0.801666 -0.328429 
449 2.29124 2.24049 1.41349 0.472487 0 0 0 0.979723 -0.238091 -1.01197 
388 1.59812 2.19683 1.01817 0.463184 0 0 0 -1.12527 -4.52488 4.55145 
433 2.03727 1.73801 1.21706 0.390795 0 0 0 -3.06218 -5.99452 9.07509 
434 1.60082 2.73668 1.06615 0.558629 0 0 0 -0.646763 -0.104378 -0.507384 
432 2.37388 1.88404 1.34991 0.447539 0 0 0 0.877504 -1.55942 -0.547206 
436 3.01036 2.09203 0.843109 0.681815 0 0 0 1.07794 -0.22336 -0.688425 
437 2.8462 1.57157 0.966139 0.587293 0 0 0 0.941075 0.0775864 -0.585527 
438 2.8555 2.16438 1.42914 0.589202 0 0 0 1.62875 -0.368321 -0.503909 
439 3.06985 3.26361 1.23339 0.897858 0 0 0 0.949548 1.11243 -0.325505 
440 2.10108 2.01538 0.939852 0.483858 0 0 0 -2.34469 -2.61684 1.56027 
458 2.14521 2.40779 1.42054 0.480223 0 0 0 0.451922 0.375973 -1.04741 
464 2.20089 2.07552 1.39204 0.431482 0 0 0 0.776151 -1.57483 -0.489487 
443 2.58771 1.94946 2.09056 0.535521 0 0 0 1.22741 -0.8832 1.06627 
444 2.8486 1.46504 1.86655 0.570207 0 0 0 1.47562 -0.495901 0.741143 
445 2.81527 2.21551 2.1293 0.614388 0 0 0 1.21889 -0.376522 0.618637 
310 1.78294 2.08929 1.76574 0.364648 0 0 0 2.9295 1.76752 -0.104242 
372 1.61022 2.19644 1.81033 0.377709 0 0 0 0.390885 3.52848 0.842722 
296 2.37676 1.99587 1.7502 0.45479 0 0 0 2.73139 -0.912722 0.691456 
471 1.98875 1.90613 1.68087 0.358625 0 0 0 3.68244 -2.27037 -0.855703 
450 2.67999 1.85887 1.96779 0.537546 0 0 0 1.57156 -0.979831 0.850386 
182 1.64286 1.88949 1.64868 0.302928 0 0 0 0.631464 1.14043 2.03363 
452 2.11881 2.90997 1.68517 0.592223 0 0 0 0.466498 1.44554 -0.398905 
453 1.56028 2.45095 2.19982 0.487035 0 0 0 0.354135 0.82738 2.32796 
469 2.08406 1.70843 2.05619 0.431065 0 0 0 0.0260672 -0.355187 -3.08908 
343 2.09718 1.70346 1.57754 0.360073 0 0 0 0.92169 -3.60578 0.0493907 
481 2.16303 2.25178 1.79844 0.451738 0 0 0 2.75681 0.771893 1.1111 
467 1.86345 2.64931 1.66668 0.495962 0 0 0 0.528481 1.84498 -0.479502 
378 1.78868 2.33535 1.81545 0.420988 0 0 0 1.83504 2.73098 1.37872 
459 3.15663 2.7618 2.17728 0.803691 0 0 0 1.3311 0.599017 0.259747 
277 1.76728 1.99982 1.70693 0.34065 0 0 0 3.00488 0.914779 -1.08467 
461 1.65114 2.97998 1.7122 0.580969 0 0 0 -0.214501 1.91984 -0.769175 
263 1.87895 1.99472 1.72044 0.355845 0 0 0 3.87575 -0.294752 -0.869976 
261 1.68405 1.99279 1.69119 0.329302 0 0 0 1.71183 1.80472 -0.603446 
176 1.90638 1.54434 1.53657 0.311139 0 0 0 -2.19414 -3.76078 0.588041 
465 1.96043 2.96194 1.89533 0.597783 0 0 0 0.44138 1.55927 0.0162013 
466 2.24247 3.27131 1.79524 0.726836 0 0 0 0.419263 1.62689 -0.194185 
319 2.24975 1.91453 1.63878 0.411732 0 0 0 2.91658 -1.83099 0.106727 
478 2.18734 3.04935 2.25827 0.683238 0 0 0 0.539358 1.21412 0.572462 
484 1.90492 2.64751 2.31714 0.562312 0 0 0 0.647536 0.48974 1.45388 
187 2.13031 2.09995 1.70539 0.41371 0 0 0 3.45075 -0.361721 0.630759 
509 3.29297 2.84291 2.26144 0.875196 0 0 0 1.37373 0.653919 0.329603 
488 2.31766 1.87768 1.72535 0.429171 0 0 0 2.78251 -1.52819 0.406125 
492 2.70859 2.30871 2.28735 0.620863 0 0 0 0.893942 -0.213777 0.823961 
494 2.94687 2.34984 2.28063 0.68446 0 0 0 1.18416 -0.127227 0.575919 
504 2.87671 1.9456 2.27657 0.631953 0 0 0 1.10363 -0.739887 0.756558 
199 1.89315 1.96045 1.70229 0.351187 0 0 0 3.89496 -0.926791 -1.12811 
120 1.67259 1.9638 1.67438 0.321489 0 0 0 1.45886 1.5349 -0.00698223 
442 2.28184 1.67739 1.7112 0.410209 0 0 0 1.68419 -1.59489 -0.504979 
498 2.04613 1.55965 1.97778 0.409437 0 0 0 -0.910537 1.08516 -7.14746 
487 1.91916 2.03369 2.33112 0.488957 0 0 0 0.0326085 -0.698199 0.22481 
209 2.03145 1.70589 1.5911 0.345965 0 0 0 0.865963 -3.84858 -0.484418 
36 2.10179 2.14084 1.72251 0.416346 0 0 0 3.40629 0.0973048 0.774144 
191 1.67811 1.96819 1.67706 0.323025 0 0 0 1.57629 1.52175 -0.149098 
417 2.33714 2.53508 1.7657 0.533535 0 0 0 1.30003 0.973407 0.259023 
451 2.99114 2.22371 1.53029 0.633452 0 0 0 1.65108 -0.275886 -0.312244 
259 1.58512 1.88708 1.64909 0.29793 0 0 0 -0.811143 2.34942 2.43798 
463 1.58447 1.95969 1.66739 0.313835 0 0 0 -0.644524 2.58974 1.31888 
307 1.54445 1.74375 1.60346 0.263563 0 0 0 -2.47116 3.24306 0.804453 
220 1.54372 1.74205 1.60278 0.263123 0 0 0 -2.49554 3.24322 0.760915 
496 2.03147 2.50601 2.78625 0.657586 0 0 0 0.0310566 -0.181224 1.52987 
472 2.0747 1.79642 2.63684 0.574765 0 0 0 -0.779191 -0.595604 -0.0764166 
473 1.75625 1.5959 2.58876 0.549215 0 0 0 -1.17764 0.121221 -2.34798 
474 2.95854 3.17647 2.68346 0.934254 0 0 0 0.901262 1.04183 0.75575 
497 1.61663 1.94127 2.57965 0.539008 0 0 0 -0.635515 -1.02514 -0.52074 
502 2.22662 2.57159 2.71503 0.667085 0 0 0 0.220395 0.0468148 1.38662 
477 3.17713 2.0138 2.59479 0.781978 0 0 0 1.29713 -0.453759 0.857151 
513 2.63016 3.0298 3.05945 0.919997 0 0 0 0.557671 0.805123 1.27698 
479 1.80985 1.75127 2.41699 0.49856 0 0 0 -1.15678 -0.356566 -2.63238 
501 1.6536 2.4538 3.00118 0.69825 0 0 0 -0.144819 -0.376351 1.73334 
503 2.03372 3.1535 2.47845 0.734326 0 0 0 0.328421 1.26101 0.849371 
482 1.57532 3.16058 3.12964 0.875849 0 0 0 0.0454517 0.862644 1.49566 
511 3.00814 2.13234 2.41307 0.702011 0 0 0 1.18574 -0.46351 0.754357 
510 2.10249 2.54653 2.61072 0.623522 0 0 0 0.225984 -0.0462963 1.38351 
508 2.62305 1.96044 3.05692 0.772122 0 0 0 0.282794 -0.409114 1.38038 
505 3.15568 2.91939 3.22206 1.06052 0 0 0 0.887149 0.587055 1.13086 
499 1.80691 1.78436 2.91322 0.645106 0 0 0 -0.705477 -0.515556 0.136736 
495 2.94831 1.72933 2.7966 0.758142 0 0 0 0.82715 -0.506848 1.07251 
489 3.12957 1.50361 3.00017 0.868009 0 0 0 0.959295 -0.334814 1.04649 
490 2.37284 2.40854 2.58346 0.629827 0 0 0 0.304728 -0.181171 1.22528 
491 2.27434 1.49882 2.74564 0.62995 0 0 0 -0.618165 -0.160374 0.104053 
506 1.97648 2.06882 3.04671 0.700279 0 0 0 -0.385112 -0.559231 1.21407 
493 3.07267 3.01075 2.79147 0.943094 0 0 0 1.00008 0.81725 0.886011 
480 2.35966 2.25058 2.39424 0.56922 0 0 0 0.406827 -0.387115 1.22443 
ITEM: TIMESTEP
800994
ITEM: NUMBER OF ATOMS
512
ITEM: BOX BOUNDS ss ss ss
-2.2775349561678951e-01 3.2932607586404616e+00
-4.0122540508749138e-01 3.2891132425832117e+00
-1.7039273299291779e-01 3.2223573019164853e+00
ITEM: ATOMS id x y z width_SPH x_COM y_COM z_COM vx vy vz 
23 0.539288 1.16104 0.37278 0.613016 0 0 0 0.633793 -0.0976293 -0.569961 
3 -0.140331 -0.124435 0.0939723 1.0357 0 0 0 -1.01065 -0.934119 -0.881335 
4 1.1215 0.710241 0.265508 0.622554 0 0 0 0.00937771 0.209791 -1.02932 
5 0.225458 1.27088 -0.039403 0.78251 0 0 0 -0.197429 -0.301953 -0.966485 
6 0.011525 1.14394 0.376958 0.727353 0 0 0 -0.762231 -0.268005 -0.705376 
22 0.12862 1.05029 0.0595984 0.785117 0 0 0 -0.507385 -0.424294 -0.970649 
8 0.686461 0.733454 -0.039198 0.747514 0 0 0 0.0953385 -0.433132 -1.18302 
9 1.3567 -0.241856 0.263489 0.804206 0 0 0 -0.29888 -1.1864 -1.40894 
10 -0.0863176 -0.263407 0.0260433 1.07371 0 0 0 -0.931962 -0.98572 -0.901895 
11 0.920707 1.15036 -0.0285261 0.696437 0 0 0 0.752231 -0.165327 -0.435069 
12 0.461887 1.343 0.164183 0.674424 0 0 0 0.502726 -0.204152 -0.606927 
13 0.278627 -0.299311 0.20045 0.957907 0 0 0 -0.806288 -1.14362 -1.0185 
14 0.972041 1.22081 0.390071 0.568523 0 0 0 1.27038 0.142505 0.812796 
15 1.08249 0.669971 0.304806 0.617965 0 0 0 -0.0678822 0.1429 -1.16069 
16 0.612756 -0.23583 0.244738 0.869626 0 0 0 -0.630642 -1.16658 -1.20387 
17 0.878269 0.253887 0.00522632 0.783182 0 0 0 -0.298596 -0.660947 -1.49782 
18 0.56219 0.565602 0.356091 0.673122 0 0 0 -0.327141 -0.544881 -1.23562 
274 1.4895 1.31441 0.568097 0.508706 0 0 0 -0.206639 -0.281912 4.8493 
20 0.67939 0.940679 0.297779 0.628464 0 0 0 0.463997 -0.143606 -0.766434 
62 1.19143 1.02676 0.635988 0.499497 0 0 0 0.00575761 0.577749 1.37861 
50 0.549986 -0.381033 0.627222 0.850633 0 0 0 -0.738635 -1.36614 -0.856471 
31 -0.0667 1.19079 0.657984 0.694832 0 0 0 -0.999917 -0.0999374 -0.584632 
44 0.384566 0.857336 0.611343 0.61198 0 0 0 -0.317966 -0.373727 -1.12025 
24 1.01877 -0.213787 1.39568 0.679356 0 0 0 -0.123946 -1.69286 0.603293 
353 1.43469 1.07794 1.35086 0.30662 0 0 0 -0.477999 -3.5693 0.635045 
26 -0.13594 1.02548 1.49494 0.658915 0 0 0 -1.52795 0.0880371 0.0612282 
27 0.398738 1.14913 0.832388 0.546231 0 0 0 -0.092993 0.0262093 -1.24832 
28 0.947154 0.224996 1.38726 0.550775 0 0 0 -0.88143 -1.47365 0.742581 
91 0.80064 1.12867 1.21354 0.410234 0 0 0 -0.998632 -0.84872 -0.341466 
303 1.47401 1.06096 1.34497 0.308981 0 0 0 0.971361 -3.79523 0.769968 
65 0.669832 0.47178 1.33838 0.53013 0 0 0 -1.15556 -1.29713 0.0919855 
32 0.390325 -0.347401 1.28432 0.809111 0 0 0 -0.778076 -1.47593 -0.13279 
33 0.747581 -0.211901 1.15272 0.709655 0 0 0 -0.599452 -1.55105 -0.195136 
173 0.936211 0.960753 1.29479 0.396886 0 0 0 -3.46689 -1.14498 -0.810927 
35 1.49751 0.0185818 0.81871 0.616277 0 0 0 -0.42179 -1.41791 -1.15813 
21 1.50709 1.44185 1.49138 0.220514 0 0 0 0.245314 1.59489 0.616352 
154 1.32469 1.31546 1.43483 0.26889 0 0 0 1.65055 2.3564 -4.96119 
38 0.219851 1.02869 0.800809 0.601116 0 0 0 -0.640098 -0.169644 -1.01703 
39 -0.227461 0.894409 1.43968 0.703334 0 0 0 -1.58738 -0.0296941 -0.0849055 
2 1.14967 0.675236 1.21353 0.426029 0 0 0 -4.14265 -2.314 -1.38025 
351 0.859144 1.19145 1.32514 0.381098 0 0 0 -0.727922 -0.464403 0.443678 
42 0.799971 1.37177 1.32996 0.382826 0 0 0 0.818844 -0.146522 1.05488 
195 1.40657 0.799864 1.18838 0.381452 0 0 0 -2.14175 -3.62157 -0.893281 
318 1.49221 1.0687 1.34922 0.306652 0 0 0 1.80139 -3.84527 0.632039 
45 0.998552 0.224026 1.32982 0.545673 0 0 0 -1.04162 -1.56828 0.537161 
46 0.610445 0.267935 0.790681 0.635118 0 0 0 -0.974918 -0.894075 -1.36005 
47 1.21211 0.915314 0.835751 0.454217 0 0 0 -1.73098 -0.485123 0.988017 
48 0.526618 0.788819 1.37475 0.498784 0 0 0 -1.05289 -1.06534 0.0363437 
250 1.49187 1.08593 1.35641 0.302459 0 0 0 1.96549 -3.83549 0.344398 
79 1.49624 1.36941 1.46082 0.233517 0 0 0 3.64302 0.757457 0.550096 
51 0.476675 1.30496 0.94927 0.506039 0 0 0 0.169082 0.221635 -1.33574 
52 1.29203 0.226351 1.31754 0.525365 0 0 0 -0.907365 -1.91141 0.784936 
53 -0.0398873 0.626632 1.25892 0.678805 0 0 0 -1.45045 -0.441272 -0.414626 
54 1.02301 -0.400934 1.42877 0.747461 0 0 0 0.00508426 -1.74379 0.51377 
385 1.48526 1.28966 1.43147 0.252413 0 0 0 3.42488 -2.10732 0.490154 
56 1.27651 0.10359 1.02253 0.574016 0 0 0 -0.869637 -1.66904 -0.734814 
178 0.995032 1.43603 1.45857 0.329983 0 0 0 2.91016 1.35572 0.624037 
115 1.50526 1.1504 1.3764 0.28702 0 0 0 3.09629 -4.38533 0.777669 
59 0.618215 0.6026 1.24066 0.517391 0 0 0 -1.31676 -1.26832 -0.596033 
124 1.46275 1.03845 1.33351 0.314953 0 0 0 0.307897 -3.79384 1.08034 
306 1.50773 -0.285867 0.765564 0.723847 0 0 0 -0.127708 -1.60431 -0.682418 
64 0.863755 -0.339058 1.3046 0.736469 0 0 0 -0.275636 -1.69422 0.22104 
119 1.46935 1.29803 1.43365 0.251085 0 0 0 3.24259 -1.67064 0.899764 
313 1.06027 1.33634 1.41902 0.322542 0 0 0 1.09862 0.946821 2.21118 
149 1.36226 1.21564 1.35164 0.287131 0 0 0 -1.32977 -1.56048 -0.793754 
179 1.27091 0.65544 1.19793 0.420362 0 0 0 -3.49653 -2.75722 -1.57704 
106 1.48399 1.28128 1.42805 0.254532 0 0 0 3.33318 -2.41807 0.652693 
322 1.48977 1.08075 1.35422 0.303753 0 0 0 1.82445 -3.82982 0.432066 
19 1.48533 0.423845 1.00493 0.484896 0 0 0 -0.852842 -1.86255 -1.91696 
512 1.49419 1.3562 1.4562 0.23644 0 0 0 3.67211 0.311438 0.466965 
301 0.930612 1.30713 1.40803 0.352103 0 0 0 0.844409 0.695613 0.473202 
214 1.3994 0.983948 1.30053 0.332296 0 0 0 -2.34883 -3.66496 1.32659 
77 0.453286 1.43621 1.29507 0.467505 0 0 0 -0.73001 0.322698 -0.756586 
358 0.802631 1.13455 1.1541 0.418096 0 0 0 -0.81154 -0.815813 -0.341101 
81 0.65863 0.594055 1.15419 0.517896 0 0 0 -1.43269 -1.24582 -1.06383 
71 0.654125 1.22741 1.34848 0.421632 0 0 0 -0.472701 -0.274707 -0.366898 
329 0.87255 1.19711 1.34631 0.376298 0 0 0 -0.663927 -0.2847 0.350668 
57 1.51229 0.644698 1.1874 0.412433 0 0 0 -0.122669 -3.05678 -1.62628 
122 1.21655 0.673186 1.2029 0.420716 0 0 0 -3.98082 -2.58492 -1.52521 
74 0.974792 0.845287 1.26176 0.411891 0 0 0 -4.0662 -1.5923 -1.05763 
228 1.19612 1.41564 1.46552 0.285847 0 0 0 3.66133 1.69415 2.54342 
198 0.98861 1.43717 1.45868 0.331364 0 0 0 2.87822 1.25695 0.754152 
165 1.32818 0.926626 1.25837 0.353441 0 0 0 -4.3046 -3.50944 0.956118 
101 1.00027 1.23476 1.37485 0.345702 0 0 0 -1.00785 0.364923 1.16493 
82 0.914206 0.731779 1.19891 0.446425 0 0 0 -3.04097 -1.67017 -1.19376 
229 1.43794 1.01783 1.32157 0.321266 0 0 0 -0.817639 -3.73967 1.25665 
66 0.0779119 -0.209394 2.31732 0.901789 0 0 0 -0.687951 -1.05208 0.580834 
67 0.896593 0.389783 1.9898 0.568994 0 0 0 0.535201 -0.0874497 0.637793 
68 1.03629 0.897869 1.78784 0.431438 0 0 0 0.892995 2.98623 -4.25787 
95 0.398484 -0.0109044 2.10984 0.741996 0 0 0 -0.249919 -0.999984 0.679929 
70 0.431862 1.36488 2.12842 0.534682 0 0 0 0.501907 -0.113952 0.726877 
88 0.0603602 0.335403 2.25425 0.754696 0 0 0 -0.785906 -0.437357 0.780298 
55 0.179151 0.11008 1.56622 0.715517 0 0 0 -0.990352 -1.03047 0.12975 
63 0.0686951 1.42392 1.57716 0.57445 0 0 0 -1.32737 0.122345 0.333564 
87 -0.124828 0.602196 1.97093 0.726217 0 0 0 -1.23339 -0.227799 0.586438 
75 0.134229 1.38274 2.08426 0.597904 0 0 0 -0.600622 -0.111103 0.927862 
86 1.52819 0.494282 1.73489 0.483927 0 0 0 0.0889964 0.601223 0.00418041 
90 0.772499 1.18916 2.00601 0.467508 0 0 0 2.16492 1.08648 -1.69346 
78 0.397216 -0.00263187 2.21456 0.755242 0 0 0 -0.216483 -0.931591 0.705692 
113 0.97801 1.36001 2.06097 0.439915 0 0 0 2.96974 2.54549 -6.7355 
93 0.811343 0.804863 2.02329 0.511044 0 0 0 1.24664 0.892039 -0.290686 
92 0.388019 0.389793 1.87057 0.619936 0 0 0 -0.311894 -0.630191 0.888695 
108 1.1812 0.81575 2.12936 0.500495 0 0 0 1.03682 2.73478 -3.26168 
83 0.717767 1.15514 1.91968 0.462904 0 0 0 1.76401 0.737048 -0.786976 
84 0.247413 0.0622344 2.16075 0.758666 0 0 0 -0.490189 -0.857546 0.680798 
96 1.42755 0.839316 1.89147 0.437817 0 0 0 0.311117 5.24154 -7.87464 
127 1.45838 0.64289 2.04464 0.504503 0 0 0 0.179409 2.32782 -2.51035 
34 -0.00995318 0.530521 1.66397 0.680599 0 0 0 -1.2569 -0.446989 0.292417 
60 0.616722 0.958432 1.89369 0.49654 0 0 0 0.906023 0.186404 0.694734 
25 1.06931 0.282777 1.61881 0.537639 0 0 0 -0.332252 -0.974033 1.42411 
76 0.569499 0.905025 1.57236 0.476953 0 0 0 -0.410871 -0.726924 0.959393 
94 0.548013 0.812209 1.57409 0.494661 0 0 0 -0.474153 -0.799141 1.01572 
37 0.451645 1.06436 1.55401 0.483799 0 0 0 -0.715237 -0.372707 0.801524 
49 -0.225098 0.992379 1.53528 0.693614 0 0 0 -1.56997 0.0719995 0.0721414 
125 1.09268 1.35857 2.31576 0.494744 0 0 0 1.87404 1.87933 -4.76222 
370 1.52837 0.876194 2.34621 0.535456 0 0 0 -0.113991 2.66187 -3.73624 
121 1.2299 0.0557167 2.56175 0.739898 0 0 0 0.420653 -0.463458 0.188908 
97 0.741257 0.963637 2.6719 0.641808 0 0 0 0.791104 0.769512 -0.0277183 
98 0.311901 1.033 2.82434 0.738885 0 0 0 -0.0618667 0.189116 0.942173 
99 0.716606 0.0242824 2.58279 0.779047 0 0 0 0.238162 -0.650596 0.651576 
100 0.647804 0.403616 2.84607 0.773453 0 0 0 0.218162 0.0515951 0.748523 
128 0.383363 1.44118 2.49724 0.615767 0 0 0 0.291497 -0.114641 0.74687 
131 0.549718 1.23793 2.93584 0.721724 0 0 0 0.375449 0.238875 0.767517 
103 1.03332 0.516068 2.74005 0.695683 0 0 0 0.557511 0.579613 -0.00877261 
130 1.37067 0.465211 2.56845 0.651141 0 0 0 0.363736 0.736493 -0.682364 
114 1.06694 0.88038 2.58086 0.60421 0 0 0 0.894407 1.47521 -1.26381 
129 0.508149 0.050379 3.07878 0.938569 0 0 0 -0.0943785 -0.452577 0.926421 
116 -0.0918064 0.828692 2.48471 0.768909 0 0 0 -0.926306 -0.00655987 0.912667 
117 -0.11281 0.373905 2.52757 0.8492 0 0 0 -0.963989 -0.312893 0.858348 
109 0.427185 0.944434 3.03849 0.79387 0 0 0 0.0460058 0.256784 0.963213 
110 0.486302 -0.255059 2.78202 0.938173 0 0 0 -0.121534 -0.936649 0.764147 
123 1.28799 1.23657 2.37883 0.511351 0 0 0 0.834599 2.64155 -5.32653 
112 1.16532 0.424952 2.80165 0.724468 0 0 0 0.467867 0.431154 0.0412969 
162 0.457141 2.5951 0.566882 0.691738 0 0 0 -0.198999 0.795903 -0.433724 
132 0.662221 2.53027 0.21789 0.732799 0 0 0 0.175153 0.271966 -0.33547 
133 0.0922394 1.78605 0.558714 0.665838 0 0 0 -0.455938 0.139889 -0.504163 
134 0.162152 2.01557 0.242429 0.73626 0 0 0 -0.34045 0.197193 -0.589832 
135 1.32373 2.40948 0.446202 0.616065 0 0 0 0.35754 -1.41327 1.05044 
136 1.10481 2.57107 0.555835 0.622616 0 0 0 0.397423 -0.469642 0.464783 
137 0.0490349 2.5059 0.614626 0.758156 0 0 0 -0.886025 0.864029 -0.494801 
138 0.513596 2.21214 0.06471 0.745662 0 0 0 0.264201 0.00930302 -0.511825 
139 0.291597 2.24805 0.292715 0.722673 0 0 0 -0.186703 0.334757 -0.526101 
140 0.883335 2.73443 0.162877 0.770976 0 0 0 0.129485 0.361231 -0.290014 
141 -0.0439175 2.3866 0.16064 0.863762 0 0 0 -0.835652 0.588524 -0.612656 
142 1.45321 2.54108 0.575781 0.605432 0 0 0 -0.0152836 -1.15817 0.848443 
143 1.27571 2.91643 0.597735 0.687649 0 0 0 -0.0928442 0.533075 -0.00199617 
160 0.794611 3.07602 0.428214 0.804014 0 0 0 -0.207702 1.16479 -0.290275 
145 0.495422 2.00223 0.0139384 0.740951 0 0 0 0.384884 -0.14096 -0.551338 
146 1.33715 2.00136 0.341056 0.60108 0 0 0 0.654424 -2.10927 2.10565 
147 0.7662 1.82077 0.226307 0.636296 0 0 0 1.19529 -0.679985 0.317646 
148 1.26681 3.02295 0.25203 0.799052 0 0 0 -0.0618249 0.64066 -0.233348 
156 0.0923341 1.95726 0.419735 0.705679 0 0 0 -0.503547 0.220021 -0.514315 
150 1.0832 1.84153 0.514018 0.549521 0 0 0 1.65377 -2.03895 2.64043 
155 0.802652 1.62672 0.139303 0.650624 0 0 0 1.20365 -0.523861 0.232173 
161 1.37471 2.00683 0.411135 0.582785 0 0 0 0.55447 -2.40395 2.53757 
159 0.0392283 1.48545 -0.0352909 0.821638 0 0 0 -0.532889 -0.1597 -0.891066 
170 1.13968 2.09623 1.09397 0.440546 0 0 0 1.46597 -3.7787 4.57927 
163 0.512818 2.85755 0.715426 0.721365 0 0 0 -0.362569 1.26011 -0.434165 
202 0.614154 2.0095 1.00203 0.503112 0 0 0 1.09993 -0.139508 -1.05797 
167 0.867408 1.79173 1.05683 0.4364 0 0 0 2.56068 -1.83469 2.56813 
225 1.49735 1.51636 1.51443 0.217517 0 0 0 -0.855314 -0.81503 -0.888293 
169 0.925716 1.73867 1.43072 0.356732 0 0 0 1.84635 -1.94805 4.92863 
201 -0.0238991 2.74169 0.921927 0.787361 0 0 0 -1.10164 1.15805 -0.493672 
171 0.344797 1.88397 1.31499 0.510872 0 0 0 -0.752216 0.282533 -1.1435 
183 1.0557 1.45292 1.4625 0.315989 0 0 0 3.41744 1.60674 1.20769 
30 0.792091 1.64482 1.51741 0.376352 0 0 0 1.02603 0.0813181 0.161918 
174 0.206879 1.77876 1.03603 0.567114 0 0 0 -0.476565 0.230793 -1.0229 
210 1.50148 1.47893 1.50125 0.217347 0 0 0 0.564667 0.988683 0.141924 
157 1.18864 2.27083 1.02742 0.478469 0 0 0 0.927567 -2.54604 1.97885 
152 1.07997 2.08941 0.712469 0.523342 0 0 0 1.53883 -2.43135 2.37608 
314 1.50113 1.48138 1.50212 0.217249 0 0 0 0.469883 0.864767 0.038 
197 0.07484 2.23525 1.0802 0.643444 0 0 0 -1.00243 0.595574 -0.809924 
180 0.421873 2.02562 1.49853 0.493813 0 0 0 -1.1366 0.339442 -0.727794 
181 0.627686 2.08579 1.41776 0.456517 0 0 0 -0.466948 0.710807 -1.41788 
428 1.18669 2.56475 1.42783 0.483303 0 0 0 -0.598118 1.18335 -1.62202 
410 1.4991 1.48774 1.50438 0.217076 0 0 0 0.801891 0.611994 -0.0330853 
184 0.816888 2.82807 1.23688 0.603671 0 0 0 -0.226959 1.57112 -1.11911 
460 1.49413 1.50152 1.50836 0.217102 0 0 0 -0.273475 -0.0773399 -0.508457 
186 0.975643 2.81775 1.04021 0.606021 0 0 0 -0.0236961 1.0024 -0.639745 
196 0.570964 1.70122 1.47318 0.432141 0 0 0 -0.553919 0.191644 -0.178948 
188 0.309624 2.5385 1.32084 0.61326 0 0 0 -0.883914 1.28407 -1.11735 
200 0.952342 2.70818 1.14964 0.565977 0 0 0 0.0652632 0.959677 -1.03813 
190 0.811571 1.85976 1.03819 0.453605 0 0 0 2.21267 -1.24138 0.979122 
166 0.578326 1.64115 0.820061 0.51415 0 0 0 1.37956 -0.126803 -0.491373 
192 0.613366 2.06273 1.28736 0.468808 0 0 0 0.152117 0.522704 -1.66713 
193 1.11512 2.50091 1.38662 0.476142 0 0 0 -0.418098 0.868722 -1.52481 
203 1.49708 1.53528 1.52114 0.2189 0 0 0 -1.53207 -1.18165 -1.05575 
208 1.50103 1.48233 1.50246 0.217215 0 0 0 0.443647 0.812575 0.00464397 
41 1.49969 1.49087 1.50544 0.217015 0 0 0 0.111073 0.319594 -0.334626 
342 1.4981 1.50466 1.51029 0.217085 0 0 0 -0.413122 -0.390162 -0.699862 
164 1.49914 1.49496 1.50687 0.216986 0 0 0 -0.0436175 0.086563 -0.46453 
40 1.49907 1.4955 1.50706 0.216985 0 0 0 -0.0643354 0.0567085 -0.480304 
219 1.49839 1.50152 1.50918 0.217027 0 0 0 -0.293444 -0.248586 -0.633272 
73 1.49776 1.50902 1.51183 0.217207 0 0 0 -0.579088 -0.567302 -0.780094 
43 0.805605 1.44796 1.37081 0.376497 0 0 0 1.30536 -0.0247815 1.27885 
418 1.50719 1.47294 1.49917 0.21769 0 0 0 -0.37492 0.849153 0.0252819 
158 1.23226 1.80437 1.11319 0.389174 0 0 0 1.38677 -9.69091 21.2944 
394 1.50446 1.487 1.49865 0.217127 0 0 0 -0.307731 0.642431 -1.03594 
107 1.49844 1.45725 1.49537 0.218849 0 0 0 1.73309 1.28373 2.58277 
215 0.540869 2.16283 1.63004 0.479714 0 0 0 -1.42856 0.604042 -0.340519 
447 1.39749 2.80308 2.23839 0.567395 0 0 0 -0.109868 1.23068 1.24132 
205 0.0357078 1.958 2.06486 0.63064 0 0 0 -1.35406 -0.385499 0.701801 
206 1.02526 2.47209 2.29806 0.526082 0 0 0 -0.784508 0.0757697 2.2409 
207 0.438845 2.84842 1.72195 0.648682 0 0 0 -0.970145 1.7035 -0.719317 
257 1.1462 1.73854 1.5693 0.308091 0 0 0 0.150493 1.36738 0.792401 
194 0.555391 1.94539 1.63956 0.452294 0 0 0 -1.32472 0.0738676 0.248891 
235 1.21548 2.18612 2.35238 0.493662 0 0 0 -0.515583 -1.03704 1.78971 
211 0.956349 2.92222 2.05614 0.605036 0 0 0 -0.719737 1.80985 0.0663088 
212 0.453129 2.60916 1.67387 0.582915 0 0 0 -1.1616 1.49547 -0.741577 
213 0.821558 1.77282 1.80143 0.397827 0 0 0 -0.215354 0.0123484 -1.25222 
242 0.400459 2.35909 2.29194 0.595599 0 0 0 -1.03597 -0.27233 1.19628 
231 0.84834 2.32006 2.12816 0.491558 0 0 0 -1.46637 0.000741074 2.18589 
216 1.16683 2.9485 2.0896 0.59937 0 0 0 -0.547702 1.81478 0.245491 
217 0.3432 2.85139 1.83538 0.671173 0 0 0 -1.07812 1.48819 -0.520588 
218 0.188131 2.60236 1.94756 0.653438 0 0 0 -1.42615 0.765579 -0.0979152 
468 0.852816 2.30967 1.8553 0.453564 0 0 0 -2.1998 1.12491 0.887544 
204 0.982437 2.13675 1.79705 0.400181 0 0 0 -3.11374 1.07138 0.489691 
221 0.78136 2.16855 1.99554 0.461678 0 0 0 -1.81773 -0.142082 1.89152 
222 0.874643 2.13024 1.82114 0.418688 0 0 0 -2.5224 0.608208 0.876281 
223 0.64826 1.75377 1.73341 0.42543 0 0 0 -0.647475 -0.244253 0.582188 
246 1.14636 1.78049 1.58 0.313136 0 0 0 -0.965673 1.32021 0.384974 
104 0.23399 1.55829 2.31381 0.605702 0 0 0 -0.273992 -0.332357 0.943785 
226 1.33009 3.06355 2.06162 0.626231 0 0 0 -0.3832 1.88233 0.0383439 
227 0.147301 1.58649 2.08044 0.590158 0 0 0 -0.739045 -0.333818 0.957663 
234 1.08919 1.77503 1.65723 0.327875 0 0 0 -0.111346 5.13758 -13.7854 
238 1.01266 1.72345 1.58264 0.333678 0 0 0 1.23717 1.3775 -3.74572 
321 1.32125 2.33262 1.84132 0.409755 0 0 0 -2.19679 3.09489 1.05811 
475 0.852222 2.20785 1.83084 0.434529 0 0 0 -2.39325 0.831283 0.936009 
476 1.236 2.27058 2.30391 0.488505 0 0 0 -0.669915 -0.59182 2.2972 
189 0.782454 2.23929 1.56136 0.444169 0 0 0 -1.22526 1.24344 -1.12485 
239 1.34949 1.89792 1.62617 0.304189 0 0 0 -5.24307 3.48694 3.25239 
328 1.239 2.61189 1.80516 0.480291 0 0 0 -1.1365 2.55659 -0.289777 
185 0.0296356 2.45809 1.54538 0.667554 0 0 0 -1.489 0.759413 -0.529501 
337 1.08116 2.12647 1.79494 0.38486 0 0 0 -3.71913 1.54299 0.134442 
462 1.494 3.28882 1.96818 0.696857 0 0 0 -0.327489 1.96139 -0.25266 
168 1.33185 1.85862 1.63155 0.298787 0 0 0 -4.91627 3.88203 2.86624 
247 1.21226 2.26017 1.82707 0.399115 0 0 0 -3.19372 2.60103 0.841799 
177 1.34231 2.09074 1.75652 0.350182 0 0 0 -4.10382 3.77397 -1.22929 
485 1.5067 2.80876 2.33205 0.583721 0 0 0 0.0957851 0.928987 1.38006 
264 1.3721 2.24531 1.827 0.38749 0 0 0 -2.45587 3.42766 0.951509 
69 1.4045 2.22362 1.82304 0.381682 0 0 0 -2.28837 3.58826 0.832317 
483 1.42127 2.31225 1.83497 0.402124 0 0 0 -1.57713 3.46075 1.19412 
350 1.43899 2.29199 1.83175 0.397131 0 0 0 -1.51856 3.54179 1.19884 
249 0.810745 1.71806 2.34598 0.511764 0 0 0 1.12861 -0.642062 -0.195797 
420 1.11136 1.94426 1.68018 0.344427 0 0 0 -3.58131 1.60319 -2.54901 
240 1.42889 1.99382 1.67738 0.320759 0 0 0 -4.04922 3.95806 0.324504 
300 1.51916 1.67208 1.57346 0.245251 0 0 0 -3.20829 2.24378 -0.656154 
398 1.51863 1.67007 1.57263 0.244757 0 0 0 -3.2167 2.19322 -0.698113 
29 0.0998238 1.58839 1.57877 0.564953 0 0 0 -1.34137 0.0104234 0.25167 
224 1.1137 1.66991 1.54005 0.307836 0 0 0 2.25621 1.35932 0.490599 
111 0.951815 1.52524 1.75498 0.365726 0 0 0 2.94884 3.99165 -11.419 
105 1.42238 1.74491 1.56873 0.264089 0 0 0 -3.21434 2.296 8.89728 
172 1.02342 1.85688 1.56823 0.344256 0 0 0 -0.615152 -1.55303 3.5837 
153 1.36635 1.72339 1.6766 0.280174 0 0 0 -1.66335 12.4785 -21.8034 
341 1.49772 1.55245 1.52725 0.220823 0 0 0 -2.07008 -1.20677 -1.11764 
144 1.49737 1.55543 1.52765 0.221188 0 0 0 -2.0255 -1.23465 -0.918462 
332 1.49424 1.56547 1.53147 0.222687 0 0 0 -0.541506 -0.875943 -0.943818 
486 1.5315 1.94567 2.15279 0.420408 0 0 0 -0.552343 0.806885 -5.18668 
336 1.53233 1.71297 1.59081 0.255617 0 0 0 -2.86337 3.07007 0.0538156 
80 1.49759 1.55013 1.52642 0.22053 0 0 0 -2.00281 -1.21873 -1.11272 
232 0.49216 2.02195 2.69548 0.642611 0 0 0 -0.0745431 -0.804793 1.41704 
233 0.819153 1.89517 2.82464 0.638636 0 0 0 0.44052 -0.774779 1.02623 
255 -0.0545591 2.84034 2.49112 0.830807 0 0 0 -1.33128 0.662501 0.395583 
266 0.366653 1.98499 2.58794 0.636923 0 0 0 -0.320957 -0.749399 1.30893 
236 1.10598 2.61864 2.76414 0.65124 0 0 0 -0.0562825 -0.167821 1.86493 
237 0.373429 2.44496 2.4469 0.637518 0 0 0 -0.879448 -0.195091 1.142 
262 0.71918 1.67966 2.53177 0.568063 0 0 0 0.926272 -0.484209 0.339105 
254 0.214175 2.73861 3.11697 0.891496 0 0 0 -0.71247 0.273401 1.45048 
118 0.0283923 1.48111 2.6882 0.743108 0 0 0 -0.653602 -0.166583 1.01431 
241 0.939423 2.12978 3.11426 0.728299 0 0 0 0.13788 -0.66152 1.54256 
265 0.0329541 3.01139 2.61218 0.868523 0 0 0 -1.12544 0.909767 0.525467 
243 0.559648 3.01398 2.64267 0.760244 0 0 0 -0.508828 1.0028 0.858357 
244 -0.053847 3.17009 2.96979 1.01469 0 0 0 -0.989221 0.906807 0.853302 
245 1.25688 2.18075 2.86043 0.631953 0 0 0 -0.0453517 -0.976657 1.37663 
256 0.0639208 2.93296 2.98771 0.928312 0 0 0 -0.938693 0.617748 1.10109 
260 -0.0684634 2.86215 2.72929 0.884981 0 0 0 -1.22646 0.592827 0.736862 
248 0.535507 2.66342 2.98132 0.7745 0 0 0 -0.342572 0.0705766 1.64872 
507 1.514 2.78544 2.91087 0.717642 0 0 0 0.00163511 0.241187 1.77995 
258 0.563515 2.96535 3.08817 0.865753 0 0 0 -0.344514 0.62305 1.47811 
251 0.511304 2.47669 2.63315 0.654784 0 0 0 -0.499775 -0.285973 1.47387 
252 -0.111926 2.39186 2.39214 0.756582 0 0 0 -1.48803 -0.0397592 0.500051 
253 1.04036 3.18639 2.78129 0.794806 0 0 0 -0.146926 1.14523 1.12594 
267 1.82892 0.385598 0.477775 0.596854 0 0 0 -0.154267 -0.0364329 -2.084 
268 2.77884 0.405525 0.286061 0.786133 0 0 0 1.25567 -0.45984 -1.24518 
269 2.2067 0.0402853 -0.170101 0.890933 0 0 0 0.374259 -0.769625 -1.6399 
270 2.56706 0.059457 -0.0701754 0.911771 0 0 0 0.827069 -0.801605 -1.41334 
291 2.17938 0.517071 -0.0151503 0.745448 0 0 0 0.104532 -0.0265206 -1.80513 
272 2.88249 0.826455 0.434374 0.7207 0 0 0 1.24074 0.0309495 -1.12 
273 1.72709 1.05679 0.271324 0.594022 0 0 0 -0.639137 0.752358 0.272471 
295 2.1713 1.36023 0.380863 0.583848 0 0 0 -1.32075 0.225644 0.267984 
275 2.66358 -0.0269342 -0.00181994 0.933269 0 0 0 0.952079 -0.903063 -1.25183 
276 1.80978 0.0752469 0.0483162 0.778949 0 0 0 -0.0838287 -0.687913 -1.77595 
294 1.7398 1.32132 0.468059 0.539314 0 0 0 -1.13505 0.0486958 2.88247 
278 1.84913 0.118937 -0.0193156 0.79201 0 0 0 -0.0537315 -0.613861 -1.79867 
279 2.175 0.767305 0.42203 0.586649 0 0 0 -0.127603 0.711306 -1.57241 
290 2.36631 1.24236 0.156958 0.668462 0 0 0 -0.466682 0.307258 -0.92868 
281 2.44926 1.10437 0.372455 0.618622 0 0 0 -0.226729 0.581788 -1.09595 
289 2.44024 0.744301 0.539645 0.597764 0 0 0 0.576924 0.38751 -1.48427 
292 2.33956 0.902124 0.628313 0.547957 0 0 0 0.151909 0.787 -1.36188 
284 1.63517 0.788284 0.385009 0.57014 0 0 0 -0.509437 0.940166 -0.962177 
285 2.84964 1.17716 0.06259 0.79131 0 0 0 0.71509 0.0555145 -1.2482 
286 1.78723 0.485721 0.444936 0.58735 0 0 0 -0.294106 0.282608 -2.06145 
287 2.57698 1.17322 0.482561 0.61156 0 0 0 0.042828 0.539616 -1.03 
288 2.12027 0.470308 0.103727 0.706468 0 0 0 0.0548032 -0.00961335 -1.83866 
283 2.43674 -0.03814 0.797332 0.720711 0 0 0 1.11702 -1.28523 -0.558129 
297 2.10953 0.404041 1.31448 0.507881 0 0 0 1.90408 -1.28973 1.10999 
298 2.93001 0.3784 1.22614 0.699642 0 0 0 1.80707 -0.768757 0.10368 
299 2.17785 0.794496 1.15772 0.446812 0 0 0 3.04144 -0.0324025 -0.486659 
326 2.16132 0.241579 1.27565 0.557615 0 0 0 1.36194 -1.47821 0.897739 
421 1.83954 1.44084 1.50274 0.295544 0 0 0 -2.29063 -3.41416 -0.0483677 
302 2.2023 0.171768 1.03879 0.5931 0 0 0 1.23408 -1.32829 -0.190312 
409 1.68111 1.13811 1.38277 0.30234 0 0 0 7.62369 -3.47583 0.200451 
304 2.56842 0.907699 0.967202 0.532659 0 0 0 1.36621 0.34277 -0.843774 
327 2.48296 0.0221884 1.06097 0.686 0 0 0 1.27706 -1.34483 -0.00758881 
271 2.03991 0.860397 1.25086 0.407328 0 0 0 4.83294 -0.126698 -0.0685264 
325 1.98594 0.355551 1.00004 0.521514 0 0 0 1.37374 -1.15548 -1.0399 
308 1.84277 0.353844 1.39549 0.497794 0 0 0 1.14369 -1.67544 1.551 
309 2.88629 1.00557 1.17505 0.594011 0 0 0 1.74588 0.142695 -0.10239 
352 2.85341 1.20475 1.47988 0.560578 0 0 0 1.76122 0.0542252 0.517012 
311 2.00274 0.716305 0.965146 0.458609 0 0 0 2.42585 -0.00770286 -1.77908 
312 2.53391 1.33844 0.846885 0.525579 0 0 0 -0.117209 0.548487 -0.597146 
293 2.42309 1.11164 0.861815 0.504926 0 0 0 0.210312 0.810953 -0.879202 
324 1.62813 -0.0597987 0.885015 0.633874 0 0 0 -0.11465 -1.61405 -0.685095 
315 2.60039 1.07859 1.23024 0.500886 0 0 0 1.63813 0.261096 -0.084595 
316 2.72628 0.872234 1.06806 0.566482 0 0 0 1.68896 0.0839933 -0.390929 
317 2.17447 0.00895433 1.26039 0.630986 0 0 0 0.833481 -1.6731 0.738105 
345 2.10888 1.08501 1.35917 0.384712 0 0 0 3.15611 0.530597 0.357434 
323 2.38134 0.331225 1.4536 0.569986 0 0 0 1.39882 -1.12557 1.28542 
455 2.55583 1.28173 1.36755 0.472766 0 0 0 1.51366 0.132498 0.1819 
435 2.27639 1.22552 1.31462 0.41136 0 0 0 0.99874 0.0652177 0.565547 
448 2.20141 1.19778 1.32869 0.395786 0 0 0 1.29429 0.0627132 0.91365 
330 2.12819 0.968261 1.33153 0.403423 0 0 0 3.69309 0.31701 0.28499 
333 2.02459 1.08667 1.30523 0.371338 0 0 0 4.55165 0.0168034 1.82266 
320 2.05153 1.24466 1.39439 0.356995 0 0 0 1.45108 -0.218629 1.67624 
85 1.93766 0.688028 1.22732 0.424794 0 0 0 4.19032 -1.03506 -0.384173 
72 1.85279 0.835644 1.34412 0.381423 0 0 0 5.9899 -0.139914 -1.58445 
280 1.92793 1.15719 0.95452 0.418536 0 0 0 0.281965 -0.516076 5.51807 
282 1.82598 1.09003 1.37787 0.331795 0 0 0 7.68103 0.0347178 -2.08867 
58 1.53876 0.410762 0.794831 0.520966 0 0 0 -0.628892 -0.813595 -2.48364 
7 1.78037 0.749629 1.18988 0.399088 0 0 0 4.57903 -1.93035 -1.07276 
175 1.6862 0.702469 1.18442 0.402969 0 0 0 3.05517 -2.53257 -1.39655 
151 1.67338 0.694859 1.1842 0.404026 0 0 0 2.80352 -2.59529 -1.42871 
102 1.68173 0.685795 1.18738 0.406095 0 0 0 2.83213 -2.53416 -1.39624 
401 1.68763 1.21329 1.38465 0.290459 0 0 0 6.15751 -7.40028 9.30957 
431 1.82255 1.38593 1.47813 0.29416 0 0 0 -1.17593 -3.90179 1.50243 
230 1.56873 0.81399 1.19065 0.375191 0 0 0 1.90251 -3.51171 -0.549796 
402 1.95157 1.39054 1.18277 0.365153 0 0 0 -1.92869 -6.3489 17.6088 
61 2.0614 1.43224 1.48036 0.34774 0 0 0 -1.14273 -1.58264 0.681545 
305 2.1485 1.42894 1.51639 0.368183 0 0 0 -0.452067 -0.690373 -0.938252 
89 2.192 1.4391 1.48267 0.378189 0 0 0 -0.208528 -1.02955 0.257899 
363 1.70564 1.42068 1.51245 0.263049 0 0 0 1.53648 23.037 -69.0367 
500 2.10569 1.32175 1.8839 0.412444 0 0 0 -1.33915 1.80858 -6.18416 
355 2.35839 0.184451 1.86313 0.63447 0 0 0 0.366744 -1.07706 1.05969 
381 3.11613 1.01979 2.35073 0.739097 0 0 0 1.30342 -0.262234 0.688424 
331 2.87924 0.0788055 2.06589 0.792854 0 0 0 1.08632 -1.15048 0.611481 
364 1.76962 0.735992 2.16028 0.517308 0 0 0 -0.565253 2.08265 -2.77002 
456 2.33967 1.28734 1.85278 0.45211 0 0 0 -0.0216497 -0.0187689 -0.567866 
334 2.84871 0.650637 1.56623 0.619735 0 0 0 1.61394 -0.526257 0.796511 
379 2.85971 0.751267 2.16119 0.66274 0 0 0 0.956998 -0.296449 0.716373 
357 2.79171 1.1106 1.69075 0.555739 0 0 0 1.47435 -0.156971 0.974948 
349 2.50806 1.06994 1.68912 0.485856 0 0 0 1.04811 -0.24298 1.07415 
338 2.91329 1.04907 1.57017 0.592008 0 0 0 1.6917 -0.0901847 0.716319 
339 2.60637 0.208204 1.78259 0.663658 0 0 0 0.880252 -1.09947 0.930371 
340 2.03196 0.919079 1.73824 0.427767 0 0 0 0.610156 2.04109 -2.76122 
380 2.25571 1.36196 2.17206 0.492286 0 0 0 -0.922153 0.227002 -1.48843 
356 2.53184 0.904635 2.0194 0.548951 0 0 0 0.229711 -0.0733765 0.595536 
359 2.00327 -0.0960527 2.15981 0.722348 0 0 0 0.00875552 -1.20853 0.524046 
344 2.80142 -0.0437811 2.11853 0.816015 0 0 0 0.909474 -1.29328 0.606366 
348 3.04077 1.33757 1.60003 0.619056 0 0 0 1.74344 -0.105231 0.435875 
346 1.58773 0.374973 1.94495 0.544623 0 0 0 0.0740768 0.360925 0.0551335 
354 2.04636 0.843232 1.58868 0.422711 0 0 0 2.33701 1.06363 -0.593087 
368 2.37677 0.682569 2.36623 0.614732 0 0 0 -0.272367 0.09669 0.0449806 
366 1.71031 1.38231 2.04876 0.405695 0 0 0 -1.48425 7.06559 -20.364 
371 2.18583 0.971475 2.33558 0.55166 0 0 0 -0.951527 0.813061 -1.29552 
377 1.74601 1.18746 1.97096 0.40721 0 0 0 -1.22635 7.54558 -18.0438 
360 1.90747 0.404478 2.3254 0.616733 0 0 0 -0.290898 0.209304 -0.467814 
361 2.15681 1.26107 2.27566 0.509605 0 0 0 -1.32493 0.772325 -2.22144 
335 2.54276 0.223579 1.52697 0.631494 0 0 0 1.20219 -1.16846 0.995534 
384 1.99729 -0.0776378 2.77943 0.849448 0 0 0 0.0754882 -0.817702 0.466736 
376 2.66835 0.594172 2.77917 0.779063 0 0 0 0.370209 -0.267685 0.787329 
375 2.39585 0.989107 2.70504 0.665024 0 0 0 -0.364314 0.253857 0.190215 
362 2.50173 1.42621 2.86667 0.696431 0 0 0 -0.126934 -0.20783 0.712539 
126 1.54709 0.230959 2.44275 0.669909 0 0 0 0.190657 -0.0431866 -0.289625 
383 3.11738 1.16306 2.83543 0.835524 0 0 0 1.03594 -0.275985 0.893839 
365 2.96941 -0.0926777 2.52754 0.942726 0 0 0 0.964697 -1.11941 0.625897 
374 2.49303 0.362286 2.5845 0.739405 0 0 0 0.163769 -0.519004 0.603588 
367 2.83512 -0.0952187 2.44692 0.894594 0 0 0 0.828599 -1.20579 0.631836 
382 2.46012 0.611973 2.90139 0.779648 0 0 0 0.00281223 -0.0960582 0.703917 
369 2.63778 0.580109 2.64824 0.739167 0 0 0 0.331744 -0.276045 0.688855 
373 2.14105 0.726534 2.45077 0.603869 0 0 0 -0.651266 0.594275 -0.68057 
406 2.09112 2.16896 0.430839 0.611265 0 0 0 -1.06554 -1.43411 0.481125 
386 2.0284 2.99123 0.371048 0.772706 0 0 0 -0.203153 0.499837 -0.469317 
387 2.72329 1.69898 0.609379 0.620611 0 0 0 0.125398 -0.139201 -0.670061 
408 1.85314 2.49566 0.31794 0.670082 0 0 0 -0.440781 -0.943464 0.185436 
389 2.18616 3.05826 0.428307 0.790717 0 0 0 -0.0941002 0.695844 -0.557208 
390 2.98317 1.77901 0.535155 0.707932 0 0 0 0.849946 -0.12923 -0.779556 
391 2.11535 1.83161 0.648485 0.532526 0 0 0 -2.13323 -1.78882 1.75425 
403 2.5459 2.18678 0.119716 0.75135 0 0 0 -0.0754423 -0.411426 -0.815061 
393 2.66093 2.28842 0.183064 0.764203 0 0 0 0.173621 -0.246706 -0.873325 
405 2.78811 3.02173 -0.121112 1.01931 0 0 0 0.448673 0.483336 -0.802737 
395 1.81381 2.31842 0.62591 0.567286 0 0 0 -0.975041 -2.06637 1.31384 
396 2.10804 2.72738 0.663081 0.647389 0 0 0 -0.447572 -0.0233173 -0.398818 
397 2.16783 2.01056 -0.00250814 0.730132 0 0 0 -0.551799 -0.808904 -0.326897 
407 3.03609 2.65996 0.0661364 0.941521 0 0 0 0.752093 0.242129 -0.877929 
399 2.55634 2.07553 0.33948 0.678297 0 0 0 -0.217672 -0.510615 -0.662319 
400 3.03867 3.09633 0.0948052 1.03122 0 0 0 0.703318 0.615652 -0.726257 
404 2.54911 1.82912 0.135099 0.717735 0 0 0 -0.227233 -0.383304 -0.795838 
392 1.64897 1.70189 1.30238 0.313627 0 0 0 -4.39656 -24.5752 61.7995 
347 1.74968 2.58561 1.44171 0.482407 0 0 0 -0.442405 0.909022 -1.16963 
470 3.18034 2.73685 1.51285 0.777333 0 0 0 1.36502 0.545252 -0.283499 
412 2.83896 2.70487 0.90463 0.719796 0 0 0 0.791075 0.476969 -0.695047 
413 2.99687 2.31763 1.18363 0.663646 0 0 0 1.32585 -0.0830505 -0.625423 
414 2.35624 1.78558 1.13988 0.461764 0 0 0 -0.742072 -1.47671 0.0408675 
415 2.18729 1.9517 0.959639 0.482594 0 0 0 -2.14019 -2.22288 1.05744 
416 1.76813 2.56765 1.21183 0.503755 0 0 0 -0.959966 -0.469337 -0.755521 
454 1.96176 3.07035 1.40585 0.634755 0 0 0 -0.187825 1.4875 -0.880991 
427 1.90156 2.97812 1.41373 0.600581 0 0 0 -0.275434 1.39298 -1.01349 
419 3.09087 2.31628 1.28366 0.68543 0 0 0 1.47358 -0.0907451 -0.502462 
457 2.18048 2.18526 1.39274 0.445662 0 0 0 0.66423 -0.848463 -0.804399 
411 1.77753 1.49709 1.51758 0.279056 0 0 0 -3.50368 -3.8679 0.146835 
422 2.52327 1.82722 0.892714 0.534171 0 0 0 -0.488506 -0.711543 -0.445588 
423 2.22281 3.17064 1.41836 0.692848 0 0 0 0.211828 1.49871 -0.625278 
424 1.98908 2.69972 0.785544 0.609123 0 0 0 -0.644647 -0.213526 -0.311733 
425 2.52502 2.65947 0.978215 0.634304 0 0 0 0.284947 0.379832 -0.819762 
426 2.16555 2.22826 1.02762 0.500696 0 0 0 -1.39639 -1.51875 -0.245578 
446 2.15404 1.47216 1.43062 0.370644 0 0 0 -0.757792 -2.07798 2.30978 
441 3.15009 2.03261 1.39372 0.670919 0 0 0 1.68535 -0.393129 -0.321688 
429 2.28301 3.01719 0.830938 0.710771 0 0 0 -0.0175302 0.880807 -0.645503 
430 3.24666 2.98695 1.29672 0.866169 0 0 0 1.22318 0.801667 -0.328429 
449 2.29124 2.24049 1.41348 0.472488 0 0 0 0.979714 -0.238081 -1.01196 
388 1.59812 2.19683 1.01817 0.463184 0 0 0 -1.12528 -4.52489 4.55149 
433 2.03727 1.738 1.21706 0.390794 0 0 0 -3.06218 -5.99455 9.07523 
434 1.60082 2.73668 1.06615 0.558629 0 0 0 -0.646762 -0.104378 -0.507385 
432 2.37388 1.88404 1.34991 0.447539 0 0 0 0.877507 -1.5594 -0.547203 
436 3.01036 2.09203 0.843109 0.681815 0 0 0 1.07794 -0.223356 -0.688427 
437 2.8462 1.57157 0.966139 0.587293 0 0 0 0.941081 0.077591 -0.58553 
438 2.8555 2.16438 1.42914 0.589202 0 0 0 1.62875 -0.368315 -0.50391 
439 3.06985 3.26361 1.23339 0.897858 0 0 0 0.949548 1.11243 -0.325505 
440 2.10108 2.01538 0.939852 0.483858 0 0 0 -2.34469 -2.61684 1.56029 
458 2.14521 2.40779 1.42054 0.480223 0 0 0 0.451913 0.375979 -1.0474 
464 2.20089 2.07552 1.39204 0.431482 0 0 0 0.77614 -1.57481 -0.489481 
443 2.58771 1.94946 2.09056 0.535521 0 0 0 1.22741 -0.883197 1.06628 
444 2.8486 1.46504 1.86655 0.570207 0 0 0 1.47563 -0.495901 0.74115 
445 2.81527 2.21551 2.1293 0.614388 0 0 0 1.21889 -0.376519 0.61864 
310 1.78294 2.08929 1.76574 0.364648 0 0 0 2.92948 1.76752 -0.104242 
372 1.61022 2.19644 1.81033 0.377709 0 0 0 0.390888 3.52848 0.842713 
296 2.37677 1.99587 1.7502 0.454791 0 0 0 2.73138 -0.912709 0.691462 
471 1.98875 1.90613 1.68087 0.358625 0 0 0 3.6824 -2.27036 -0.855695 
450 2.67999 1.85887 1.96779 0.537546 0 0 0 1.57156 -0.979827 0.850393 
182 1.64286 1.8895 1.64868 0.302928 0 0 0 0.631419 1.14045 2.03362 
452 2.11881 2.90997 1.68517 0.592223 0 0 0 0.466497 1.44554 -0.398906 
453 1.56028 2.45095 2.19982 0.487035 0 0 0 0.354142 0.827373 2.32795 
469 2.08406 1.70843 2.05619 0.431065 0 0 0 0.0260698 -0.355176 -3.08908 
343 2.09718 1.70346 1.57754 0.360073 0 0 0 0.921683 -3.60574 0.0494038 
481 2.16303 2.25178 1.79844 0.451738 0 0 0 2.75679 0.7719 1.1111 
467 1.86345 2.64931 1.66668 0.495962 0 0 0 0.528477 1.84497 -0.479503 
378 1.78868 2.33535 1.81545 0.420988 0 0 0 1.83503 2.73098 1.37872 
459 3.15663 2.7618 2.17728 0.803691 0 0 0 1.33109 0.599018 0.259747 
277 1.76728 1.99982 1.70693 0.340651 0 0 0 3.00485 0.914767 -1.08464 
461 1.65114 2.97999 1.7122 0.580969 0 0 0 -0.214498 1.91983 -0.769176 
263 1.87895 1.99472 1.72044 0.355845 0 0 0 3.87571 -0.294752 -0.869967 
261 1.68405 1.99279 1.69119 0.329302 0 0 0 1.7118 1.80471 -0.6034 
176 1.90638 1.54434 1.53657 0.311139 0 0 0 -2.1941 -3.76075 0.588 
465 1.96043 2.96194 1.89533 0.597783 0 0 0 0.44138 1.55927 0.0162001 
466 2.24247 3.27131 1.79524 0.726836 0 0 0 0.419262 1.62689 -0.194185 
319 2.24975 1.91453 1.63878 0.411732 0 0 0 2.91657 -1.83096 0.106735 
478 2.18734 3.04936 2.25827 0.683238 0 0 0 0.539358 1.21412 0.572461 
484 1.90492 2.64752 2.31714 0.562313 0 0 0 0.647536 0.489739 1.45388 
187 2.13031 2.09995 1.70539 0.41371 0 0 0 3.45072 -0.361706 0.630763 
509 3.29297 2.84291 2.26144 0.875196 0 0 0 1.37373 0.65392 0.329604 
488 2.31766 1.87767 1.72535 0.429172 0 0 0 2.7825 -1.52817 0.406135 
492 2.70859 2.30871 2.28735 0.620863 0 0 0 0.89394 -0.213775 0.823963 
494 2.94687 2.34984 2.28063 0.68446 0 0 0 1.18416 -0.127226 0.575921 
504 2.87672 1.9456 2.27657 0.631953 0 0 0 1.10363 -0.739886 0.756562 
199 1.89315 1.96045 1.70228 0.351187 0 0 0 3.89492 -0.926791 -1.1281 
120 1.67259 1.9638 1.67438 0.321489 0 0 0 1.45883 1.53489 -0.00692808 
442 2.28184 1.67739 1.7112 0.410209 0 0 0 1.6842 -1.59487 -0.504964 
498 2.04613 1.55965 1.97778 0.409437 0 0 0 -0.910522 1.08518 -7.14751 
487 1.91916 2.03369 2.33112 0.488957 0 0 0 0.0326059 -0.698197 0.224804 
209 2.03145 1.70589 1.5911 0.345965 0 0 0 0.865945 -3.84854 -0.484404 
36 2.10179 2.14084 1.72251 0.416346 0 0 0 3.40626 0.0973169 0.774146 
191 1.67811 1.96819 1.67706 0.323025 0 0 0 1.57625 1.52173 -0.149046 
417 2.33714 2.53508 1.7657 0.533535 0 0 0 1.30002 0.973411 0.259023 
451 2.99114 2.22371 1.53029 0.633452 0 0 0 1.65108 -0.275882 -0.312244 
259 1.58512 1.88708 1.64909 0.297931 0 0 0 -0.811194 2.34948 2.43794 
463 1.58447 1.95969 1.66739 0.313835 0 0 0 -0.644557 2.58974 1.31893 
307 1.54445 1.74376 1.60346 0.263563 0 0 0 -2.47126 3.24325 0.804276 
220 1.54372 1.74205 1.60278 0.263123 0 0 0 -2.49563 3.24342 0.760738 
496 2.03147 2.50601 2.78625 0.657586 0 0 0 0.0310575 -0.181224 1.52987 
472 2.0747 1.79642 2.63684 0.574766 0 0 0 -0.779189 -0.595604 -0.0764197 
473 1.75625 1.5959 2.58876 0.549214 0 0 0 -1.17763 0.121221 -2.348 
474 2.95854 3.17647 2.68346 0.934255 0 0 0 0.901261 1.04183 0.755749 
497 1.61663 1.94127 2.57965 0.539008 0 0 0 -0.63551 -1.02514 -0.520751 
502 2.22662 2.57159 2.71503 0.667085 0 0 0 0.220394 0.0468144 1.38662 
477 3.17713 2.0138 2.59479 0.781978 0 0 0 1.29713 -0.453759 0.857153 
513 2.63016 3.0298 3.05945 0.919997 0 0 0 0.557671 0.805123 1.27698 
479 1.80985 1.75127 2.41699 0.498559 0 0 0 -1.15677 -0.356562 -2.6324 
501 1.6536 2.4538 3.00118 0.698251 0 0 0 -0.144816 -0.376351 1.73334 
503 2.03372 3.1535 2.47845 0.734326 0 0 0 0.328422 1.26101 0.84937 
482 1.57532 3.16058 3.12965 0.875849 0 0 0 0.0454533 0.862643 1.49565 
511 3.00814 2.13234 2.41307 0.702011 0 0 0 1.18574 -0.463509 0.75436 
510 2.10249 2.54653 2.61072 0.623522 0 0 0 0.225984 -0.0462965 1.3835 
508 2.62305 1.96044 3.05692 0.772122 0 0 0 0.282795 -0.409115 1.38038 
505 3.15568 2.91939 3.22206 1.06052 0 0 0 0.88715 0.587055 1.13086 
499 1.80691 1.78436 2.91322 0.645106 0 0 0 -0.705472 -0.515557 0.136731 
495 2.94831 1.72933 2.7966 0.758142 0 0 0 0.827151 -0.506849 1.07251 
489 3.12957 1.50361 3.00017 0.86801 0 0 0 0.959296 -0.334816 1.04649 
490 2.37284 2.40854 2.58346 0.629827 0 0 0 0.304726 -0.18117 1.22528 
491 2.27434 1.49882 2.74564 0.629951 0 0 0 -0.618164 -0.160377 0.104053 
506 1.97648 2.06882 3.04671 0.700279 0 0 0 -0.385109 -0.559232 1.21406 
493 3.07267 3.01075 2.79147 0.943094 0 0 0 1.00008 0.81725 0.886011 
480 2.35966 2.25058 2.39424 0.56922 0 0 0 0.406825 -0.387113 1.22443 
ITEM: TIMESTEP
800995
ITEM: NUMBER OF ATOMS
512
ITEM: BOX BOUNDS ss ss ss
-2.2775349561678951e-01 3.2932607586404616e+00
-4.0122540508749138e-01 3.2891132425832117e+00
-1.7039273299291779e-01 3.2223573019164853e+00
ITEM: ATOMS id x y z width_SPH x_COM y_COM z_COM vx vy vz 
23 0.539288 1.16104 0.37278 0.613016 0 0 0 0.633794 -0.0976273 -0.569959 
3 -0.140332 -0.124435 0.0939721 1.0357 0 0 0 -1.01064 -0.934117 -0.881334 
4 1.1215 0.710241 0.265507 0.622554 0 0 0 0.00937928 0.209792 -1.02932 
5 0.225458 1.27088 -0.0394033 0.78251 0 0 0 -0.197429 -0.301951 -0.966484 
6 0.0115248 1.14394 0.376957 0.727353 0 0 0 -0.762231 -0.268003 -0.705375 
22 0.12862 1.05029 0.0595981 0.785117 0 0 0 -0.507385 -0.424292 -0.970648 
8 0.686461 0.733454 -0.0391983 0.747514 0 0 0 0.0953393 -0.43313 -1.18302 
9 1.3567 -0.241856 0.263489 0.804206 0 0 0 -0.298879 -1.1864 -1.40894 
10 -0.0863179 -0.263407 0.0260431 1.07371 0 0 0 -0.931961 -0.985719 -0.901894 
11 0.920707 1.15036 -0.0285262 0.696437 0 0 0 0.752231 -0.165326 -0.435066 
12 0.461887 1.343 0.164183 0.674424 0 0 0 0.502726 -0.20415 -0.606925 
13 0.278627 -0.299311 0.20045 0.957907 0 0 0 -0.806287 -1.14362 -1.0185 
14 0.972041 1.22081 0.390071 0.568523 0 0 0 1.27038 0.142507 0.812802 
15 1.08249 0.669971 0.304806 0.617965 0 0 0 -0.0678803 0.142902 -1.16069 
16 0.612755 -0.23583 0.244738 0.869626 0 0 0 -0.63064 -1.16657 -1.20387 
17 0.878269 0.253887 0.00522594 0.783182 0 0 0 -0.298595 -0.660946 -1.49782 
18 0.56219 0.565602 0.35609 0.673122 0 0 0 -0.32714 -0.544879 -1.23562 
274 1.4895 1.31441 0.568098 0.508706 0 0 0 -0.206642 -0.28191 4.84933 
20 0.67939 0.940679 0.297779 0.628464 0 0 0 0.463998 -0.143604 -0.766432 
62 1.19143 1.02676 0.635988 0.499497 0 0 0 0.00576018 0.577752 1.37862 
50 0.549986 -0.381033 0.627221 0.850634 0 0 0 -0.738633 -1.36614 -0.856469 
31 -0.0667003 1.19079 0.657984 0.694832 0 0 0 -0.999918 -0.0999362 -0.584631 
44 0.384566 0.857336 0.611343 0.61198 0 0 0 -0.317966 -0.373725 -1.12024 
24 1.01877 -0.213788 1.39568 0.679356 0 0 0 -0.123943 -1.69286 0.603295 
353 1.43469 1.07794 1.35086 0.30662 0 0 0 -0.478004 -3.56934 0.634953 
26 -0.13594 1.02548 1.49494 0.658915 0 0 0 -1.52795 0.0880378 0.061228 
27 0.398738 1.14913 0.832387 0.546231 0 0 0 -0.0929935 0.0262112 -1.24832 
28 0.947154 0.224995 1.38726 0.550775 0 0 0 -0.881423 -1.47365 0.742583 
91 0.80064 1.12867 1.21354 0.410234 0 0 0 -0.998623 -0.848727 -0.341468 
303 1.47401 1.06096 1.34497 0.308981 0 0 0 0.971362 -3.79526 0.769878 
65 0.669831 0.471779 1.33838 0.53013 0 0 0 -1.15556 -1.29712 0.0919878 
32 0.390325 -0.347401 1.28432 0.809111 0 0 0 -0.778074 -1.47593 -0.132789 
33 0.747581 -0.211902 1.15272 0.709655 0 0 0 -0.599448 -1.55105 -0.195134 
173 0.93621 0.960753 1.29479 0.396886 0 0 0 -3.46685 -1.14498 -0.81092 
35 1.49751 0.0185815 0.81871 0.616277 0 0 0 -0.421789 -1.41791 -1.15813 
21 1.50709 1.44185 1.49138 0.220513 0 0 0 0.245365 1.59506 0.615788 
154 1.32469 1.31546 1.43482 0.26889 0 0 0 1.65055 2.35632 -4.96105 
38 0.21985 1.02869 0.800808 0.601116 0 0 0 -0.640098 -0.169642 -1.01703 
39 -0.227461 0.894409 1.43968 0.703334 0 0 0 -1.58739 -0.0296931 -0.0849053 
2 1.14967 0.675236 1.21353 0.426029 0 0 0 -4.14263 -2.31399 -1.38024 
351 0.859144 1.19145 1.32514 0.381098 0 0 0 -0.727911 -0.46442 0.443671 
42 0.799971 1.37177 1.32996 0.382826 0 0 0 0.818836 -0.146543 1.05488 
195 1.40657 0.799863 1.18838 0.381452 0 0 0 -2.14177 -3.62156 -0.893268 
318 1.49221 1.0687 1.34922 0.306652 0 0 0 1.8014 -3.84531 0.631944 
45 0.998552 0.224026 1.32982 0.545673 0 0 0 -1.04162 -1.56828 0.537164 
46 0.610445 0.267935 0.790681 0.635118 0 0 0 -0.974915 -0.894073 -1.36005 
47 1.21211 0.915314 0.835751 0.454217 0 0 0 -1.73097 -0.485115 0.988021 
48 0.526617 0.788818 1.37475 0.498784 0 0 0 -1.05289 -1.06534 0.0363449 
250 1.49187 1.08593 1.35641 0.302459 0 0 0 1.9655 -3.83554 0.344301 
79 1.49624 1.36941 1.46082 0.233517 0 0 0 3.64306 0.7574 0.549924 
51 0.476675 1.30496 0.949269 0.506039 0 0 0 0.16908 0.221635 -1.33573 
52 1.29203 0.22635 1.31754 0.525365 0 0 0 -0.907358 -1.91141 0.784938 
53 -0.0398876 0.626632 1.25892 0.678805 0 0 0 -1.45045 -0.44127 -0.414625 
54 1.02301 -0.400934 1.42877 0.747461 0 0 0 0.00508707 -1.7438 0.513772 
385 1.48526 1.28966 1.43147 0.252413 0 0 0 3.42494 -2.10744 0.489976 
56 1.27651 0.103589 1.02253 0.574016 0 0 0 -0.869632 -1.66904 -0.734812 
178 0.995033 1.43603 1.45857 0.329983 0 0 0 2.91015 1.35571 0.624035 
115 1.50526 1.1504 1.3764 0.287021 0 0 0 3.09632 -4.38545 0.77761 
59 0.618214 0.602599 1.24066 0.517391 0 0 0 -1.31676 -1.26831 -0.596031 
124 1.46275 1.03845 1.33351 0.314953 0 0 0 0.30789 -3.79387 1.08027 
306 1.50773 -0.285867 0.765564 0.723847 0 0 0 -0.127706 -1.60431 -0.682417 
64 0.863755 -0.339058 1.3046 0.73647 0 0 0 -0.275633 -1.69422 0.221042 
119 1.46935 1.29803 1.43365 0.251085 0 0 0 3.24265 -1.67074 0.899589 
313 1.06027 1.33634 1.41902 0.322542 0 0 0 1.09864 0.946805 2.21118 
149 1.36225 1.21564 1.35163 0.287131 0 0 0 -1.32981 -1.5609 -0.792799 
179 1.27091 0.655439 1.19793 0.420363 0 0 0 -3.49652 -2.75721 -1.57703 
106 1.48399 1.28128 1.42805 0.254532 0 0 0 3.33324 -2.41819 0.652524 
322 1.48977 1.08075 1.35422 0.303753 0 0 0 1.82446 -3.82987 0.43197 
19 1.48533 0.423844 1.00493 0.484896 0 0 0 -0.852845 -1.86254 -1.91696 
512 1.4942 1.3562 1.4562 0.23644 0 0 0 3.67216 0.311373 0.466779 
301 0.930612 1.30713 1.40803 0.352103 0 0 0 0.844415 0.695587 0.473196 
214 1.3994 0.983947 1.30053 0.332297 0 0 0 -2.34885 -3.66497 1.32655 
77 0.453286 1.43621 1.29507 0.467505 0 0 0 -0.73002 0.322692 -0.756589 
358 0.802631 1.13455 1.1541 0.418096 0 0 0 -0.811531 -0.815819 -0.3411 
81 0.658629 0.594055 1.15419 0.517897 0 0 0 -1.43268 -1.24581 -1.06382 
71 0.654125 1.22741 1.34848 0.421633 0 0 0 -0.472706 -0.274717 -0.366903 
329 0.87255 1.19711 1.34631 0.376298 0 0 0 -0.663915 -0.284718 0.350661 
57 1.51229 0.644697 1.1874 0.412433 0 0 0 -0.122682 -3.05679 -1.62627 
122 1.21655 0.673186 1.2029 0.420716 0 0 0 -3.9808 -2.58491 -1.5252 
74 0.974791 0.845286 1.26176 0.411891 0 0 0 -4.06616 -1.59229 -1.05762 
228 1.19612 1.41564 1.46552 0.285847 0 0 0 3.66132 1.69423 2.54329 
198 0.988611 1.43717 1.45868 0.331363 0 0 0 2.8782 1.25694 0.754143 
165 1.32818 0.926625 1.25837 0.353441 0 0 0 -4.30461 -3.50943 0.956106 
101 1.00027 1.23476 1.37485 0.345702 0 0 0 -1.00782 0.364897 1.16493 
82 0.914205 0.731778 1.19891 0.446426 0 0 0 -3.04095 -1.67016 -1.19376 
229 1.43794 1.01782 1.32157 0.321266 0 0 0 -0.817654 -3.73969 1.25659 
66 0.0779118 -0.209394 2.31732 0.901789 0 0 0 -0.68795 -1.05208 0.580834 
67 0.896593 0.389783 1.9898 0.568994 0 0 0 0.535203 -0.0874521 0.637791 
68 1.03629 0.897869 1.78783 0.431438 0 0 0 0.892994 2.98623 -4.25791 
95 0.398484 -0.0109046 2.10984 0.741996 0 0 0 -0.249917 -0.999984 0.67993 
70 0.431862 1.36488 2.12842 0.534682 0 0 0 0.501904 -0.113951 0.726871 
88 0.06036 0.335403 2.25425 0.754696 0 0 0 -0.785906 -0.437356 0.780298 
55 0.17915 0.11008 1.56622 0.715518 0 0 0 -0.990351 -1.03046 0.129751 
63 0.0686948 1.42392 1.57716 0.57445 0 0 0 -1.32738 0.122344 0.333562 
87 -0.124828 0.602196 1.97093 0.726217 0 0 0 -1.2334 -0.227798 0.586437 
75 0.134229 1.38274 2.08426 0.597904 0 0 0 -0.600625 -0.111103 0.927859 
86 1.52819 0.494283 1.73489 0.483927 0 0 0 0.0890003 0.601211 0.00416872 
90 0.7725 1.18916 2.00601 0.467508 0 0 0 2.16492 1.08649 -1.69348 
78 0.397216 -0.0026321 2.21456 0.755242 0 0 0 -0.216481 -0.931591 0.705692 
113 0.978011 1.36001 2.06097 0.439914 0 0 0 2.96975 2.54552 -6.73558 
93 0.811343 0.804864 2.02329 0.511044 0 0 0 1.24664 0.892039 -0.290694 
92 0.388019 0.389793 1.87057 0.619936 0 0 0 -0.311894 -0.63019 0.888696 
108 1.1812 0.815751 2.12936 0.500495 0 0 0 1.03682 2.73478 -3.2617 
83 0.717767 1.15514 1.91968 0.462904 0 0 0 1.76401 0.73705 -0.786995 
84 0.247413 0.0622342 2.16075 0.758666 0 0 0 -0.490187 -0.857546 0.680798 
96 1.42755 0.839317 1.89147 0.437817 0 0 0 0.311126 5.24157 -7.87475 
127 1.45838 0.642891 2.04464 0.504503 0 0 0 0.179415 2.32782 -2.51036 
34 -0.0099535 0.530521 1.66397 0.680599 0 0 0 -1.2569 -0.446988 0.292418 
60 0.616723 0.958432 1.89369 0.49654 0 0 0 0.906022 0.186404 0.694727 
25 1.06931 0.282776 1.61881 0.537639 0 0 0 -0.332245 -0.974036 1.42411 
76 0.569499 0.905025 1.57236 0.476954 0 0 0 -0.410871 -0.726924 0.959391 
94 0.548013 0.812209 1.57409 0.494661 0 0 0 -0.474153 -0.79914 1.01572 
37 0.451645 1.06436 1.55401 0.483799 0 0 0 -0.71524 -0.372707 0.801522 
49 -0.225098 0.992379 1.53528 0.693614 0 0 0 -1.56997 0.0720003 0.0721412 
125 1.09268 1.35857 2.31576 0.494744 0 0 0 1.87405 1.87934 -4.76226 
370 1.52837 0.876194 2.34621 0.535456 0 0 0 -0.113983 2.66187 -3.73626 
121 1.2299 0.0557165 2.56175 0.739898 0 0 0 0.420656 -0.463461 0.188907 
97 0.741257 0.963637 2.6719 0.641808 0 0 0 0.791106 0.769512 -0.0277235 
98 0.311901 1.033 2.82434 0.738885 0 0 0 -0.0618665 0.189116 0.94217 
99 0.716606 0.0242822 2.58279 0.779047 0 0 0 0.238164 -0.650597 0.651576 
100 0.647804 0.403616 2.84607 0.773453 0 0 0 0.218163 0.0515946 0.748522 
128 0.383363 1.44118 2.49724 0.615767 0 0 0 0.291496 -0.114641 0.746866 
131 0.549718 1.23793 2.93584 0.721724 0 0 0 0.37545 0.238875 0.767513 
103 1.03332 0.516068 2.74005 0.695683 0 0 0 0.557514 0.579612 -0.00877536 
130 1.37067 0.465212 2.56845 0.651141 0 0 0 0.36374 0.736491 -0.682367 
114 1.06694 0.88038 2.58086 0.60421 0 0 0 0.894411 1.47521 -1.26382 
129 0.508149 0.0503789 3.07878 0.938569 0 0 0 -0.0943771 -0.452578 0.92642 
116 -0.0918066 0.828692 2.48471 0.768909 0 0 0 -0.926306 -0.00655975 0.912666 
117 -0.112811 0.373905 2.52757 0.8492 0 0 0 -0.963989 -0.312892 0.858347 
109 0.427185 0.944434 3.03849 0.79387 0 0 0 0.0460067 0.256784 0.963211 
110 0.486302 -0.255059 2.78202 0.938174 0 0 0 -0.121532 -0.93665 0.764147 
123 1.28799 1.23657 2.37883 0.511351 0 0 0 0.834608 2.64156 -5.32656 
112 1.16532 0.424953 2.80165 0.724468 0 0 0 0.46787 0.431153 0.0412949 
162 0.457141 2.5951 0.566882 0.691738 0 0 0 -0.199 0.795905 -0.433726 
132 0.662221 2.53027 0.21789 0.732799 0 0 0 0.175152 0.271968 -0.335471 
133 0.0922393 1.78605 0.558714 0.665838 0 0 0 -0.45594 0.13989 -0.504163 
134 0.162152 2.01557 0.242429 0.73626 0 0 0 -0.340452 0.197194 -0.589832 
135 1.32373 2.40948 0.446203 0.616065 0 0 0 0.357539 -1.41327 1.05045 
136 1.10481 2.57107 0.555835 0.622616 0 0 0 0.397423 -0.46964 0.464782 
137 0.0490346 2.5059 0.614626 0.758156 0 0 0 -0.886027 0.864031 -0.494803 
138 0.513596 2.21214 0.0647099 0.745662 0 0 0 0.2642 0.00930518 -0.511825 
139 0.291597 2.24805 0.292714 0.722673 0 0 0 -0.186704 0.334759 -0.526102 
140 0.883335 2.73443 0.162877 0.770976 0 0 0 0.129484 0.361232 -0.290014 
141 -0.0439177 2.3866 0.16064 0.863762 0 0 0 -0.835654 0.588526 -0.612657 
142 1.45321 2.54108 0.575781 0.605432 0 0 0 -0.0152844 -1.15817 0.848443 
143 1.27571 2.91643 0.597735 0.687649 0 0 0 -0.0928448 0.533076 -0.00199811 
160 0.794611 3.07602 0.428214 0.804014 0 0 0 -0.207703 1.16479 -0.290277 
145 0.495422 2.00223 0.0139382 0.740951 0 0 0 0.384884 -0.140958 -0.551337 
146 1.33715 2.00136 0.341057 0.60108 0 0 0 0.654423 -2.10927 2.10566 
147 0.7662 1.82077 0.226308 0.636296 0 0 0 1.19529 -0.679983 0.31765 
148 1.26681 3.02295 0.25203 0.799052 0 0 0 -0.0618256 0.640661 -0.233349 
156 0.0923339 1.95726 0.419735 0.705679 0 0 0 -0.503549 0.220022 -0.514316 
150 1.08321 1.84153 0.514019 0.549521 0 0 0 1.65377 -2.03895 2.64044 
155 0.802653 1.62672 0.139303 0.650624 0 0 0 1.20365 -0.523858 0.232176 
161 1.37471 2.00683 0.411135 0.582785 0 0 0 0.554469 -2.40394 2.53758 
159 0.0392281 1.48545 -0.0352912 0.821638 0 0 0 -0.53289 -0.159698 -0.891065 
170 1.13968 2.09622 1.09397 0.440545 0 0 0 1.46596 -3.7787 4.57932 
163 0.512818 2.85755 0.715426 0.721365 0 0 0 -0.362571 1.26011 -0.434168 
202 0.614154 2.0095 1.00202 0.503112 0 0 0 1.09992 -0.139506 -1.05797 
167 0.867409 1.79173 1.05683 0.4364 0 0 0 2.56067 -1.83469 2.56816 
225 1.49735 1.51636 1.51443 0.217517 0 0 0 -0.855335 -0.814856 -0.888479 
169 0.925717 1.73867 1.43072 0.356732 0 0 0 1.84631 -1.94804 4.92863 
201 -0.0238994 2.74169 0.921927 0.787361 0 0 0 -1.10165 1.15805 -0.493674 
171 0.344797 1.88397 1.31499 0.510872 0 0 0 -0.752227 0.282532 -1.14351 
183 1.0557 1.45292 1.4625 0.315988 0 0 0 3.41742 1.60673 1.20772 
30 0.792091 1.64482 1.51741 0.376352 0 0 0 1.026 0.0813135 0.161905 
174 0.206879 1.77876 1.03603 0.567115 0 0 0 -0.476571 0.230792 -1.0229 
210 1.50148 1.47893 1.50125 0.217347 0 0 0 0.564642 0.988799 0.141682 
157 1.18864 2.27083 1.02742 0.478468 0 0 0 0.927565 -2.54604 1.97886 
152 1.07997 2.08941 0.712469 0.523342 0 0 0 1.53883 -2.43135 2.37609 
314 1.50113 1.48139 1.50212 0.217248 0 0 0 0.469859 0.864887 0.0377617 
197 0.0748397 2.23525 1.0802 0.643444 0 0 0 -1.00243 0.595575 -0.809926 
180 0.421873 2.02562 1.49853 0.493813 0 0 0 -1.13661 0.339444 -0.7278 
181 0.627685 2.08579 1.41776 0.456517 0 0 0 -0.466963 0.710816 -1.41788 
428 1.18669 2.56475 1.42783 0.483303 0 0 0 -0.598112 1.18336 -1.62202 
410 1.49911 1.48774 1.50438 0.217076 0 0 0 0.801853 0.612129 -0.033326 
184 0.816888 2.82807 1.23688 0.603672 0 0 0 -0.226959 1.57113 -1.11911 
460 1.49413 1.50152 1.50836 0.217101 0 0 0 -0.273466 -0.0772005 -0.508593 
186 0.975643 2.81775 1.04021 0.606021 0 0 0 -0.0236965 1.0024 -0.639748 
196 0.570964 1.70122 1.47318 0.432141 0 0 0 -0.553943 0.191641 -0.178955 
188 0.309623 2.5385 1.32084 0.61326 0 0 0 -0.883917 1.28407 -1.11735 
200 0.952342 2.70818 1.14964 0.565977 0 0 0 0.0652628 0.959679 -1.03813 
190 0.811572 1.85976 1.03819 0.453605 0 0 0 2.21265 -1.24138 0.979138 
166 0.578326 1.64115 0.820061 0.51415 0 0 0 1.37956 -0.126804 -0.491369 
192 0.613366 2.06273 1.28736 0.468808 0 0 0 0.152104 0.522709 -1.66713 
193 1.11512 2.50091 1.38662 0.476142 0 0 0 -0.418093 0.868729 -1.52481 
203 1.49708 1.53528 1.52114 0.2189 0 0 0 -1.53211 -1.18147 -1.05591 
208 1.50103 1.48233 1.50246 0.217215 0 0 0 0.443623 0.812698 0.00440655 
41 1.49969 1.49087 1.50544 0.217015 0 0 0 0.111053 0.319735 -0.334846 
342 1.4981 1.50466 1.51029 0.217085 0 0 0 -0.413141 -0.389998 -0.700063 
164 1.49914 1.49496 1.50687 0.216985 0 0 0 -0.0436368 0.0867124 -0.464743 
40 1.49907 1.4955 1.50706 0.216985 0 0 0 -0.0643547 0.0568589 -0.480516 
219 1.49839 1.50152 1.50918 0.217027 0 0 0 -0.293463 -0.248426 -0.633476 
73 1.49776 1.50902 1.51183 0.217207 0 0 0 -0.579108 -0.567133 -0.780289 
43 0.805605 1.44796 1.37081 0.376497 0 0 0 1.30535 -0.0248027 1.27885 
418 1.50719 1.47294 1.49917 0.21769 0 0 0 -0.37493 0.849256 0.0250573 
158 1.23226 1.80437 1.1132 0.389172 0 0 0 1.38672 -9.69107 21.295 
394 1.50446 1.487 1.49865 0.217127 0 0 0 -0.307779 0.64234 -1.03555 
107 1.49844 1.45725 1.49538 0.218849 0 0 0 1.73309 1.28391 2.58223 
215 0.540868 2.16283 1.63004 0.479714 0 0 0 -1.42857 0.604048 -0.340524 
447 1.39749 2.80308 2.23839 0.567395 0 0 0 -0.109862 1.23068 1.24132 
205 0.0357074 1.958 2.06486 0.63064 0 0 0 -1.35406 -0.385499 0.701799 
206 1.02526 2.47209 2.29806 0.526082 0 0 0 -0.784498 0.0757683 2.24089 
207 0.438845 2.84842 1.72195 0.648683 0 0 0 -0.970145 1.70351 -0.719318 
257 1.1462 1.73854 1.5693 0.308091 0 0 0 0.150432 1.36744 0.792467 
194 0.555391 1.94539 1.63956 0.452294 0 0 0 -1.32473 0.0738719 0.248886 
235 1.21548 2.18612 2.35238 0.493662 0 0 0 -0.515569 -1.03704 1.7897 
211 0.956349 2.92222 2.05614 0.605036 0 0 0 -0.719732 1.80985 0.0663073 
212 0.453129 2.60916 1.67387 0.582916 0 0 0 -1.1616 1.49547 -0.74158 
213 0.821558 1.77282 1.80143 0.397827 0 0 0 -0.215366 0.0123637 -1.25224 
242 0.400458 2.35909 2.29194 0.595599 0 0 0 -1.03597 -0.27233 1.19627 
231 0.848339 2.32006 2.12816 0.491558 0 0 0 -1.46636 0.000741095 2.18589 
216 1.16683 2.9485 2.0896 0.59937 0 0 0 -0.547697 1.81478 0.24549 
217 0.3432 2.85139 1.83538 0.671173 0 0 0 -1.07812 1.48819 -0.520589 
218 0.188131 2.60236 1.94756 0.653438 0 0 0 -1.42616 0.76558 -0.0979167 
468 0.852816 2.30967 1.8553 0.453564 0 0 0 -2.19979 1.12492 0.887542 
204 0.982436 2.13675 1.79705 0.400181 0 0 0 -3.11372 1.0714 0.489687 
221 0.78136 2.16855 1.99554 0.461679 0 0 0 -1.81773 -0.142078 1.89152 
222 0.874642 2.13024 1.82114 0.418688 0 0 0 -2.52239 0.608223 0.876278 
223 0.64826 1.75377 1.73341 0.42543 0 0 0 -0.647493 -0.24425 0.582177 
246 1.14636 1.78049 1.58 0.313136 0 0 0 -0.965719 1.32025 0.385076 
104 0.23399 1.55829 2.31381 0.605702 0 0 0 -0.273994 -0.332358 0.943781 
226 1.33009 3.06355 2.06162 0.626231 0 0 0 -0.383196 1.88233 0.0383425 
227 0.147301 1.58649 2.08044 0.590158 0 0 0 -0.739049 -0.333819 0.95766 
234 1.08919 1.77503 1.65723 0.327875 0 0 0 -0.111385 5.13755 -13.7852 
238 1.01266 1.72345 1.58263 0.333678 0 0 0 1.23714 1.37751 -3.74564 
321 1.32125 2.33262 1.84132 0.409755 0 0 0 -2.19676 3.09489 1.0581 
475 0.852221 2.20785 1.83084 0.434529 0 0 0 -2.39324 0.831295 0.936006 
476 1.236 2.27058 2.30391 0.488505 0 0 0 -0.669899 -0.591823 2.29719 
189 0.782453 2.23929 1.56136 0.444169 0 0 0 -1.22527 1.24346 -1.12486 
239 1.34949 1.89792 1.62617 0.304189 0 0 0 -5.24311 3.48695 3.2525 
328 1.239 2.61189 1.80516 0.480291 0 0 0 -1.13649 2.55659 -0.289782 
185 0.0296352 2.45809 1.54538 0.667554 0 0 0 -1.489 0.759414 -0.529503 
337 1.08116 2.12647 1.79494 0.38486 0 0 0 -3.7191 1.54301 0.134437 
462 1.494 3.28882 1.96818 0.696857 0 0 0 -0.327486 1.96138 -0.252661 
168 1.33185 1.85862 1.63156 0.298787 0 0 0 -4.91633 3.88212 2.86616 
247 1.21226 2.26017 1.82707 0.399115 0 0 0 -3.19368 2.60104 0.84179 
177 1.34231 2.09074 1.75652 0.350182 0 0 0 -4.1038 3.77398 -1.22927 
485 1.5067 2.80876 2.33205 0.583722 0 0 0 0.09579 0.928985 1.38006 
264 1.3721 2.24531 1.827 0.38749 0 0 0 -2.45584 3.42766 0.951497 
69 1.4045 2.22362 1.82304 0.381682 0 0 0 -2.28834 3.58826 0.832305 
483 1.42127 2.31225 1.83497 0.402124 0 0 0 -1.57711 3.46075 1.19411 
350 1.43899 2.292 1.83175 0.397131 0 0 0 -1.51854 3.54178 1.19883 
249 0.810745 1.71806 2.34598 0.511764 0 0 0 1.12861 -0.642059 -0.195809 
420 1.11136 1.94426 1.68018 0.344427 0 0 0 -3.5813 1.60321 -2.54897 
240 1.42889 1.99382 1.67738 0.32076 0 0 0 -4.04923 3.95806 0.324565 
300 1.51916 1.67208 1.57346 0.24525 0 0 0 -3.2084 2.24398 -0.656261 
398 1.51863 1.67007 1.57263 0.244757 0 0 0 -3.21681 2.19342 -0.698218 
29 0.0998235 1.58839 1.57877 0.564953 0 0 0 -1.34138 0.0104219 0.251667 
224 1.1137 1.66991 1.54005 0.307836 0 0 0 2.25614 1.35936 0.49071 
111 0.951816 1.52524 1.75498 0.365725 0 0 0 2.94882 3.99169 -11.4191 
105 1.42237 1.74491 1.56873 0.264089 0 0 0 -3.21451 2.29599 8.89781 
172 1.02342 1.85688 1.56823 0.344255 0 0 0 -0.615179 -1.55296 3.58363 
153 1.36635 1.72339 1.67659 0.280174 0 0 0 -1.66341 12.4792 -21.8047 
341 1.49772 1.55245 1.52725 0.220823 0 0 0 -2.07013 -1.2066 -1.11778 
144 1.49737 1.55543 1.52765 0.221188 0 0 0 -2.02556 -1.23449 -0.918545 
332 1.49424 1.56547 1.53147 0.222687 0 0 0 -0.541628 -0.875777 -0.943917 
486 1.5315 1.94567 2.15279 0.420408 0 0 0 -0.552329 0.806906 -5.18673 
336 1.53233 1.71297 1.59081 0.255617 0 0 0 -2.86348 3.07028 0.0536581 
80 1.49759 1.55013 1.52642 0.22053 0 0 0 -2.00285 -1.21855 -1.11287 
232 0.49216 2.02195 2.69548 0.642611 0 0 0 -0.0745423 -0.804793 1.41703 
233 0.819153 1.89517 2.82464 0.638637 0 0 0 0.440522 -0.774779 1.02622 
255 -0.0545594 2.84034 2.49112 0.830807 0 0 0 -1.33128 0.662502 0.395582 
266 0.366653 1.98499 2.58794 0.636923 0 0 0 -0.320957 -0.749399 1.30893 
236 1.10598 2.61864 2.76414 0.65124 0 0 0 -0.0562786 -0.16782 1.86493 
237 0.373429 2.44496 2.4469 0.637518 0 0 0 -0.879448 -0.195091 1.142 
262 0.719181 1.67966 2.53177 0.568063 0 0 0 0.926274 -0.484208 0.339098 
254 0.214174 2.73861 3.11697 0.891497 0 0 0 -0.712469 0.273401 1.45048 
118 0.0283921 1.48111 2.6882 0.743108 0 0 0 -0.653603 -0.166583 1.01431 
241 0.939424 2.12978 3.11426 0.728299 0 0 0 0.137882 -0.66152 1.54256 
265 0.0329539 3.01139 2.61218 0.868523 0 0 0 -1.12544 0.909767 0.525465 
243 0.559648 3.01398 2.64267 0.760244 0 0 0 -0.508826 1.0028 0.858356 
244 -0.0538473 3.17009 2.96979 1.01469 0 0 0 -0.989221 0.906807 0.8533 
245 1.25688 2.18075 2.86043 0.631953 0 0 0 -0.0453472 -0.976656 1.37662 
256 0.0639205 2.93296 2.98772 0.928312 0 0 0 -0.938692 0.617748 1.10109 
260 -0.0684637 2.86215 2.72929 0.884981 0 0 0 -1.22646 0.592827 0.736861 
248 0.535507 2.66342 2.98132 0.7745 0 0 0 -0.34257 0.0705768 1.64871 
507 1.514 2.78544 2.91087 0.717642 0 0 0 0.00163771 0.241186 1.77995 
258 0.563515 2.96535 3.08818 0.865753 0 0 0 -0.344512 0.62305 1.4781 
251 0.511303 2.47669 2.63315 0.654784 0 0 0 -0.499774 -0.285973 1.47387 
252 -0.111926 2.39186 2.39214 0.756582 0 0 0 -1.48803 -0.039759 0.50005 
253 1.04036 3.18639 2.78129 0.794806 0 0 0 -0.146924 1.14523 1.12594 
267 1.82892 0.385598 0.477774 0.596854 0 0 0 -0.15427 -0.036434 -2.084 
268 2.77884 0.405525 0.286061 0.786133 0 0 0 1.25567 -0.459842 -1.24518 
269 2.2067 0.0402851 -0.170101 0.890933 0 0 0 0.374259 -0.769626 -1.6399 
270 2.56706 0.0594568 -0.0701757 0.911772 0 0 0 0.827069 -0.801606 -1.41334 
291 2.17938 0.517071 -0.0151507 0.745448 0 0 0 0.104531 -0.0265214 -1.80513 
272 2.88249 0.826455 0.434373 0.7207 0 0 0 1.24074 0.0309479 -1.12001 
273 1.72709 1.05679 0.271324 0.594023 0 0 0 -0.639139 0.752359 0.272476 
295 2.1713 1.36023 0.380863 0.583848 0 0 0 -1.32075 0.225647 0.267988 
275 2.66358 -0.0269344 -0.00182025 0.933269 0 0 0 0.952079 -0.903064 -1.25183 
276 1.80978 0.0752467 0.0483157 0.77895 0 0 0 -0.0838287 -0.687913 -1.77595 
294 1.7398 1.32132 0.46806 0.539314 0 0 0 -1.13506 0.0486994 2.88248 
278 1.84913 0.118937 -0.019316 0.79201 0 0 0 -0.0537316 -0.613862 -1.79867 
279 2.175 0.767305 0.422029 0.586649 0 0 0 -0.127607 0.711304 -1.57241 
290 2.36631 1.24236 0.156958 0.668462 0 0 0 -0.466683 0.307259 -0.928678 
281 2.44926 1.10437 0.372455 0.618622 0 0 0 -0.226731 0.581788 -1.09596 
289 2.44024 0.744302 0.539645 0.597764 0 0 0 0.576923 0.387507 -1.48428 
292 2.33956 0.902125 0.628312 0.547957 0 0 0 0.151906 0.786998 -1.36189 
284 1.63517 0.788284 0.385009 0.570141 0 0 0 -0.509439 0.940167 -0.962173 
285 2.84964 1.17716 0.0625897 0.79131 0 0 0 0.715092 0.0555146 -1.2482 
286 1.78723 0.485721 0.444935 0.587351 0 0 0 -0.29411 0.282607 -2.06144 
287 2.57698 1.17322 0.482561 0.61156 0 0 0 0.042828 0.539617 -1.03 
288 2.12027 0.470308 0.103727 0.706468 0 0 0 0.0548019 -0.00961435 -1.83865 
283 2.43674 -0.0381403 0.797332 0.720711 0 0 0 1.11702 -1.28523 -0.558129 
297 2.10953 0.40404 1.31448 0.507881 0 0 0 1.90407 -1.28974 1.10999 
298 2.93001 0.378399 1.22614 0.699642 0 0 0 1.80707 -0.768762 0.103681 
299 2.17785 0.794496 1.15772 0.446812 0 0 0 3.04143 -0.0324273 -0.486664 
326 2.16132 0.241579 1.27565 0.557615 0 0 0 1.36194 -1.47822 0.89774 
421 1.83954 1.44084 1.50274 0.295543 0 0 0 -2.29054 -3.41418 -0.0484986 
302 2.2023 0.171767 1.03879 0.5931 0 0 0 1.23407 -1.3283 -0.190312 
409 1.68112 1.13811 1.38277 0.302341 0 0 0 7.62372 -3.47591 0.200364 
304 2.56842 0.907699 0.967202 0.532659 0 0 0 1.36622 0.342765 -0.843779 
327 2.48296 0.0221881 1.06097 0.686 0 0 0 1.27706 -1.34483 -0.0075887 
271 2.03991 0.860397 1.25086 0.407328 0 0 0 4.83291 -0.126735 -0.0685267 
325 1.98594 0.355551 1.00004 0.521514 0 0 0 1.37373 -1.15549 -1.0399 
308 1.84277 0.353843 1.39549 0.497794 0 0 0 1.14368 -1.67546 1.551 
309 2.88629 1.00557 1.17505 0.594011 0 0 0 1.74589 0.142692 -0.102391 
352 2.85341 1.20475 1.47988 0.560578 0 0 0 1.76124 0.054224 0.517015 
311 2.00274 0.716305 0.965145 0.458609 0 0 0 2.42582 -0.00771546 -1.77908 
312 2.53391 1.33844 0.846885 0.525579 0 0 0 -0.117205 0.54849 -0.59715 
293 2.42309 1.11164 0.861815 0.504926 0 0 0 0.210314 0.810951 -0.879208 
324 1.62813 -0.0597991 0.885015 0.633874 0 0 0 -0.114649 -1.61405 -0.685093 
315 2.60039 1.07859 1.23024 0.500886 0 0 0 1.63815 0.261091 -0.084597 
316 2.72628 0.872234 1.06806 0.566482 0 0 0 1.68897 0.0839882 -0.390931 
317 2.17448 0.00895391 1.26039 0.630986 0 0 0 0.833479 -1.67311 0.738106 
345 2.10888 1.08501 1.35917 0.384712 0 0 0 3.15611 0.530547 0.357437 
323 2.38134 0.331225 1.4536 0.569986 0 0 0 1.39882 -1.12558 1.28542 
455 2.55583 1.28173 1.36755 0.472766 0 0 0 1.51369 0.132498 0.181902 
435 2.27639 1.22552 1.31462 0.41136 0 0 0 0.998768 0.0652037 0.565548 
448 2.20141 1.19778 1.32869 0.395786 0 0 0 1.29432 0.0626887 0.913652 
330 2.12819 0.968261 1.33153 0.403423 0 0 0 3.69308 0.316966 0.284989 
333 2.02459 1.08667 1.30523 0.371338 0 0 0 4.55162 0.0167517 1.82266 
320 2.05153 1.24466 1.39439 0.356995 0 0 0 1.45111 -0.21868 1.67625 
85 1.93767 0.688028 1.22732 0.424794 0 0 0 4.19028 -1.03509 -0.384171 
72 1.85279 0.835644 1.34412 0.381423 0 0 0 5.98987 -0.139969 -1.58442 
280 1.92793 1.15719 0.954521 0.418536 0 0 0 0.281954 -0.516102 5.5181 
282 1.82598 1.09003 1.37787 0.331796 0 0 0 7.681 0.0346318 -2.08864 
58 1.53876 0.410761 0.794831 0.520966 0 0 0 -0.628895 -0.813593 -2.48364 
7 1.78037 0.749628 1.18987 0.399088 0 0 0 4.57899 -1.93036 -1.07275 
175 1.6862 0.702468 1.18442 0.402969 0 0 0 3.05514 -2.53259 -1.39654 
151 1.67338 0.694858 1.1842 0.404026 0 0 0 2.8035 -2.59531 -1.4287 
102 1.68173 0.685794 1.18738 0.406095 0 0 0 2.8321 -2.53417 -1.39623 
401 1.68763 1.21329 1.38465 0.29046 0 0 0 6.15757 -7.40042 9.30955 
431 1.82255 1.38592 1.47813 0.29416 0 0 0 -1.17582 -3.90185 1.5023 
230 1.56873 0.813989 1.19065 0.375191 0 0 0 1.90248 -3.51172 -0.549787 
402 1.95157 1.39054 1.18278 0.365151 0 0 0 -1.92866 -6.34901 17.609 
61 2.0614 1.43224 1.48036 0.34774 0 0 0 -1.14269 -1.58265 0.681578 
305 2.1485 1.42894 1.51639 0.368183 0 0 0 -0.452023 -0.690373 -0.938229 
89 2.192 1.4391 1.48267 0.378189 0 0 0 -0.208487 -1.02954 0.257916 
363 1.70564 1.42068 1.51243 0.263048 0 0 0 1.53643 23.0361 -69.0348 
500 2.10569 1.32175 1.8839 0.412443 0 0 0 -1.33912 1.80859 -6.18421 
355 2.35839 0.184451 1.86313 0.63447 0 0 0 0.366744 -1.07707 1.05969 
381 3.11613 1.01979 2.35073 0.739097 0 0 0 1.30343 -0.262236 0.688429 
331 2.87924 0.0788052 2.06589 0.792854 0 0 0 1.08633 -1.15049 0.611484 
364 1.76962 0.735993 2.16028 0.517307 0 0 0 -0.565247 2.08264 -2.77003 
456 2.33967 1.28734 1.85278 0.45211 0 0 0 -0.021628 -0.018773 -0.567858 
334 2.84871 0.650637 1.56623 0.619735 0 0 0 1.61395 -0.526264 0.796514 
379 2.85971 0.751267 2.16119 0.66274 0 0 0 0.957002 -0.296453 0.716379 
357 2.79171 1.1106 1.69075 0.555739 0 0 0 1.47437 -0.156975 0.974955 
349 2.50806 1.06994 1.68913 0.485856 0 0 0 1.04813 -0.24299 1.07416 
338 2.91329 1.04907 1.57017 0.592008 0 0 0 1.69171 -0.0901881 0.716323 
339 2.60637 0.208204 1.7826 0.663658 0 0 0 0.880253 -1.09947 0.930374 
340 2.03196 0.919079 1.73824 0.427767 0 0 0 0.610173 2.04107 -2.76124 
380 2.25571 1.36196 2.17206 0.492286 0 0 0 -0.922146 0.227001 -1.48843 
356 2.53184 0.904635 2.0194 0.548951 0 0 0 0.229717 -0.0733837 0.595545 
359 2.00327 -0.096053 2.15981 0.722348 0 0 0 0.008757 -1.20854 0.524048 
344 2.80142 -0.0437814 2.11853 0.816015 0 0 0 0.909476 -1.29329 0.606368 
348 3.04077 1.33757 1.60003 0.619056 0 0 0 1.74344 -0.105231 0.435877 
346 1.58774 0.374973 1.94495 0.544623 0 0 0 0.0740804 0.360917 0.05513 
354 2.04636 0.843232 1.58868 0.422711 0 0 0 2.33701 1.06359 -0.593092 
368 2.37677 0.682569 2.36623 0.614732 0 0 0 -0.272365 0.0966863 0.0449849 
366 1.71031 1.38231 2.04875 0.405693 0 0 0 -1.48421 7.06577 -20.3646 
371 2.18583 0.971476 2.33558 0.55166 0 0 0 -0.951524 0.813058 -1.29552 
377 1.74601 1.18746 1.97095 0.407209 0 0 0 -1.22631 7.54572 -18.0443 
360 1.90747 0.404478 2.3254 0.616733 0 0 0 -0.290895 0.209301 -0.467813 
361 2.15681 1.26107 2.27566 0.509604 0 0 0 -1.32492 0.772323 -2.22144 
335 2.54276 0.223578 1.52697 0.631494 0 0 0 1.20219 -1.16847 0.995537 
384 1.99729 -0.077638 2.77943 0.849448 0 0 0 0.0754904 -0.817706 0.466737 
376 2.66835 0.594172 2.77917 0.779063 0 0 0 0.370211 -0.267687 0.787332 
375 2.39585 0.989107 2.70504 0.665024 0 0 0 -0.364313 0.253855 0.190217 
362 2.50173 1.42621 2.86667 0.696431 0 0 0 -0.126933 -0.207832 0.712541 
126 1.54709 0.230959 2.44275 0.669909 0 0 0 0.19066 -0.0431896 -0.289625 
383 3.11738 1.16306 2.83543 0.835524 0 0 0 1.03594 -0.275987 0.893843 
365 2.96941 -0.092678 2.52754 0.942726 0 0 0 0.964699 -1.11941 0.625899 
374 2.49303 0.362286 2.5845 0.739405 0 0 0 0.163771 -0.519008 0.603591 
367 2.83512 -0.095219 2.44692 0.894595 0 0 0 0.828601 -1.20579 0.631838 
382 2.46012 0.611973 2.90139 0.779648 0 0 0 0.00281472 -0.0960607 0.703919 
369 2.63778 0.580109 2.64824 0.739167 0 0 0 0.331746 -0.276048 0.688858 
373 2.14105 0.726534 2.45077 0.603869 0 0 0 -0.651264 0.594273 -0.680569 
406 2.09112 2.16896 0.430839 0.611265 0 0 0 -1.06554 -1.43411 0.481129 
386 2.0284 2.99123 0.371048 0.772706 0 0 0 -0.203153 0.499838 -0.469317 
387 2.72329 1.69898 0.609379 0.620611 0 0 0 0.125399 -0.139197 -0.670062 
408 1.85313 2.49566 0.31794 0.670082 0 0 0 -0.440782 -0.943463 0.185438 
389 2.18616 3.05826 0.428307 0.790717 0 0 0 -0.0941002 0.695844 -0.557208 
390 2.98317 1.77901 0.535154 0.707932 0 0 0 0.849948 -0.129227 -0.779557 
391 2.11535 1.83161 0.648486 0.532526 0 0 0 -2.13324 -1.78881 1.75426 
403 2.5459 2.18678 0.119715 0.75135 0 0 0 -0.0754421 -0.411424 -0.815059 
393 2.66093 2.28842 0.183064 0.764203 0 0 0 0.173621 -0.246703 -0.873324 
405 2.78811 3.02173 -0.121112 1.01931 0 0 0 0.448673 0.483337 -0.802736 
395 1.81381 2.31842 0.62591 0.567286 0 0 0 -0.975043 -2.06637 1.31385 
396 2.10804 2.72738 0.663081 0.647389 0 0 0 -0.447572 -0.0233167 -0.398817 
397 2.16783 2.01055 -0.00250822 0.730132 0 0 0 -0.551799 -0.808902 -0.326894 
407 3.03609 2.65996 0.0661362 0.941521 0 0 0 0.752093 0.242131 -0.877928 
399 2.55634 2.07553 0.33948 0.678297 0 0 0 -0.217672 -0.510612 -0.662317 
400 3.03867 3.09633 0.094805 1.03122 0 0 0 0.703318 0.615653 -0.726256 
404 2.54911 1.82912 0.135099 0.717735 0 0 0 -0.227233 -0.383302 -0.795836 
392 1.64897 1.70189 1.30239 0.313621 0 0 0 -4.39671 -24.5762 61.8025 
347 1.74968 2.58561 1.44171 0.482408 0 0 0 -0.442409 0.909021 -1.16963 
470 3.18034 2.73685 1.51285 0.777334 0 0 0 1.36502 0.545254 -0.283499 
412 2.83896 2.70487 0.90463 0.719796 0 0 0 0.791074 0.476971 -0.695048 
413 2.99687 2.31763 1.18363 0.663646 0 0 0 1.32585 -0.083047 -0.625425 
414 2.35624 1.78558 1.13988 0.461763 0 0 0 -0.742069 -1.47669 0.0408726 
415 2.18729 1.9517 0.959639 0.482594 0 0 0 -2.1402 -2.22287 1.05746 
416 1.76813 2.56765 1.21183 0.503755 0 0 0 -0.959968 -0.469338 -0.755517 
454 1.96176 3.07035 1.40585 0.634755 0 0 0 -0.187824 1.4875 -0.880991 
427 1.90156 2.97812 1.41373 0.600581 0 0 0 -0.275433 1.39298 -1.01349 
419 3.09087 2.31628 1.28366 0.68543 0 0 0 1.47359 -0.0907419 -0.502463 
457 2.18048 2.18526 1.39274 0.445663 0 0 0 0.664218 -0.848451 -0.804395 
411 1.77753 1.49709 1.51758 0.279056 0 0 0 -3.50361 -3.86792 0.146742 
422 2.52327 1.82722 0.892714 0.534171 0 0 0 -0.488506 -0.711536 -0.445589 
423 2.22281 3.17064 1.41836 0.692848 0 0 0 0.211827 1.49871 -0.625279 
424 1.98908 2.69972 0.785544 0.609123 0 0 0 -0.644648 -0.213526 -0.311733 
425 2.52502 2.65947 0.978214 0.634304 0 0 0 0.284946 0.379834 -0.819762 
426 2.16555 2.22826 1.02762 0.500696 0 0 0 -1.3964 -1.51875 -0.245573 
446 2.15404 1.47216 1.43062 0.370644 0 0 0 -0.757753 -2.07797 2.3098 
441 3.15009 2.03261 1.39372 0.670919 0 0 0 1.68536 -0.393125 -0.321688 
429 2.28301 3.01719 0.830938 0.710771 0 0 0 -0.0175303 0.880807 -0.645504 
430 3.24666 2.98695 1.29672 0.866169 0 0 0 1.22318 0.801668 -0.328429 
449 2.29124 2.24049 1.41348 0.472488 0 0 0 0.979706 -0.238071 -1.01196 
388 1.59812 2.19683 1.01817 0.463184 0 0 0 -1.12529 -4.5249 4.55154 
433 2.03727 1.738 1.21707 0.390794 0 0 0 -3.06218 -5.99457 9.07538 
434 1.60082 2.73668 1.06615 0.558629 0 0 0 -0.646761 -0.104379 -0.507385 
432 2.37388 1.88404 1.34991 0.447539 0 0 0 0.87751 -1.55938 -0.547199 
436 3.01036 2.09203 0.843108 0.681815 0 0 0 1.07795 -0.223353 -0.688428 
437 2.8462 1.57157 0.966138 0.587293 0 0 0 0.941087 0.0775956 -0.585533 
438 2.8555 2.16438 1.42914 0.589202 0 0 0 1.62875 -0.36831 -0.503912 
439 3.06985 3.26361 1.23339 0.897858 0 0 0 0.949547 1.11243 -0.325505 
440 2.10108 2.01538 0.939853 0.483858 0 0 0 -2.3447 -2.61684 1.56031 
458 2.14521 2.40779 1.42054 0.480223 0 0 0 0.451903 0.375984 -1.0474 
464 2.20089 2.07552 1.39204 0.431482 0 0 0 0.77613 -1.5748 -0.489474 
443 2.58771 1.94946 2.09056 0.535522 0 0 0 1.22741 -0.883193 1.06628 
444 2.8486 1.46504 1.86655 0.570207 0 0 0 1.47564 -0.495901 0.741157 
445 2.81527 2.21551 2.1293 0.614388 0 0 0 1.21889 -0.376517 0.618642 
310 1.78294 2.08929 1.76574 0.364648 0 0 0 2.92945 1.76752 -0.104242 
372 1.61022 2.19644 1.81033 0.37771 0 0 0 0.39089 3.52847 0.842703 
296 2.37677 1.99587 1.7502 0.454791 0 0 0 2.73138 -0.912695 0.691468 
471 1.98875 1.90613 1.68087 0.358625 0 0 0 3.68235 -2.27034 -0.855686 
450 2.67999 1.85887 1.96779 0.537546 0 0 0 1.57157 -0.979823 0.850399 
182 1.64286 1.8895 1.64868 0.302928 0 0 0 0.631374 1.14048 2.03362 
452 2.11881 2.90998 1.68517 0.592223 0 0 0 0.466495 1.44554 -0.398907 
453 1.56028 2.45095 2.19982 0.487035 0 0 0 0.35415 0.827367 2.32794 
469 2.08406 1.70842 2.05619 0.431065 0 0 0 0.0260724 -0.355164 -3.08909 
343 2.09718 1.70346 1.57754 0.360073 0 0 0 0.921677 -3.60569 0.0494169 
481 2.16303 2.25178 1.79844 0.451739 0 0 0 2.75677 0.771907 1.1111 
467 1.86345 2.64931 1.66668 0.495963 0 0 0 0.528472 1.84497 -0.479504 
378 1.78868 2.33535 1.81545 0.420988 0 0 0 1.83502 2.73097 1.37871 
459 3.15663 2.7618 2.17728 0.803691 0 0 0 1.33109 0.599019 0.259747 
277 1.76729 1.99982 1.70693 0.340651 0 0 0 3.00481 0.914755 -1.08461 
461 1.65114 2.97999 1.7122 0.580969 0 0 0 -0.214495 1.91983 -0.769177 
263 1.87895 1.99472 1.72044 0.355846 0 0 0 3.87566 -0.294753 -0.869959 
261 1.68405 1.99279 1.69119 0.329303 0 0 0 1.71177 1.80469 -0.603355 
176 1.90638 1.54434 1.53657 0.311139 0 0 0 -2.19406 -3.76072 0.587959 
465 1.96043 2.96194 1.89533 0.597783 0 0 0 0.441381 1.55927 0.016199 
466 2.24247 3.27131 1.79524 0.726836 0 0 0 0.419262 1.62689 -0.194186 
319 2.24975 1.91453 1.63878 0.411732 0 0 0 2.91656 -1.83094 0.106744 
478 2.18734 3.04936 2.25827 0.683238 0 0 0 0.539357 1.21412 0.572459 
484 1.90492 2.64752 2.31714 0.562313 0 0 0 0.647536 0.489738 1.45388 
187 2.13032 2.09995 1.70539 0.41371 0 0 0 3.45069 -0.361691 0.630766 
509 3.29297 2.84291 2.26144 0.875197 0 0 0 1.37373 0.65392 0.329604 
488 2.31766 1.87767 1.72535 0.429172 0 0 0 2.7825 -1.52815 0.406145 
492 2.70859 2.30871 2.28735 0.620863 0 0 0 0.893939 -0.213774 0.823965 
494 2.94687 2.34984 2.28063 0.68446 0 0 0 1.18416 -0.127224 0.575922 
504 2.87672 1.9456 2.27657 0.631953 0 0 0 1.10363 -0.739885 0.756566 
199 1.89315 1.96045 1.70228 0.351188 0 0 0 3.89487 -0.926791 -1.12809 
120 1.67259 1.9638 1.67438 0.321489 0 0 0 1.4588 1.53487 -0.00687394 
442 2.28184 1.67739 1.7112 0.410209 0 0 0 1.68421 -1.59485 -0.50495 
498 2.04613 1.55965 1.97777 0.409436 0 0 0 -0.910508 1.0852 -7.14756 
487 1.91916 2.03369 2.33112 0.488957 0 0 0 0.0326034 -0.698194 0.224798 
209 2.03145 1.70589 1.5911 0.345965 0 0 0 0.865928 -3.84849 -0.48439 
36 2.10179 2.14084 1.72251 0.416346 0 0 0 3.40623 0.0973289 0.774149 
191 1.67811 1.96819 1.67706 0.323025 0 0 0 1.57622 1.52172 -0.148993 
417 2.33714 2.53508 1.7657 0.533535 0 0 0 1.30002 0.973414 0.259022 
451 2.99114 2.22371 1.53029 0.633452 0 0 0 1.65108 -0.275878 -0.312245 
259 1.58512 1.88708 1.64909 0.297931 0 0 0 -0.811245 2.34953 2.4379 
463 1.58447 1.95969 1.66739 0.313836 0 0 0 -0.644591 2.58974 1.31897 
307 1.54445 1.74376 1.60346 0.263563 0 0 0 -2.47135 3.24345 0.804099 
220 1.54372 1.74205 1.60278 0.263123 0 0 0 -2.49573 3.24362 0.760561 
496 2.03147 2.50601 2.78625 0.657586 0 0 0 0.0310583 -0.181225 1.52986 
472 2.0747 1.79642 2.63684 0.574766 0 0 0 -0.779187 -0.595605 -0.0764229 
473 1.75625 1.5959 2.58876 0.549214 0 0 0 -1.17763 0.121221 -2.34801 
474 2.95854 3.17647 2.68346 0.934255 0 0 0 0.901261 1.04183 0.755749 
497 1.61663 1.94127 2.57965 0.539008 0 0 0 -0.635504 -1.02514 -0.520762 
502 2.22662 2.57159 2.71503 0.667085 0 0 0 0.220394 0.0468141 1.38662 
477 3.17713 2.0138 2.59479 0.781979 0 0 0 1.29714 -0.453759 0.857155 
513 2.63016 3.0298 3.05945 0.919998 0 0 0 0.557671 0.805123 1.27698 
479 1.80985 1.75127 2.41699 0.498559 0 0 0 -1.15677 -0.356559 -2.63241 
501 1.6536 2.4538 3.00118 0.698251 0 0 0 -0.144813 -0.376351 1.73334 
503 2.03372 3.1535 2.47845 0.734326 0 0 0 0.328422 1.26101 0.849368 
482 1.57532 3.16058 3.12965 0.875849 0 0 0 0.0454548 0.862643 1.49565 
511 3.00814 2.13234 2.41307 0.702012 0 0 0 1.18574 -0.463509 0.754362 
510 2.10249 2.54653 2.61072 0.623522 0 0 0 0.225984 -0.0462968 1.3835 
508 2.62305 1.96044 3.05692 0.772122 0 0 0 0.282796 -0.409115 1.38038 
505 3.15568 2.91939 3.22206 1.06052 0 0 0 0.88715 0.587055 1.13086 
499 1.80691 1.78436 2.91322 0.645106 0 0 0 -0.705468 -0.515558 0.136726 
495 2.94831 1.72933 2.7966 0.758142 0 0 0 0.827152 -0.506849 1.07251 
489 3.12957 1.50361 3.00018 0.86801 0 0 0 0.959298 -0.334817 1.04649 
490 2.37284 2.40854 2.58346 0.629827 0 0 0 0.304725 -0.18117 1.22528 
491 2.27434 1.49882 2.74564 0.629951 0 0 0 -0.618162 -0.160379 0.104052 
506 1.97648 2.06882 3.04671 0.700279 0 0 0 -0.385107 -0.559233 1.21406 
493 3.07267 3.01075 2.79147 0.943095 0 0 0 1.00008 0.81725 0.88601 
480 2.35966 2.25058 2.39424 0.56922 0 0 0 0.406822 -0.387112 1.22443 
ITEM: TIMESTEP
800996
ITEM: NUMBER OF ATOMS
512
ITEM: BOX BOUNDS ss ss ss
-2.2775349561678951e-01 3.2932607586404616e+00
-4.0122540508749138e-01 3.2891132425832117e+00
-1.7039273299291779e-01 3.2223573019164853e+00
ITEM: ATOMS id x y z width_SPH x_COM y_COM z_COM vx vy vz 
23 0.539288 1.16104 0.37278 0.613016 0 0 0 0.633794 -0.0976254 -0.569957 
3 -0.140332 -0.124435 0.0939719 1.0357 0 0 0 -1.01064 -0.934116 -0.881333 
4 1.1215 0.710241 0.265507 0.622554 0 0 0 0.00938085 0.209794 -1.02932 
5 0.225458 1.27088 -0.0394035 0.782511 0 0 0 -0.197429 -0.30195 -0.966482 
6 0.0115247 1.14394 0.376957 0.727353 0 0 0 -0.762232 -0.268002 -0.705374 
22 0.12862 1.05029 0.0595979 0.785117 0 0 0 -0.507385 -0.42429 -0.970646 
8 0.686461 0.733454 -0.0391986 0.747514 0 0 0 0.09534 -0.433128 -1.18302 
9 1.3567 -0.241856 0.263488 0.804206 0 0 0 -0.298877 -1.1864 -1.40893 
10 -0.0863181 -0.263407 0.0260429 1.07371 0 0 0 -0.93196 -0.985718 -0.901893 
11 0.920707 1.15036 -0.0285263 0.696437 0 0 0 0.752231 -0.165324 -0.435063 
12 0.461887 1.343 0.164183 0.674424 0 0 0 0.502725 -0.204148 -0.606923 
13 0.278627 -0.299312 0.20045 0.957907 0 0 0 -0.806285 -1.14362 -1.0185 
14 0.972042 1.22081 0.390071 0.568523 0 0 0 1.27039 0.142509 0.812808 
15 1.08249 0.669971 0.304805 0.617965 0 0 0 -0.0678784 0.142903 -1.16069 
16 0.612755 -0.23583 0.244738 0.869626 0 0 0 -0.630638 -1.16657 -1.20387 
17 0.878269 0.253886 0.00522557 0.783182 0 0 0 -0.298594 -0.660945 -1.49781 
18 0.56219 0.565602 0.35609 0.673122 0 0 0 -0.327138 -0.544877 -1.23562 
274 1.4895 1.31441 0.568099 0.508705 0 0 0 -0.206645 -0.281908 4.84936 
20 0.679391 0.940679 0.297779 0.628464 0 0 0 0.463998 -0.143602 -0.76643 
62 1.19143 1.02676 0.635989 0.499497 0 0 0 0.00576276 0.577756 1.37863 
50 0.549985 -0.381034 0.627221 0.850634 0 0 0 -0.738631 -1.36613 -0.856468 
31 -0.0667005 1.19079 0.657984 0.694832 0 0 0 -0.99992 -0.0999351 -0.58463 
44 0.384566 0.857336 0.611343 0.61198 0 0 0 -0.317966 -0.373722 -1.12024 
24 1.01877 -0.213788 1.39568 0.679356 0 0 0 -0.123939 -1.69286 0.603296 
353 1.43469 1.07794 1.35086 0.30662 0 0 0 -0.478009 -3.56937 0.63486 
26 -0.135941 1.02548 1.49494 0.658915 0 0 0 -1.52796 0.0880386 0.0612278 
27 0.398738 1.14913 0.832387 0.546231 0 0 0 -0.0929941 0.0262131 -1.24831 
28 0.947154 0.224995 1.38726 0.550775 0 0 0 -0.881415 -1.47365 0.742585 
91 0.80064 1.12867 1.21354 0.410234 0 0 0 -0.998614 -0.848734 -0.341469 
303 1.47401 1.06096 1.34497 0.308982 0 0 0 0.971363 -3.7953 0.769787 
65 0.669831 0.471779 1.33838 0.530131 0 0 0 -1.15555 -1.29712 0.0919901 
32 0.390325 -0.347402 1.28432 0.809111 0 0 0 -0.778072 -1.47593 -0.132787 
33 0.747581 -0.211902 1.15272 0.709655 0 0 0 -0.599445 -1.55105 -0.195132 
173 0.936209 0.960753 1.29479 0.396886 0 0 0 -3.46682 -1.14499 -0.810913 
35 1.49751 0.0185811 0.81871 0.616277 0 0 0 -0.421788 -1.41791 -1.15813 
21 1.50709 1.44185 1.49138 0.220513 0 0 0 0.245415 1.59524 0.615223 
154 1.32469 1.31546 1.43482 0.26889 0 0 0 1.65056 2.35623 -4.96092 
38 0.21985 1.02869 0.800808 0.601116 0 0 0 -0.640099 -0.16964 -1.01703 
39 -0.227462 0.894409 1.43968 0.703334 0 0 0 -1.58739 -0.0296921 -0.0849052 
2 1.14966 0.675235 1.21353 0.426029 0 0 0 -4.14261 -2.31399 -1.38023 
351 0.859144 1.19145 1.32514 0.381098 0 0 0 -0.7279 -0.464436 0.443665 
42 0.799971 1.37177 1.32996 0.382826 0 0 0 0.818828 -0.146564 1.05488 
195 1.40657 0.799862 1.18838 0.381452 0 0 0 -2.14178 -3.62156 -0.893256 
318 1.49221 1.06869 1.34922 0.306652 0 0 0 1.80141 -3.84535 0.631849 
45 0.998552 0.224026 1.32982 0.545673 0 0 0 -1.04161 -1.56828 0.537166 
46 0.610444 0.267935 0.790681 0.635118 0 0 0 -0.974912 -0.894071 -1.36005 
47 1.21211 0.915314 0.835751 0.454217 0 0 0 -1.73097 -0.485108 0.988024 
48 0.526617 0.788818 1.37475 0.498784 0 0 0 -1.05289 -1.06534 0.0363462 
250 1.49187 1.08592 1.35641 0.302459 0 0 0 1.96551 -3.8356 0.344205 
79 1.49624 1.36941 1.46082 0.233517 0 0 0 3.6431 0.757344 0.549752 
51 0.476675 1.30496 0.949269 0.506039 0 0 0 0.169079 0.221634 -1.33573 
52 1.29203 0.22635 1.31754 0.525365 0 0 0 -0.907351 -1.91141 0.78494 
53 -0.039888 0.626632 1.25892 0.678805 0 0 0 -1.45045 -0.441268 -0.414624 
54 1.02301 -0.400935 1.42877 0.747462 0 0 0 0.00508988 -1.7438 0.513773 
385 1.48526 1.28966 1.43147 0.252414 0 0 0 3.425 -2.10755 0.489799 
56 1.27651 0.103589 1.02253 0.574016 0 0 0 -0.869627 -1.66904 -0.73481 
178 0.995034 1.43603 1.45857 0.329983 0 0 0 2.91014 1.35569 0.624033 
115 1.50526 1.1504 1.3764 0.287021 0 0 0 3.09636 -4.38556 0.77755 
59 0.618214 0.602599 1.24066 0.517391 0 0 0 -1.31675 -1.26831 -0.596029 
124 1.46275 1.03845 1.33351 0.314953 0 0 0 0.307883 -3.79389 1.08019 
306 1.50773 -0.285868 0.765564 0.723847 0 0 0 -0.127705 -1.60431 -0.682415 
64 0.863755 -0.339058 1.3046 0.73647 0 0 0 -0.27563 -1.69422 0.221043 
119 1.46935 1.29803 1.43365 0.251085 0 0 0 3.2427 -1.67083 0.899414 
313 1.06027 1.33634 1.41902 0.322542 0 0 0 1.09865 0.946788 2.21117 
149 1.36225 1.21564 1.35163 0.287131 0 0 0 -1.32984 -1.56132 -0.791845 
179 1.27091 0.655438 1.19793 0.420363 0 0 0 -3.49651 -2.7572 -1.57702 
106 1.48399 1.28128 1.42805 0.254532 0 0 0 3.3333 -2.4183 0.652354 
322 1.48977 1.08075 1.35422 0.303753 0 0 0 1.82447 -3.82992 0.431874 
19 1.48533 0.423844 1.00493 0.484896 0 0 0 -0.852848 -1.86254 -1.91695 
512 1.4942 1.3562 1.4562 0.23644 0 0 0 3.6722 0.311308 0.466592 
301 0.930612 1.30713 1.40803 0.352103 0 0 0 0.844422 0.695562 0.47319 
214 1.3994 0.983946 1.30053 0.332297 0 0 0 -2.34887 -3.66497 1.32651 
77 0.453286 1.43621 1.29507 0.467505 0 0 0 -0.730029 0.322687 -0.756592 
358 0.80263 1.13455 1.1541 0.418096 0 0 0 -0.811523 -0.815824 -0.3411 
81 0.658629 0.594055 1.15419 0.517897 0 0 0 -1.43267 -1.24581 -1.06382 
71 0.654125 1.22741 1.34848 0.421633 0 0 0 -0.47271 -0.274727 -0.366908 
329 0.872549 1.19711 1.34631 0.376298 0 0 0 -0.663904 -0.284736 0.350654 
57 1.51229 0.644697 1.1874 0.412434 0 0 0 -0.122695 -3.05679 -1.62626 
122 1.21655 0.673185 1.2029 0.420717 0 0 0 -3.98078 -2.5849 -1.52519 
74 0.97479 0.845286 1.26176 0.411891 0 0 0 -4.06613 -1.59229 -1.05761 
228 1.19612 1.41564 1.46552 0.285847 0 0 0 3.66131 1.69431 2.54316 
198 0.988611 1.43717 1.45868 0.331363 0 0 0 2.87819 1.25693 0.754133 
165 1.32818 0.926624 1.25837 0.353442 0 0 0 -4.30462 -3.50942 0.956093 
101 1.00027 1.23476 1.37485 0.345702 0 0 0 -1.0078 0.364871 1.16493 
82 0.914204 0.731778 1.19891 0.446426 0 0 0 -3.04093 -1.67015 -1.19375 
229 1.43794 1.01782 1.32157 0.321267 0 0 0 -0.817669 -3.73971 1.25652 
66 0.0779116 -0.209394 2.31732 0.901789 0 0 0 -0.687949 -1.05208 0.580834 
67 0.896593 0.389783 1.9898 0.568994 0 0 0 0.535206 -0.0874545 0.63779 
68 1.03629 0.89787 1.78783 0.431438 0 0 0 0.892993 2.98624 -4.25796 
95 0.398484 -0.0109049 2.10984 0.741996 0 0 0 -0.249916 -0.999984 0.67993 
70 0.431862 1.36488 2.12842 0.534682 0 0 0 0.501901 -0.113951 0.726865 
88 0.0603598 0.335403 2.25425 0.754697 0 0 0 -0.785906 -0.437356 0.780297 
55 0.17915 0.110079 1.56622 0.715518 0 0 0 -0.99035 -1.03046 0.129752 
63 0.0686944 1.42392 1.57716 0.57445 0 0 0 -1.32738 0.122343 0.33356 
87 -0.124828 0.602196 1.97093 0.726217 0 0 0 -1.2334 -0.227797 0.586437 
75 0.134229 1.38274 2.08426 0.597904 0 0 0 -0.600629 -0.111103 0.927857 
86 1.52819 0.494283 1.73489 0.483927 0 0 0 0.0890041 0.6012 0.00415703 
90 0.7725 1.18916 2.00601 0.467508 0 0 0 2.16492 1.08649 -1.6935 
78 0.397216 -0.00263233 2.21456 0.755243 0 0 0 -0.21648 -0.931591 0.705693 
113 0.978012 1.36001 2.06097 0.439914 0 0 0 2.96975 2.54554 -6.73567 
93 0.811343 0.804864 2.02329 0.511044 0 0 0 1.24664 0.892039 -0.290702 
92 0.388018 0.389792 1.87057 0.619936 0 0 0 -0.311893 -0.63019 0.888696 
108 1.1812 0.815752 2.12936 0.500494 0 0 0 1.03683 2.73479 -3.26172 
83 0.717768 1.15514 1.91968 0.462904 0 0 0 1.76401 0.737052 -0.787014 
84 0.247412 0.062234 2.16075 0.758667 0 0 0 -0.490186 -0.857546 0.680799 
96 1.42755 0.839318 1.89147 0.437816 0 0 0 0.311136 5.24159 -7.87485 
127 1.45838 0.642891 2.04464 0.504503 0 0 0 0.179421 2.32782 -2.51038 
34 -0.00995381 0.530521 1.66397 0.680599 0 0 0 -1.2569 -0.446986 0.292419 
60 0.616723 0.958432 1.89369 0.49654 0 0 0 0.90602 0.186404 0.69472 
25 1.06931 0.282776 1.61881 0.537639 0 0 0 -0.332238 -0.974039 1.42411 
76 0.569499 0.905025 1.57236 0.476954 0 0 0 -0.410871 -0.726924 0.959389 
94 0.548013 0.812208 1.57409 0.494662 0 0 0 -0.474152 -0.799139 1.01572 
37 0.451645 1.06436 1.55401 0.483799 0 0 0 -0.715243 -0.372708 0.801519 
49 -0.225099 0.992379 1.53528 0.693614 0 0 0 -1.56997 0.072001 0.0721409 
125 1.09268 1.35857 2.31576 0.494743 0 0 0 1.87405 1.87935 -4.76229 
370 1.52837 0.876195 2.3462 0.535456 0 0 0 -0.113976 2.66188 -3.73628 
121 1.2299 0.0557164 2.56175 0.739898 0 0 0 0.420658 -0.463463 0.188907 
97 0.741257 0.963637 2.6719 0.641808 0 0 0 0.791108 0.769512 -0.0277288 
98 0.311901 1.033 2.82434 0.738885 0 0 0 -0.0618662 0.189115 0.942167 
99 0.716606 0.0242821 2.58279 0.779047 0 0 0 0.238165 -0.650598 0.651576 
100 0.647804 0.403616 2.84607 0.773453 0 0 0 0.218165 0.0515941 0.74852 
128 0.383364 1.44118 2.49724 0.615767 0 0 0 0.291495 -0.114641 0.746862 
131 0.549719 1.23793 2.93584 0.721724 0 0 0 0.375451 0.238874 0.767509 
103 1.03332 0.516068 2.74005 0.695683 0 0 0 0.557517 0.579612 -0.00877812 
130 1.37067 0.465212 2.56845 0.651141 0 0 0 0.363744 0.73649 -0.682369 
114 1.06694 0.880381 2.58086 0.60421 0 0 0 0.894416 1.47521 -1.26382 
129 0.508149 0.0503788 3.07878 0.93857 0 0 0 -0.0943757 -0.452579 0.926419 
116 -0.0918068 0.828692 2.48471 0.768909 0 0 0 -0.926307 -0.00655964 0.912664 
117 -0.112811 0.373905 2.52757 0.8492 0 0 0 -0.963989 -0.312892 0.858346 
109 0.427185 0.944434 3.03849 0.79387 0 0 0 0.0460076 0.256784 0.963208 
110 0.486302 -0.255059 2.78202 0.938174 0 0 0 -0.121531 -0.936651 0.764146 
123 1.28799 1.23657 2.37883 0.511351 0 0 0 0.834616 2.64157 -5.3266 
112 1.16532 0.424953 2.80165 0.724468 0 0 0 0.467873 0.431152 0.0412929 
162 0.457141 2.5951 0.566882 0.691738 0 0 0 -0.199002 0.795907 -0.433728 
132 0.662221 2.53027 0.21789 0.7328 0 0 0 0.175151 0.27197 -0.335471 
133 0.0922391 1.78605 0.558714 0.665838 0 0 0 -0.455943 0.139891 -0.504163 
134 0.162152 2.01557 0.242428 0.73626 0 0 0 -0.340453 0.197196 -0.589832 
135 1.32373 2.40948 0.446203 0.616065 0 0 0 0.357538 -1.41327 1.05045 
136 1.10481 2.57107 0.555835 0.622616 0 0 0 0.397422 -0.469639 0.464781 
137 0.0490344 2.5059 0.614625 0.758156 0 0 0 -0.88603 0.864032 -0.494804 
138 0.513596 2.21214 0.0647097 0.745662 0 0 0 0.264199 0.00930734 -0.511824 
139 0.291597 2.24805 0.292714 0.722673 0 0 0 -0.186706 0.334761 -0.526102 
140 0.883335 2.73443 0.162876 0.770977 0 0 0 0.129483 0.361234 -0.290015 
141 -0.0439179 2.3866 0.160639 0.863762 0 0 0 -0.835655 0.588527 -0.612657 
142 1.45321 2.54108 0.575781 0.605432 0 0 0 -0.0152851 -1.15817 0.848444 
143 1.27571 2.91643 0.597735 0.687649 0 0 0 -0.0928453 0.533077 -0.00200005 
160 0.794611 3.07602 0.428214 0.804014 0 0 0 -0.207704 1.16479 -0.290279 
145 0.495422 2.00223 0.0139381 0.740951 0 0 0 0.384883 -0.140956 -0.551336 
146 1.33715 2.00136 0.341057 0.60108 0 0 0 0.654423 -2.10927 2.10567 
147 0.7662 1.82077 0.226308 0.636296 0 0 0 1.19529 -0.67998 0.317653 
148 1.26681 3.02295 0.25203 0.799052 0 0 0 -0.0618263 0.640663 -0.233349 
156 0.0923338 1.95726 0.419735 0.705679 0 0 0 -0.503551 0.220024 -0.514316 
150 1.08321 1.84153 0.51402 0.549521 0 0 0 1.65377 -2.03895 2.64045 
155 0.802653 1.62672 0.139303 0.650625 0 0 0 1.20365 -0.523856 0.23218 
161 1.37471 2.00683 0.411136 0.582785 0 0 0 0.554469 -2.40394 2.53759 
159 0.039228 1.48545 -0.0352914 0.821638 0 0 0 -0.532891 -0.159697 -0.891064 
170 1.13968 2.09622 1.09397 0.440545 0 0 0 1.46595 -3.7787 4.57936 
163 0.512818 2.85755 0.715426 0.721365 0 0 0 -0.362572 1.26012 -0.43417 
202 0.614155 2.0095 1.00202 0.503112 0 0 0 1.09992 -0.139505 -1.05796 
167 0.86741 1.79173 1.05683 0.436399 0 0 0 2.56066 -1.8347 2.56819 
225 1.49735 1.51636 1.51443 0.217516 0 0 0 -0.855357 -0.814682 -0.888666 
169 0.925717 1.73867 1.43072 0.356732 0 0 0 1.84627 -1.94802 4.92863 
201 -0.0238997 2.74169 0.921926 0.787361 0 0 0 -1.10165 1.15806 -0.493675 
171 0.344797 1.88397 1.31499 0.510872 0 0 0 -0.752238 0.282532 -1.14351 
183 1.0557 1.45292 1.4625 0.315988 0 0 0 3.4174 1.60672 1.20776 
30 0.792091 1.64482 1.51741 0.376351 0 0 0 1.02597 0.081309 0.161892 
174 0.206879 1.77876 1.03603 0.567115 0 0 0 -0.476576 0.230792 -1.0229 
210 1.50148 1.47893 1.50125 0.217347 0 0 0 0.564617 0.988914 0.141441 
157 1.18864 2.27083 1.02742 0.478468 0 0 0 0.927564 -2.54604 1.97887 
152 1.07997 2.08941 0.71247 0.523342 0 0 0 1.53884 -2.43135 2.3761 
314 1.50113 1.48139 1.50212 0.217248 0 0 0 0.469835 0.865008 0.0375235 
197 0.0748395 2.23525 1.0802 0.643444 0 0 0 -1.00244 0.595576 -0.809928 
180 0.421872 2.02562 1.49853 0.493813 0 0 0 -1.13662 0.339446 -0.727805 
181 0.627685 2.08579 1.41776 0.456517 0 0 0 -0.466978 0.710824 -1.41789 
428 1.18669 2.56475 1.42783 0.483303 0 0 0 -0.598105 1.18336 -1.62202 
410 1.49911 1.48774 1.50438 0.217076 0 0 0 0.801814 0.612265 -0.0335667 
184 0.816888 2.82807 1.23688 0.603672 0 0 0 -0.22696 1.57113 -1.11912 
460 1.49413 1.50152 1.50836 0.217101 0 0 0 -0.273456 -0.0770611 -0.50873 
186 0.975643 2.81775 1.04021 0.606022 0 0 0 -0.023697 1.0024 -0.639752 
196 0.570964 1.70122 1.47318 0.432141 0 0 0 -0.553966 0.191637 -0.178963 
188 0.309623 2.5385 1.32084 0.61326 0 0 0 -0.88392 1.28407 -1.11735 
200 0.952342 2.70818 1.14964 0.565977 0 0 0 0.0652624 0.959682 -1.03813 
190 0.811572 1.85975 1.03819 0.453605 0 0 0 2.21264 -1.24138 0.979153 
166 0.578327 1.64115 0.820061 0.51415 0 0 0 1.37955 -0.126805 -0.491364 
192 0.613366 2.06273 1.28736 0.468808 0 0 0 0.152091 0.522714 -1.66713 
193 1.11512 2.50091 1.38662 0.476142 0 0 0 -0.418089 0.868736 -1.52481 
203 1.49708 1.53528 1.52114 0.2189 0 0 0 -1.53214 -1.18129 -1.05607 
208 1.50103 1.48233 1.50246 0.217215 0 0 0 0.443599 0.812821 0.00416911 
41 1.49969 1.49087 1.50544 0.217015 0 0 0 0.111032 0.319877 -0.335066 
342 1.4981 1.50466 1.51029 0.217085 0 0 0 -0.41316 -0.389834 -0.700263 
164 1.49914 1.49496 1.50687 0.216985 0 0 0 -0.0436562 0.0868618 -0.464956 
40 1.49907 1.4955 1.50706 0.216985 0 0 0 -0.0643739 0.0570093 -0.480729 
219 1.49839 1.50152 1.50918 0.217027 0 0 0 -0.293482 -0.248266 -0.63368 
73 1.49776 1.50902 1.51183 0.217207 0 0 0 -0.579127 -0.566964 -0.780484 
43 0.805606 1.44796 1.37081 0.376497 0 0 0 1.30534 -0.0248239 1.27885 
418 1.50719 1.47294 1.49917 0.21769 0 0 0 -0.37494 0.849358 0.0248326 
158 1.23226 1.80436 1.1132 0.38917 0 0 0 1.38667 -9.69123 21.2956 
394 1.50446 1.487 1.49865 0.217127 0 0 0 -0.307827 0.642249 -1.03516 
107 1.49844 1.45726 1.49538 0.218849 0 0 0 1.73309 1.2841 2.58169 
215 0.540868 2.16283 1.63004 0.479714 0 0 0 -1.42858 0.604053 -0.340529 
447 1.39749 2.80308 2.23839 0.567396 0 0 0 -0.109856 1.23067 1.24132 
205 0.0357071 1.958 2.06486 0.63064 0 0 0 -1.35407 -0.3855 0.701796 
206 1.02526 2.47209 2.29806 0.526082 0 0 0 -0.784488 0.075767 2.24089 
207 0.438844 2.84842 1.72195 0.648683 0 0 0 -0.970145 1.70351 -0.71932 
257 1.1462 1.73854 1.5693 0.308091 0 0 0 0.150371 1.36751 0.792533 
194 0.55539 1.94539 1.63956 0.452294 0 0 0 -1.32475 0.0738762 0.24888 
235 1.21548 2.18612 2.35238 0.493662 0 0 0 -0.515555 -1.03704 1.78968 
211 0.956348 2.92222 2.05614 0.605036 0 0 0 -0.719728 1.80986 0.0663058 
212 0.453128 2.60916 1.67387 0.582916 0 0 0 -1.1616 1.49547 -0.741583 
213 0.821558 1.77282 1.80143 0.397827 0 0 0 -0.215379 0.012379 -1.25225 
242 0.400458 2.35909 2.29194 0.5956 0 0 0 -1.03597 -0.27233 1.19627 
231 0.848339 2.32006 2.12816 0.491558 0 0 0 -1.46635 0.000741116 2.18589 
216 1.16683 2.9485 2.0896 0.59937 0 0 0 -0.547692 1.81478 0.245488 
217 0.3432 2.85139 1.83538 0.671173 0 0 0 -1.07812 1.48819 -0.52059 
218 0.18813 2.60236 1.94756 0.653438 0 0 0 -1.42616 0.765581 -0.0979182 
468 0.852815 2.30967 1.8553 0.453565 0 0 0 -2.19978 1.12493 0.887539 
204 0.982435 2.13675 1.79705 0.400181 0 0 0 -3.1137 1.07142 0.489684 
221 0.781359 2.16855 1.99554 0.461679 0 0 0 -1.81772 -0.142074 1.89152 
222 0.874642 2.13024 1.82115 0.418688 0 0 0 -2.52238 0.608239 0.876275 
223 0.64826 1.75377 1.73341 0.42543 0 0 0 -0.647512 -0.244246 0.582167 
246 1.14636 1.78049 1.58 0.313136 0 0 0 -0.965765 1.32029 0.385178 
104 0.23399 1.55828 2.31381 0.605702 0 0 0 -0.273996 -0.332358 0.943778 
226 1.33009 3.06355 2.06162 0.626231 0 0 0 -0.383192 1.88233 0.0383411 
227 0.1473 1.58649 2.08044 0.590158 0 0 0 -0.739053 -0.333819 0.957657 
234 1.08919 1.77503 1.65723 0.327874 0 0 0 -0.111424 5.13753 -13.7849 
238 1.01266 1.72345 1.58263 0.333678 0 0 0 1.2371 1.37751 -3.74556 
321 1.32125 2.33262 1.84132 0.409755 0 0 0 -2.19673 3.09489 1.05809 
475 0.85222 2.20785 1.83084 0.434529 0 0 0 -2.39323 0.831306 0.936004 
476 1.236 2.27058 2.30391 0.488505 0 0 0 -0.669884 -0.591826 2.29718 
189 0.782453 2.23929 1.56136 0.444169 0 0 0 -1.22527 1.24347 -1.12486 
239 1.34949 1.89792 1.62617 0.304189 0 0 0 -5.24315 3.48696 3.25261 
328 1.239 2.61189 1.80516 0.480291 0 0 0 -1.13647 2.55659 -0.289787 
185 0.0296348 2.45809 1.54538 0.667554 0 0 0 -1.48901 0.759414 -0.529505 
337 1.08116 2.12647 1.79494 0.38486 0 0 0 -3.71906 1.54303 0.134432 
462 1.494 3.28882 1.96818 0.696857 0 0 0 -0.327484 1.96138 -0.252662 
168 1.33185 1.85862 1.63156 0.298787 0 0 0 -4.91638 3.88222 2.86608 
247 1.21226 2.26017 1.82707 0.399115 0 0 0 -3.19365 2.60105 0.841782 
177 1.34231 2.09074 1.75652 0.350183 0 0 0 -4.10377 3.77398 -1.22926 
485 1.5067 2.80876 2.33205 0.583722 0 0 0 0.0957948 0.928984 1.38006 
264 1.3721 2.24531 1.82701 0.387491 0 0 0 -2.45581 3.42766 0.951485 
69 1.40449 2.22362 1.82304 0.381682 0 0 0 -2.28831 3.58827 0.832294 
483 1.42127 2.31225 1.83497 0.402124 0 0 0 -1.57709 3.46074 1.1941 
350 1.43899 2.292 1.83175 0.397132 0 0 0 -1.51851 3.54178 1.19882 
249 0.810745 1.71806 2.34598 0.511764 0 0 0 1.12861 -0.642057 -0.19582 
420 1.11135 1.94426 1.68018 0.344427 0 0 0 -3.58128 1.60324 -2.54893 
240 1.42889 1.99383 1.67738 0.32076 0 0 0 -4.04924 3.95805 0.324627 
300 1.51916 1.67208 1.57346 0.24525 0 0 0 -3.20852 2.24419 -0.656368 
398 1.51863 1.67007 1.57263 0.244756 0 0 0 -3.21692 2.19363 -0.698323 
29 0.0998231 1.58839 1.57877 0.564953 0 0 0 -1.34138 0.0104204 0.251664 
224 1.1137 1.66991 1.54005 0.307836 0 0 0 2.25607 1.3594 0.49082 
111 0.951816 1.52524 1.75497 0.365724 0 0 0 2.94881 3.99174 -11.4192 
105 1.42237 1.74491 1.56874 0.264089 0 0 0 -3.21468 2.29598 8.89833 
172 1.02342 1.85688 1.56823 0.344255 0 0 0 -0.615206 -1.55289 3.58357 
153 1.36635 1.72339 1.67659 0.280173 0 0 0 -1.66347 12.4798 -21.806 
341 1.49772 1.55245 1.52725 0.220823 0 0 0 -2.07018 -1.20642 -1.11791 
144 1.49737 1.55543 1.52765 0.221188 0 0 0 -2.02561 -1.23434 -0.918627 
332 1.49424 1.56547 1.53147 0.222686 0 0 0 -0.54175 -0.875612 -0.944016 
486 1.5315 1.94567 2.15279 0.420408 0 0 0 -0.552316 0.806927 -5.18678 
336 1.53233 1.71297 1.59081 0.255617 0 0 0 -2.86358 3.07049 0.0535006 
80 1.49759 1.55013 1.52642 0.22053 0 0 0 -2.0029 -1.21838 -1.11301 
232 0.49216 2.02195 2.69549 0.642612 0 0 0 -0.0745415 -0.804792 1.41703 
233 0.819154 1.89517 2.82464 0.638637 0 0 0 0.440525 -0.774778 1.02622 
255 -0.0545597 2.84034 2.49112 0.830807 0 0 0 -1.33128 0.662502 0.395581 
266 0.366653 1.98499 2.58794 0.636923 0 0 0 -0.320957 -0.749399 1.30892 
236 1.10598 2.61864 2.76414 0.65124 0 0 0 -0.0562748 -0.16782 1.86492 
237 0.373428 2.44496 2.4469 0.637518 0 0 0 -0.879448 -0.195091 1.142 
262 0.719181 1.67966 2.53177 0.568063 0 0 0 0.926275 -0.484207 0.339091 
254 0.214174 2.73861 3.11697 0.891497 0 0 0 -0.712468 0.273401 1.45048 
118 0.028392 1.48111 2.6882 0.743109 0 0 0 -0.653604 -0.166583 1.01431 
241 0.939424 2.12978 3.11426 0.728299 0 0 0 0.137885 -0.661519 1.54256 
265 0.0329536 3.01139 2.61218 0.868523 0 0 0 -1.12544 0.909768 0.525464 
243 0.559648 3.01398 2.64267 0.760244 0 0 0 -0.508825 1.0028 0.858354 
244 -0.0538475 3.17009 2.96979 1.01469 0 0 0 -0.989221 0.906808 0.853299 
245 1.25688 2.18075 2.86043 0.631954 0 0 0 -0.0453427 -0.976656 1.37662 
256 0.0639203 2.93296 2.98772 0.928312 0 0 0 -0.938692 0.617749 1.10109 
260 -0.068464 2.86215 2.72929 0.884981 0 0 0 -1.22646 0.592827 0.736859 
248 0.535507 2.66342 2.98132 0.7745 0 0 0 -0.342569 0.0705771 1.64871 
507 1.514 2.78544 2.91087 0.717643 0 0 0 0.00164032 0.241186 1.77995 
258 0.563515 2.96535 3.08818 0.865753 0 0 0 -0.344511 0.623051 1.4781 
251 0.511303 2.47669 2.63315 0.654784 0 0 0 -0.499772 -0.285972 1.47387 
252 -0.111926 2.39186 2.39214 0.756582 0 0 0 -1.48804 -0.0397588 0.500048 
253 1.04036 3.18639 2.78129 0.794806 0 0 0 -0.146922 1.14523 1.12594 
267 1.82892 0.385598 0.477774 0.596854 0 0 0 -0.154273 -0.0364351 -2.084 
268 2.77884 0.405525 0.28606 0.786133 0 0 0 1.25567 -0.459844 -1.24518 
269 2.2067 0.0402849 -0.170101 0.890933 0 0 0 0.374258 -0.769626 -1.6399 
270 2.56706 0.0594566 -0.0701761 0.911772 0 0 0 0.827069 -0.801607 -1.41334 
291 2.17938 0.517071 -0.0151512 0.745448 0 0 0 0.10453 -0.0265222 -1.80512 
272 2.8825 0.826455 0.434373 0.720701 0 0 0 1.24074 0.0309462 -1.12001 
273 1.72709 1.05679 0.271324 0.594023 0 0 0 -0.639141 0.752361 0.272481 
295 2.1713 1.36023 0.380863 0.583848 0 0 0 -1.32075 0.225649 0.267991 
275 2.66358 -0.0269347 -0.00182057 0.933269 0 0 0 0.952079 -0.903066 -1.25183 
276 1.80978 0.0752466 0.0483153 0.77895 0 0 0 -0.0838287 -0.687914 -1.77594 
294 1.7398 1.32132 0.468061 0.539314 0 0 0 -1.13506 0.048703 2.88249 
278 1.84913 0.118937 -0.0193165 0.79201 0 0 0 -0.0537317 -0.613862 -1.79867 
279 2.175 0.767305 0.422029 0.586649 0 0 0 -0.127612 0.711303 -1.57241 
290 2.36631 1.24236 0.156958 0.668462 0 0 0 -0.466684 0.30726 -0.928677 
281 2.44926 1.10437 0.372454 0.618623 0 0 0 -0.226732 0.581788 -1.09596 
289 2.44024 0.744302 0.539645 0.597764 0 0 0 0.576921 0.387504 -1.48428 
292 2.33956 0.902125 0.628312 0.547957 0 0 0 0.151902 0.786995 -1.36189 
284 1.63517 0.788284 0.385009 0.570141 0 0 0 -0.509441 0.940167 -0.962169 
285 2.84964 1.17716 0.0625894 0.79131 0 0 0 0.715093 0.0555147 -1.2482 
286 1.78723 0.485721 0.444935 0.587351 0 0 0 -0.294113 0.282607 -2.06144 
287 2.57698 1.17322 0.482561 0.61156 0 0 0 0.0428281 0.539618 -1.03001 
288 2.12027 0.470308 0.103726 0.706468 0 0 0 0.0548005 -0.00961535 -1.83865 
283 2.43674 -0.0381407 0.797332 0.720711 0 0 0 1.11702 -1.28523 -0.558128 
297 2.10953 0.40404 1.31448 0.507881 0 0 0 1.90406 -1.28976 1.10999 
298 2.93001 0.378399 1.22614 0.699642 0 0 0 1.80707 -0.768768 0.103681 
299 2.17785 0.794496 1.15772 0.446812 0 0 0 3.04141 -0.0324521 -0.486669 
326 2.16132 0.241578 1.27565 0.557615 0 0 0 1.36193 -1.47824 0.897742 
421 1.83954 1.44084 1.50274 0.295543 0 0 0 -2.29045 -3.41419 -0.0486295 
302 2.2023 0.171767 1.03879 0.5931 0 0 0 1.23407 -1.3283 -0.190312 
409 1.68112 1.13811 1.38277 0.302341 0 0 0 7.62375 -3.476 0.200276 
304 2.56842 0.907699 0.967202 0.532659 0 0 0 1.36622 0.342759 -0.843784 
327 2.48296 0.0221877 1.06097 0.686 0 0 0 1.27706 -1.34484 -0.00758858 
271 2.03991 0.860397 1.25086 0.407328 0 0 0 4.83287 -0.126772 -0.068527 
325 1.98594 0.355551 1.00004 0.521514 0 0 0 1.37372 -1.1555 -1.0399 
308 1.84277 0.353843 1.39549 0.497794 0 0 0 1.14367 -1.67547 1.551 
309 2.88629 1.00557 1.17505 0.594011 0 0 0 1.7459 0.14269 -0.102392 
352 2.85341 1.20475 1.47988 0.560578 0 0 0 1.76125 0.0542227 0.517018 
311 2.00274 0.716305 0.965145 0.458609 0 0 0 2.4258 -0.00772807 -1.77908 
312 2.53391 1.33844 0.846884 0.525579 0 0 0 -0.117201 0.548493 -0.597154 
293 2.42309 1.11164 0.861815 0.504926 0 0 0 0.210316 0.81095 -0.879214 
324 1.62813 -0.0597995 0.885015 0.633874 0 0 0 -0.114649 -1.61405 -0.685091 
315 2.60039 1.07859 1.23024 0.500886 0 0 0 1.63816 0.261086 -0.084599 
316 2.72628 0.872234 1.06806 0.566482 0 0 0 1.68897 0.0839832 -0.390934 
317 2.17448 0.00895349 1.26039 0.630986 0 0 0 0.833476 -1.67312 0.738107 
345 2.10888 1.08501 1.35917 0.384712 0 0 0 3.15612 0.530498 0.357441 
323 2.38134 0.331225 1.4536 0.569986 0 0 0 1.39881 -1.12559 1.28542 
455 2.55583 1.28173 1.36755 0.472766 0 0 0 1.51371 0.132498 0.181904 
435 2.27639 1.22552 1.31462 0.41136 0 0 0 0.998796 0.0651897 0.56555 
448 2.20141 1.19778 1.32869 0.395786 0 0 0 1.29434 0.0626642 0.913653 
330 2.12819 0.968261 1.33153 0.403423 0 0 0 3.69307 0.316923 0.284988 
333 2.02459 1.08667 1.30523 0.371338 0 0 0 4.55159 0.0167 1.82265 
320 2.05153 1.24466 1.39439 0.356995 0 0 0 1.45114 -0.218731 1.67626 
85 1.93767 0.688028 1.22732 0.424794 0 0 0 4.19025 -1.03511 -0.384169 
72 1.85279 0.835644 1.34412 0.381423 0 0 0 5.98985 -0.140024 -1.5844 
280 1.92793 1.15719 0.954523 0.418535 0 0 0 0.281943 -0.516128 5.51813 
282 1.82599 1.09003 1.37787 0.331796 0 0 0 7.68097 0.0345457 -2.08861 
58 1.53876 0.410761 0.79483 0.520966 0 0 0 -0.628898 -0.813591 -2.48364 
7 1.78037 0.749628 1.18987 0.399088 0 0 0 4.57896 -1.93038 -1.07274 
175 1.6862 0.702467 1.18442 0.402969 0 0 0 3.05511 -2.5326 -1.39653 
151 1.67338 0.694858 1.1842 0.404026 0 0 0 2.80347 -2.59532 -1.42869 
102 1.68173 0.685794 1.18738 0.406095 0 0 0 2.83208 -2.53418 -1.39622 
401 1.68764 1.21329 1.38465 0.29046 0 0 0 6.15763 -7.40057 9.30952 
431 1.82255 1.38592 1.47813 0.29416 0 0 0 -1.17571 -3.9019 1.50216 
230 1.56873 0.813988 1.19065 0.375191 0 0 0 1.90246 -3.51173 -0.549777 
402 1.95157 1.39054 1.18278 0.36515 0 0 0 -1.92863 -6.34912 17.6092 
61 2.0614 1.43224 1.48036 0.347739 0 0 0 -1.14264 -1.58266 0.681611 
305 2.1485 1.42894 1.51639 0.368182 0 0 0 -0.45198 -0.690373 -0.938206 
89 2.192 1.4391 1.48267 0.378189 0 0 0 -0.208446 -1.02954 0.257932 
363 1.70564 1.42069 1.51241 0.263046 0 0 0 1.53638 23.0352 -69.033 
500 2.10569 1.32175 1.8839 0.412443 0 0 0 -1.3391 1.8086 -6.18426 
355 2.35839 0.184451 1.86313 0.63447 0 0 0 0.366745 -1.07708 1.0597 
381 3.11613 1.01979 2.35073 0.739097 0 0 0 1.30343 -0.262239 0.688434 
331 2.87924 0.0788049 2.06589 0.792854 0 0 0 1.08633 -1.15049 0.611486 
364 1.76962 0.735993 2.16028 0.517307 0 0 0 -0.565241 2.08264 -2.77004 
456 2.33967 1.28734 1.85278 0.452109 0 0 0 -0.0216063 -0.018777 -0.567849 
334 2.84871 0.650637 1.56623 0.619735 0 0 0 1.61396 -0.526271 0.796518 
379 2.85971 0.751267 2.16119 0.66274 0 0 0 0.957006 -0.296457 0.716385 
357 2.79171 1.1106 1.69075 0.555739 0 0 0 1.47438 -0.156979 0.974962 
349 2.50806 1.06994 1.68913 0.485856 0 0 0 1.04815 -0.243001 1.07417 
338 2.91329 1.04907 1.57017 0.592008 0 0 0 1.69172 -0.0901915 0.716327 
339 2.60637 0.208204 1.7826 0.663659 0 0 0 0.880255 -1.09948 0.930377 
340 2.03196 0.91908 1.73824 0.427767 0 0 0 0.61019 2.04105 -2.76126 
380 2.25571 1.36196 2.17206 0.492286 0 0 0 -0.92214 0.226999 -1.48842 
356 2.53184 0.904635 2.0194 0.548951 0 0 0 0.229724 -0.0733909 0.595553 
359 2.00327 -0.0960533 2.15982 0.722348 0 0 0 0.00875848 -1.20854 0.52405 
344 2.80142 -0.0437817 2.11853 0.816015 0 0 0 0.909479 -1.29329 0.606371 
348 3.04077 1.33757 1.60003 0.619056 0 0 0 1.74345 -0.105231 0.43588 
346 1.58774 0.374973 1.94495 0.544623 0 0 0 0.074084 0.36091 0.0551265 
354 2.04636 0.843233 1.58868 0.422711 0 0 0 2.33702 1.06355 -0.593098 
368 2.37677 0.682569 2.36623 0.614732 0 0 0 -0.272363 0.0966826 0.0449892 
366 1.71031 1.38232 2.04875 0.405692 0 0 0 -1.48418 7.06595 -20.3651 
371 2.18583 0.971476 2.33557 0.55166 0 0 0 -0.951521 0.813055 -1.29552 
377 1.74601 1.18746 1.97095 0.407207 0 0 0 -1.22627 7.54586 -18.0447 
360 1.90747 0.404478 2.3254 0.616733 0 0 0 -0.290892 0.209297 -0.467812 
361 2.15681 1.26107 2.27566 0.509604 0 0 0 -1.32492 0.772321 -2.22144 
335 2.54276 0.223578 1.52697 0.631494 0 0 0 1.20219 -1.16848 0.995539 
384 1.99729 -0.0776382 2.77943 0.849448 0 0 0 0.0754927 -0.817709 0.466738 
376 2.66835 0.594172 2.77917 0.779063 0 0 0 0.370214 -0.26769 0.787335 
375 2.39585 0.989107 2.70504 0.665024 0 0 0 -0.364311 0.253852 0.190219 
362 2.50173 1.42621 2.86667 0.696431 0 0 0 -0.126931 -0.207834 0.712542 
126 1.54709 0.230959 2.44275 0.669909 0 0 0 0.190663 -0.0431927 -0.289625 
383 3.11738 1.16306 2.83543 0.835525 0 0 0 1.03595 -0.275989 0.893846 
365 2.96941 -0.0926783 2.52754 0.942727 0 0 0 0.964702 -1.11942 0.625901 
374 2.49303 0.362286 2.5845 0.739406 0 0 0 0.163773 -0.519011 0.603594 
367 2.83512 -0.0952193 2.44692 0.894595 0 0 0 0.828603 -1.20579 0.63184 
382 2.46012 0.611973 2.90139 0.779648 0 0 0 0.0028172 -0.0960631 0.703921 
369 2.63778 0.580109 2.64824 0.739167 0 0 0 0.331749 -0.276051 0.688862 
373 2.14105 0.726534 2.45077 0.603869 0 0 0 -0.651261 0.59427 -0.680568 
406 2.09112 2.16896 0.430839 0.611265 0 0 0 -1.06555 -1.43411 0.481133 
386 2.0284 2.99123 0.371048 0.772706 0 0 0 -0.203153 0.499839 -0.469316 
387 2.72329 1.69898 0.609379 0.620611 0 0 0 0.125401 -0.139193 -0.670063 
408 1.85313 2.49566 0.31794 0.670082 0 0 0 -0.440782 -0.943462 0.185441 
389 2.18616 3.05826 0.428307 0.790717 0 0 0 -0.0941002 0.695845 -0.557207 
390 2.98318 1.77901 0.535154 0.707932 0 0 0 0.84995 -0.129224 -0.779558 
391 2.11534 1.83161 0.648486 0.532526 0 0 0 -2.13324 -1.78881 1.75427 
403 2.5459 2.18678 0.119715 0.75135 0 0 0 -0.075442 -0.411422 -0.815057 
393 2.66093 2.28842 0.183064 0.764203 0 0 0 0.173621 -0.246701 -0.873323 
405 2.78811 3.02173 -0.121112 1.01931 0 0 0 0.448673 0.483338 -0.802735 
395 1.81381 2.31842 0.625911 0.567286 0 0 0 -0.975046 -2.06637 1.31385 
396 2.10804 2.72738 0.663081 0.647389 0 0 0 -0.447572 -0.0233161 -0.398817 
397 2.16783 2.01055 -0.0025083 0.730132 0 0 0 -0.5518 -0.8089 -0.32689 
407 3.03609 2.65996 0.066136 0.941522 0 0 0 0.752093 0.242132 -0.877927 
399 2.55634 2.07553 0.33948 0.678297 0 0 0 -0.217672 -0.510609 -0.662316 
400 3.03867 3.09633 0.0948048 1.03122 0 0 0 0.703318 0.615654 -0.726256 
404 2.54911 1.82912 0.135099 0.717735 0 0 0 -0.227233 -0.383299 -0.795834 
392 1.64897 1.70188 1.30241 0.313616 0 0 0 -4.39686 -24.5771 61.8054 
347 1.74968 2.58561 1.44171 0.482408 0 0 0 -0.442412 0.909019 -1.16963 
470 3.18034 2.73685 1.51285 0.777334 0 0 0 1.36502 0.545255 -0.283499 
412 2.83896 2.70487 0.904629 0.719797 0 0 0 0.791074 0.476973 -0.695048 
413 2.99687 2.31763 1.18363 0.663646 0 0 0 1.32585 -0.0830434 -0.625426 
414 2.35624 1.78558 1.13988 0.461763 0 0 0 -0.742066 -1.47668 0.0408776 
415 2.18729 1.9517 0.959639 0.482594 0 0 0 -2.14021 -2.22287 1.05747 
416 1.76813 2.56765 1.21183 0.503755 0 0 0 -0.95997 -0.469339 -0.755513 
454 1.96176 3.07035 1.40585 0.634755 0 0 0 -0.187824 1.4875 -0.880992 
427 1.90156 2.97812 1.41373 0.600581 0 0 0 -0.275433 1.39298 -1.01349 
419 3.09087 2.31628 1.28366 0.68543 0 0 0 1.47359 -0.0907387 -0.502464 
457 2.18048 2.18526 1.39274 0.445663 0 0 0 0.664206 -0.848439 -0.80439 
411 1.77753 1.49709 1.51758 0.279055 0 0 0 -3.50354 -3.86794 0.14665 
422 2.52327 1.82722 0.892714 0.534171 0 0 0 -0.488506 -0.711528 -0.44559 
423 2.22281 3.17064 1.41836 0.692849 0 0 0 0.211827 1.49871 -0.625279 
424 1.98908 2.69972 0.785544 0.609123 0 0 0 -0.644648 -0.213526 -0.311733 
425 2.52502 2.65947 0.978214 0.634304 0 0 0 0.284945 0.379836 -0.819763 
426 2.16555 2.22826 1.02762 0.500696 0 0 0 -1.39641 -1.51874 -0.245567 
446 2.15404 1.47216 1.43062 0.370643 0 0 0 -0.757714 -2.07796 2.30982 
441 3.15009 2.03261 1.39372 0.670919 0 0 0 1.68536 -0.393122 -0.321689 
429 2.28301 3.01719 0.830938 0.710771 0 0 0 -0.0175303 0.880807 -0.645504 
430 3.24666 2.98695 1.29672 0.866169 0 0 0 1.22318 0.801669 -0.32843 
449 2.29125 2.24049 1.41348 0.472488 0 0 0 0.979698 -0.23806 -1.01196 
388 1.59812 2.19683 1.01817 0.463183 0 0 0 -1.12529 -4.52492 4.55158 
433 2.03727 1.738 1.21707 0.390793 0 0 0 -3.06218 -5.9946 9.07552 
434 1.60082 2.73668 1.06615 0.558629 0 0 0 -0.64676 -0.104379 -0.507386 
432 2.37388 1.88404 1.34991 0.447539 0 0 0 0.877513 -1.55936 -0.547196 
436 3.01036 2.09203 0.843108 0.681815 0 0 0 1.07795 -0.223349 -0.688429 
437 2.8462 1.57157 0.966138 0.587293 0 0 0 0.941093 0.0776001 -0.585535 
438 2.8555 2.16438 1.42914 0.589202 0 0 0 1.62876 -0.368305 -0.503913 
439 3.06985 3.26361 1.23339 0.897858 0 0 0 0.949547 1.11243 -0.325506 
440 2.10108 2.01538 0.939853 0.483858 0 0 0 -2.34471 -2.61684 1.56032 
458 2.14521 2.40779 1.42054 0.480223 0 0 0 0.451893 0.375989 -1.0474 
464 2.20089 2.07552 1.39204 0.431482 0 0 0 0.776119 -1.57478 -0.489468 
443 2.58771 1.94946 2.09056 0.535522 0 0 0 1.22741 -0.883189 1.06629 
444 2.8486 1.46504 1.86655 0.570207 0 0 0 1.47564 -0.495901 0.741163 
445 2.81527 2.21551 2.1293 0.614388 0 0 0 1.21889 -0.376515 0.618645 
310 1.78294 2.08929 1.76574 0.364648 0 0 0 2.92943 1.76751 -0.104242 
372 1.61022 2.19644 1.81033 0.37771 0 0 0 0.390892 3.52847 0.842694 
296 2.37677 1.99587 1.7502 0.454791 0 0 0 2.73137 -0.912681 0.691474 
471 1.98875 1.90613 1.68087 0.358625 0 0 0 3.68231 -2.27032 -0.855678 
450 2.68 1.85887 1.96779 0.537546 0 0 0 1.57157 -0.979819 0.850405 
182 1.64286 1.8895 1.64868 0.302928 0 0 0 0.631328 1.1405 2.03361 
452 2.11881 2.90998 1.68517 0.592223 0 0 0 0.466494 1.44554 -0.398907 
453 1.56028 2.45095 2.19982 0.487036 0 0 0 0.354157 0.82736 2.32793 
469 2.08406 1.70842 2.05619 0.431064 0 0 0 0.026075 -0.355153 -3.0891 
343 2.09718 1.70346 1.57754 0.360073 0 0 0 0.92167 -3.60565 0.04943 
481 2.16303 2.25178 1.79844 0.451739 0 0 0 2.75675 0.771914 1.1111 
467 1.86345 2.64931 1.66668 0.495963 0 0 0 0.528468 1.84497 -0.479505 
378 1.78868 2.33535 1.81545 0.420988 0 0 0 1.835 2.73097 1.3787 
459 3.15663 2.7618 2.17728 0.803691 0 0 0 1.33109 0.599019 0.259747 
277 1.76729 1.99982 1.70693 0.340651 0 0 0 3.00478 0.914743 -1.08459 
461 1.65114 2.97999 1.7122 0.580969 0 0 0 -0.214493 1.91983 -0.769178 
263 1.87895 1.99472 1.72044 0.355846 0 0 0 3.87562 -0.294753 -0.86995 
261 1.68405 1.99279 1.69119 0.329303 0 0 0 1.71174 1.80468 -0.603309 
176 1.90638 1.54434 1.53657 0.311138 0 0 0 -2.19402 -3.76069 0.587918 
465 1.96043 2.96194 1.89533 0.597783 0 0 0 0.441381 1.55927 0.0161978 
466 2.24247 3.27131 1.79524 0.726836 0 0 0 0.419261 1.62689 -0.194187 
319 2.24975 1.91453 1.63878 0.411732 0 0 0 2.91655 -1.83092 0.106752 
478 2.18734 3.04936 2.25827 0.683238 0 0 0 0.539357 1.21411 0.572458 
484 1.90492 2.64752 2.31714 0.562313 0 0 0 0.647536 0.489737 1.45388 
187 2.13032 2.09995 1.70539 0.413711 0 0 0 3.45066 -0.361677 0.63077 
509 3.29297 2.84291 2.26144 0.875197 0 0 0 1.37373 0.653921 0.329604 
488 2.31767 1.87767 1.72535 0.429172 0 0 0 2.78249 -1.52813 0.406155 
492 2.70859 2.30871 2.28735 0.620863 0 0 0 0.893937 -0.213772 0.823967 
494 2.94687 2.34984 2.28063 0.684461 0 0 0 1.18416 -0.127223 0.575924 
504 2.87672 1.9456 2.27657 0.631953 0 0 0 1.10363 -0.739884 0.75657 
199 1.89316 1.96045 1.70228 0.351188 0 0 0 3.89483 -0.92679 -1.12807 
120 1.67259 1.9638 1.67438 0.321489 0 0 0 1.45876 1.53486 -0.00681979 
442 2.28184 1.67739 1.7112 0.410209 0 0 0 1.68422 -1.59483 -0.504935 
498 2.04613 1.55965 1.97777 0.409436 0 0 0 -0.910494 1.08523 -7.14762 
487 1.91916 2.03369 2.33112 0.488957 0 0 0 0.0326008 -0.698192 0.224791 
209 2.03145 1.70589 1.5911 0.345965 0 0 0 0.86591 -3.84845 -0.484376 
36 2.10179 2.14084 1.72251 0.416346 0 0 0 3.4062 0.097341 0.774152 
191 1.67811 1.96819 1.67706 0.323026 0 0 0 1.57619 1.5217 -0.148941 
417 2.33714 2.53508 1.7657 0.533535 0 0 0 1.30001 0.973418 0.259022 
451 2.99114 2.22371 1.53029 0.633452 0 0 0 1.65108 -0.275874 -0.312246 
259 1.58512 1.88708 1.64909 0.297931 0 0 0 -0.811295 2.34958 2.43786 
463 1.58447 1.95969 1.66739 0.313836 0 0 0 -0.644625 2.58974 1.31902 
307 1.54445 1.74376 1.60346 0.263563 0 0 0 -2.47145 3.24365 0.803922 
220 1.54372 1.74205 1.60278 0.263123 0 0 0 -2.49582 3.24382 0.760385 
496 2.03147 2.50601 2.78625 0.657586 0 0 0 0.0310592 -0.181225 1.52986 
472 2.0747 1.79642 2.63684 0.574766 0 0 0 -0.779185 -0.595606 -0.0764261 
473 1.75625 1.5959 2.58876 0.549214 0 0 0 -1.17762 0.121222 -2.34802 
474 2.95854 3.17647 2.68346 0.934255 0 0 0 0.90126 1.04183 0.755748 
497 1.61663 1.94127 2.57965 0.539008 0 0 0 -0.635498 -1.02514 -0.520773 
502 2.22662 2.57159 2.71503 0.667086 0 0 0 0.220394 0.0468137 1.38662 
477 3.17713 2.0138 2.59479 0.781979 0 0 0 1.29714 -0.453759 0.857157 
513 2.63016 3.0298 3.05945 0.919998 0 0 0 0.557671 0.805122 1.27698 
479 1.80985 1.75127 2.41699 0.498559 0 0 0 -1.15676 -0.356555 -2.63243 
501 1.6536 2.4538 3.00118 0.698251 0 0 0 -0.144811 -0.376352 1.73333 
503 2.03372 3.15351 2.47845 0.734326 0 0 0 0.328423 1.26101 0.849367 
482 1.57532 3.16058 3.12965 0.875849 0 0 0 0.0454564 0.862642 1.49565 
511 3.00814 2.13234 2.41307 0.702012 0 0 0 1.18575 -0.463508 0.754364 
510 2.10249 2.54653 2.61072 0.623522 0 0 0 0.225984 -0.046297 1.3835 
508 2.62305 1.96044 3.05692 0.772122 0 0 0 0.282796 -0.409116 1.38038 
505 3.15568 2.91939 3.22206 1.06052 0 0 0 0.88715 0.587055 1.13086 
499 1.80691 1.78436 2.91322 0.645106 0 0 0 -0.705463 -0.51556 0.13672 
495 2.94831 1.72933 2.7966 0.758142 0 0 0 0.827153 -0.50685 1.07252 
489 3.12957 1.50361 3.00018 0.86801 0 0 0 0.9593 -0.334818 1.0465 
490 2.37284 2.40854 2.58346 0.629827 0 0 0 0.304724 -0.18117 1.22528 
491 2.27434 1.49882 2.74564 0.629951 0 0 0 -0.61816 -0.160381 0.104052 
506 1.97648 2.06882 3.04671 0.70028 0 0 0 -0.385104 -0.559233 1.21406 
493 3.07267 3.01075 2.79147 0.943095 0 0 0 1.00008 0.81725 0.88601 
480 2.35966 2.25058 2.39424 0.56922 0 0 0 0.40682 -0.38711 1.22444 
ITEM: TIMESTEP
800997
ITEM: NUMBER OF ATOMS
512
ITEM: BOX BOUNDS ss ss ss
-2.2775349561678951e-01 3.2932607586404616e+00
-4.0122540508749138e-01 3.2891132425832117e+00
-1.7039273299291779e-01 3.2223573019164853e+00
ITEM: ATOMS id x y z width_SPH x_COM y_COM z_COM vx vy vz 
23 0.539289 1.16104 0.37278 0.613016 0 0 0 0.633794 -0.0976235 -0.569955 
3 -0.140332 -0.124436 0.0939717 1.0357 0 0 0 -1.01064 -0.934115 -0.881331 
4 1.1215 0.710241 0.265507 0.622554 0 0 0 0.00938242 0.209795 -1.02931 
5 0.225458 1.27088 -0.0394038 0.782511 0 0 0 -0.197429 -0.301948 -0.96648 
6 0.0115245 1.14394 0.376957 0.727353 0 0 0 -0.762233 -0.268 -0.705373 
22 0.12862 1.05029 0.0595976 0.785118 0 0 0 -0.507384 -0.424289 -0.970644 
8 0.686461 0.733453 -0.0391989 0.747514 0 0 0 0.0953408 -0.433127 -1.18301 
9 1.3567 -0.241857 0.263488 0.804207 0 0 0 -0.298876 -1.1864 -1.40893 
10 -0.0863183 -0.263408 0.0260426 1.07371 0 0 0 -0.931959 -0.985717 -0.901892 
11 0.920707 1.15036 -0.0285265 0.696437 0 0 0 0.752231 -0.165322 -0.43506 
12 0.461887 1.343 0.164182 0.674424 0 0 0 0.502725 -0.204146 -0.606921 
13 0.278626 -0.299312 0.20045 0.957907 0 0 0 -0.806284 -1.14361 -1.0185 
14 0.972042 1.22081 0.390072 0.568523 0 0 0 1.27039 0.142512 0.812813 
15 1.08249 0.669971 0.304805 0.617965 0 0 0 -0.0678764 0.142905 -1.16068 
16 0.612755 -0.23583 0.244737 0.869626 0 0 0 -0.630636 -1.16657 -1.20387 
17 0.878269 0.253886 0.00522519 0.783182 0 0 0 -0.298592 -0.660943 -1.49781 
18 0.56219 0.565602 0.35609 0.673122 0 0 0 -0.327137 -0.544875 -1.23562 
274 1.4895 1.31441 0.5681 0.508705 0 0 0 -0.206648 -0.281907 4.84938 
20 0.679391 0.940679 0.297779 0.628464 0 0 0 0.463999 -0.1436 -0.766428 
62 1.19143 1.02676 0.635989 0.499497 0 0 0 0.00576533 0.577759 1.37864 
50 0.549985 -0.381034 0.627221 0.850634 0 0 0 -0.738629 -1.36613 -0.856466 
31 -0.0667008 1.19079 0.657984 0.694832 0 0 0 -0.999921 -0.0999339 -0.584629 
44 0.384566 0.857336 0.611342 0.611981 0 0 0 -0.317965 -0.37372 -1.12024 
24 1.01877 -0.213789 1.39568 0.679356 0 0 0 -0.123935 -1.69286 0.603298 
353 1.43469 1.07794 1.35086 0.306621 0 0 0 -0.478014 -3.5694 0.634767 
26 -0.135941 1.02548 1.49494 0.658915 0 0 0 -1.52796 0.0880394 0.0612276 
27 0.398738 1.14913 0.832387 0.546232 0 0 0 -0.0929947 0.0262149 -1.24831 
28 0.947153 0.224995 1.38726 0.550775 0 0 0 -0.881407 -1.47365 0.742587 
91 0.80064 1.12867 1.21354 0.410234 0 0 0 -0.998605 -0.848742 -0.34147 
303 1.47401 1.06096 1.34497 0.308982 0 0 0 0.971364 -3.79534 0.769697 
65 0.669831 0.471779 1.33838 0.530131 0 0 0 -1.15555 -1.29712 0.0919924 
32 0.390324 -0.347402 1.28432 0.809111 0 0 0 -0.778069 -1.47593 -0.132786 
33 0.74758 -0.211903 1.15272 0.709655 0 0 0 -0.599442 -1.55105 -0.195131 
173 0.936209 0.960752 1.29479 0.396886 0 0 0 -3.46678 -1.14499 -0.810906 
35 1.49751 0.0185808 0.818709 0.616277 0 0 0 -0.421786 -1.41791 -1.15813 
21 1.50709 1.44185 1.49138 0.220513 0 0 0 0.245466 1.59541 0.614658 
154 1.32469 1.31546 1.43482 0.26889 0 0 0 1.65057 2.35615 -4.96079 
38 0.21985 1.02869 0.800808 0.601116 0 0 0 -0.6401 -0.169638 -1.01703 
39 -0.227462 0.894409 1.43968 0.703335 0 0 0 -1.58739 -0.029691 -0.084905 
2 1.14966 0.675235 1.21353 0.42603 0 0 0 -4.14259 -2.31398 -1.38022 
351 0.859144 1.19145 1.32514 0.381098 0 0 0 -0.72789 -0.464452 0.443658 
42 0.799971 1.37177 1.32996 0.382826 0 0 0 0.81882 -0.146585 1.05487 
195 1.40657 0.799861 1.18838 0.381453 0 0 0 -2.14179 -3.62156 -0.893243 
318 1.49221 1.06869 1.34922 0.306652 0 0 0 1.80142 -3.8454 0.631755 
45 0.998551 0.224025 1.32982 0.545674 0 0 0 -1.0416 -1.56828 0.537168 
46 0.610444 0.267934 0.79068 0.635118 0 0 0 -0.974909 -0.894069 -1.36005 
47 1.21211 0.915314 0.835751 0.454217 0 0 0 -1.73096 -0.4851 0.988028 
48 0.526617 0.788818 1.37475 0.498784 0 0 0 -1.05289 -1.06534 0.0363474 
250 1.49187 1.08592 1.35641 0.302459 0 0 0 1.96552 -3.83565 0.344109 
79 1.49624 1.36941 1.46082 0.233517 0 0 0 3.64314 0.757288 0.549581 
51 0.476675 1.30496 0.949269 0.506039 0 0 0 0.169077 0.221634 -1.33573 
52 1.29203 0.226349 1.31754 0.525365 0 0 0 -0.907344 -1.91142 0.784942 
53 -0.0398883 0.626631 1.25892 0.678805 0 0 0 -1.45045 -0.441266 -0.414623 
54 1.02301 -0.400935 1.42877 0.747462 0 0 0 0.00509269 -1.7438 0.513774 
385 1.48526 1.28966 1.43147 0.252414 0 0 0 3.42507 -2.10766 0.489621 
56 1.27651 0.103588 1.02253 0.574016 0 0 0 -0.869622 -1.66904 -0.734807 
178 0.995034 1.43603 1.45857 0.329982 0 0 0 2.91013 1.35568 0.624031 
115 1.50527 1.1504 1.3764 0.287021 0 0 0 3.09639 -4.38567 0.777491 
59 0.618214 0.602599 1.24066 0.517392 0 0 0 -1.31675 -1.26831 -0.596027 
124 1.46275 1.03845 1.33351 0.314954 0 0 0 0.307876 -3.79392 1.08011 
306 1.50773 -0.285868 0.765564 0.723847 0 0 0 -0.127703 -1.60431 -0.682413 
64 0.863755 -0.339059 1.3046 0.73647 0 0 0 -0.275627 -1.69422 0.221045 
119 1.46936 1.29803 1.43365 0.251085 0 0 0 3.24276 -1.67093 0.899239 
313 1.06027 1.33634 1.41902 0.322542 0 0 0 1.09867 0.946771 2.21116 
149 1.36225 1.21564 1.35163 0.287131 0 0 0 -1.32988 -1.56174 -0.790891 
179 1.27091 0.655438 1.19793 0.420363 0 0 0 -3.4965 -2.7572 -1.57701 
106 1.48399 1.28128 1.42805 0.254532 0 0 0 3.33337 -2.41842 0.652184 
322 1.48977 1.08075 1.35422 0.303753 0 0 0 1.82448 -3.82997 0.431778 
19 1.48533 0.423843 1.00493 0.484896 0 0 0 -0.85285 -1.86254 -1.91695 
512 1.4942 1.3562 1.4562 0.23644 0 0 0 3.67225 0.311244 0.466406 
301 0.930613 1.30713 1.40803 0.352102 0 0 0 0.844428 0.695536 0.473184 
214 1.3994 0.983946 1.30053 0.332297 0 0 0 -2.34889 -3.66498 1.32647 
77 0.453286 1.43621 1.29507 0.467505 0 0 0 -0.730039 0.322682 -0.756595 
358 0.80263 1.13455 1.1541 0.418096 0 0 0 -0.811515 -0.815829 -0.341099 
81 0.658629 0.594054 1.15419 0.517897 0 0 0 -1.43267 -1.2458 -1.06382 
71 0.654124 1.22741 1.34848 0.421633 0 0 0 -0.472714 -0.274737 -0.366912 
329 0.872549 1.19711 1.34631 0.376298 0 0 0 -0.663892 -0.284754 0.350648 
57 1.51229 0.644696 1.1874 0.412434 0 0 0 -0.122708 -3.0568 -1.62625 
122 1.21655 0.673184 1.2029 0.420717 0 0 0 -3.98077 -2.5849 -1.52517 
74 0.974789 0.845286 1.26175 0.411891 0 0 0 -4.06609 -1.59229 -1.0576 
228 1.19612 1.41564 1.46552 0.285846 0 0 0 3.6613 1.69439 2.54303 
198 0.988612 1.43717 1.45868 0.331363 0 0 0 2.87818 1.25692 0.754124 
165 1.32818 0.926623 1.25837 0.353442 0 0 0 -4.30463 -3.50941 0.95608 
101 1.00027 1.23476 1.37485 0.345702 0 0 0 -1.00777 0.364845 1.16494 
82 0.914204 0.731777 1.19891 0.446426 0 0 0 -3.0409 -1.67015 -1.19375 
229 1.43794 1.01782 1.32157 0.321267 0 0 0 -0.817683 -3.73972 1.25646 
66 0.0779114 -0.209395 2.31732 0.901789 0 0 0 -0.687948 -1.05208 0.580834 
67 0.896593 0.389783 1.9898 0.568994 0 0 0 0.535208 -0.0874569 0.637788 
68 1.03629 0.897871 1.78783 0.431438 0 0 0 0.892992 2.98624 -4.258 
95 0.398484 -0.0109051 2.10984 0.741996 0 0 0 -0.249914 -0.999984 0.679931 
70 0.431862 1.36488 2.12842 0.534682 0 0 0 0.501899 -0.11395 0.72686 
88 0.0603596 0.335403 2.25425 0.754697 0 0 0 -0.785905 -0.437355 0.780297 
55 0.17915 0.110079 1.56622 0.715518 0 0 0 -0.990348 -1.03046 0.129754 
63 0.0686941 1.42392 1.57716 0.574451 0 0 0 -1.32739 0.122342 0.333558 
87 -0.124829 0.602196 1.97093 0.726217 0 0 0 -1.2334 -0.227797 0.586437 
75 0.134229 1.38274 2.08426 0.597904 0 0 0 -0.600632 -0.111104 0.927854 
86 1.52819 0.494283 1.73489 0.483927 0 0 0 0.0890079 0.601188 0.00414534 
90 0.772501 1.18916 2.00601 0.467508 0 0 0 2.16492 1.0865 -1.69352 
78 0.397216 -0.00263256 2.21456 0.755243 0 0 0 -0.216479 -0.931592 0.705693 
113 0.978012 1.36001 2.06097 0.439913 0 0 0 2.96976 2.54557 -6.73575 
93 0.811343 0.804864 2.02329 0.511044 0 0 0 1.24664 0.892039 -0.29071 
92 0.388018 0.389792 1.87057 0.619936 0 0 0 -0.311893 -0.630189 0.888697 
108 1.1812 0.815752 2.12936 0.500494 0 0 0 1.03683 2.73479 -3.26174 
83 0.717768 1.15515 1.91968 0.462904 0 0 0 1.764 0.737054 -0.787033 
84 0.247412 0.0622338 2.16075 0.758667 0 0 0 -0.490185 -0.857545 0.680799 
96 1.42755 0.83932 1.89147 0.437815 0 0 0 0.311146 5.24162 -7.87496 
127 1.45838 0.642892 2.04464 0.504503 0 0 0 0.179427 2.32782 -2.51039 
34 -0.00995412 0.53052 1.66397 0.680599 0 0 0 -1.2569 -0.446985 0.292419 
60 0.616723 0.958432 1.89369 0.49654 0 0 0 0.906018 0.186404 0.694713 
25 1.06931 0.282776 1.61881 0.537639 0 0 0 -0.33223 -0.974042 1.42411 
76 0.569499 0.905024 1.57236 0.476954 0 0 0 -0.410871 -0.726924 0.959387 
94 0.548013 0.812208 1.57409 0.494662 0 0 0 -0.474151 -0.799138 1.01572 
37 0.451645 1.06436 1.55401 0.483799 0 0 0 -0.715245 -0.372709 0.801516 
49 -0.225099 0.992379 1.53528 0.693615 0 0 0 -1.56998 0.0720017 0.0721407 
125 1.09268 1.35857 2.31575 0.494743 0 0 0 1.87406 1.87936 -4.76233 
370 1.52837 0.876196 2.3462 0.535456 0 0 0 -0.113968 2.66188 -3.73629 
121 1.2299 0.0557163 2.56175 0.739898 0 0 0 0.420661 -0.463465 0.188907 
97 0.741257 0.963637 2.6719 0.641808 0 0 0 0.791109 0.769512 -0.0277341 
98 0.311901 1.03301 2.82434 0.738885 0 0 0 -0.061866 0.189115 0.942164 
99 0.716606 0.0242819 2.58279 0.779048 0 0 0 0.238167 -0.650599 0.651575 
100 0.647804 0.403616 2.84607 0.773453 0 0 0 0.218167 0.0515936 0.748518 
128 0.383364 1.44118 2.49724 0.615767 0 0 0 0.291494 -0.114641 0.746857 
131 0.549719 1.23793 2.93584 0.721724 0 0 0 0.375452 0.238874 0.767505 
103 1.03332 0.516068 2.74005 0.695683 0 0 0 0.55752 0.579611 -0.00878088 
130 1.37067 0.465212 2.56845 0.651141 0 0 0 0.363748 0.736489 -0.682372 
114 1.06694 0.880381 2.58086 0.60421 0 0 0 0.89442 1.47521 -1.26383 
129 0.508149 0.0503787 3.07878 0.93857 0 0 0 -0.0943744 -0.452579 0.926418 
116 -0.091807 0.828692 2.48471 0.768909 0 0 0 -0.926308 -0.00655952 0.912662 
117 -0.112811 0.373905 2.52757 0.8492 0 0 0 -0.963989 -0.312892 0.858345 
109 0.427185 0.944434 3.03849 0.79387 0 0 0 0.0460086 0.256783 0.963205 
110 0.486302 -0.25506 2.78202 0.938174 0 0 0 -0.12153 -0.936651 0.764146 
123 1.28799 1.23657 2.37883 0.51135 0 0 0 0.834625 2.64158 -5.32663 
112 1.16532 0.424953 2.80165 0.724468 0 0 0 0.467876 0.43115 0.0412908 
162 0.457141 2.5951 0.566882 0.691738 0 0 0 -0.199003 0.795909 -0.433731 
132 0.662221 2.53027 0.21789 0.7328 0 0 0 0.17515 0.271972 -0.335472 
133 0.092239 1.78605 0.558713 0.665838 0 0 0 -0.455945 0.139893 -0.504164 
134 0.162151 2.01557 0.242428 0.73626 0 0 0 -0.340455 0.197198 -0.589832 
135 1.32373 2.40948 0.446203 0.616065 0 0 0 0.357537 -1.41327 1.05045 
136 1.10481 2.57107 0.555835 0.622616 0 0 0 0.397421 -0.469638 0.46478 
137 0.0490342 2.5059 0.614625 0.758156 0 0 0 -0.886032 0.864033 -0.494806 
138 0.513596 2.21214 0.0647096 0.745662 0 0 0 0.264198 0.0093095 -0.511824 
139 0.291597 2.24805 0.292714 0.722673 0 0 0 -0.186707 0.334763 -0.526103 
140 0.883335 2.73443 0.162876 0.770977 0 0 0 0.129482 0.361236 -0.290015 
141 -0.0439181 2.3866 0.160639 0.863762 0 0 0 -0.835657 0.588528 -0.612658 
142 1.45321 2.54108 0.575781 0.605432 0 0 0 -0.0152858 -1.15817 0.848444 
143 1.27571 2.91643 0.597735 0.687649 0 0 0 -0.0928459 0.533079 -0.00200199 
160 0.794611 3.07602 0.428214 0.804015 0 0 0 -0.207705 1.1648 -0.29028 
145 0.495422 2.00223 0.013938 0.740952 0 0 0 0.384882 -0.140954 -0.551335 
146 1.33715 2.00136 0.341058 0.60108 0 0 0 0.654422 -2.10927 2.10567 
147 0.7662 1.82077 0.226308 0.636296 0 0 0 1.19529 -0.679978 0.317656 
148 1.26681 3.02295 0.25203 0.799052 0 0 0 -0.061827 0.640664 -0.23335 
156 0.0923337 1.95726 0.419735 0.70568 0 0 0 -0.503553 0.220025 -0.514317 
150 1.08321 1.84153 0.51402 0.54952 0 0 0 1.65377 -2.03895 2.64046 
155 0.802653 1.62672 0.139303 0.650625 0 0 0 1.20365 -0.523854 0.232184 
161 1.37471 2.00683 0.411137 0.582785 0 0 0 0.554469 -2.40394 2.5376 
159 0.0392279 1.48545 -0.0352916 0.821638 0 0 0 -0.532891 -0.159695 -0.891063 
170 1.13968 2.09622 1.09397 0.440544 0 0 0 1.46595 -3.77871 4.57941 
163 0.512818 2.85755 0.715426 0.721365 0 0 0 -0.362573 1.26012 -0.434173 
202 0.614155 2.0095 1.00202 0.503112 0 0 0 1.09991 -0.139504 -1.05796 
167 0.86741 1.79173 1.05683 0.436399 0 0 0 2.56064 -1.83471 2.56822 
225 1.49735 1.51636 1.51443 0.217516 0 0 0 -0.855379 -0.814507 -0.888853 
169 0.925718 1.73867 1.43072 0.356731 0 0 0 1.84623 -1.94801 4.92864 
201 -0.0238999 2.74169 0.921926 0.787361 0 0 0 -1.10165 1.15806 -0.493677 
171 0.344797 1.88397 1.31499 0.510872 0 0 0 -0.752249 0.282531 -1.14351 
183 1.0557 1.45292 1.4625 0.315988 0 0 0 3.41738 1.60671 1.20779 
30 0.792092 1.64482 1.51741 0.376351 0 0 0 1.02594 0.0813044 0.161879 
174 0.206879 1.77876 1.03603 0.567115 0 0 0 -0.476582 0.230792 -1.0229 
210 1.50148 1.47893 1.50125 0.217346 0 0 0 0.564592 0.989029 0.141199 
157 1.18864 2.27083 1.02742 0.478468 0 0 0 0.927562 -2.54604 1.97889 
152 1.07997 2.08941 0.71247 0.523342 0 0 0 1.53884 -2.43135 2.37611 
314 1.50113 1.48139 1.50212 0.217248 0 0 0 0.469811 0.865129 0.0372851 
197 0.0748392 2.23525 1.0802 0.643444 0 0 0 -1.00244 0.595576 -0.80993 
180 0.421872 2.02562 1.49853 0.493813 0 0 0 -1.13663 0.339448 -0.72781 
181 0.627685 2.08579 1.41776 0.456517 0 0 0 -0.466993 0.710832 -1.41789 
428 1.18669 2.56475 1.42783 0.483303 0 0 0 -0.598099 1.18337 -1.62202 
410 1.49911 1.48774 1.50438 0.217076 0 0 0 0.801776 0.6124 -0.0338074 
184 0.816888 2.82807 1.23688 0.603672 0 0 0 -0.22696 1.57113 -1.11912 
460 1.49413 1.50152 1.50836 0.217101 0 0 0 -0.273447 -0.0769217 -0.508867 
186 0.975643 2.81775 1.04021 0.606022 0 0 0 -0.0236974 1.00241 -0.639755 
196 0.570964 1.70122 1.47318 0.432141 0 0 0 -0.553989 0.191634 -0.17897 
188 0.309623 2.5385 1.32084 0.61326 0 0 0 -0.883924 1.28407 -1.11735 
200 0.952342 2.70818 1.14964 0.565977 0 0 0 0.065262 0.959685 -1.03814 
190 0.811573 1.85975 1.03819 0.453605 0 0 0 2.21263 -1.24139 0.979169 
166 0.578327 1.64115 0.820061 0.51415 0 0 0 1.37955 -0.126806 -0.49136 
192 0.613366 2.06273 1.28736 0.468808 0 0 0 0.152077 0.52272 -1.66714 
193 1.11512 2.50091 1.38662 0.476142 0 0 0 -0.418084 0.868743 -1.52481 
203 1.49708 1.53528 1.52114 0.2189 0 0 0 -1.53217 -1.18111 -1.05624 
208 1.50103 1.48233 1.50246 0.217214 0 0 0 0.443574 0.812944 0.00393165 
41 1.49969 1.49087 1.50544 0.217015 0 0 0 0.111012 0.320018 -0.335287 
342 1.4981 1.50466 1.51029 0.217085 0 0 0 -0.413178 -0.38967 -0.700463 
164 1.49914 1.49496 1.50687 0.216985 0 0 0 -0.0436755 0.0870112 -0.46517 
40 1.49907 1.4955 1.50706 0.216984 0 0 0 -0.0643931 0.0571597 -0.480941 
219 1.49839 1.50152 1.50918 0.217027 0 0 0 -0.2935 -0.248106 -0.633885 
73 1.49776 1.50902 1.51183 0.217207 0 0 0 -0.579146 -0.566795 -0.780679 
43 0.805606 1.44796 1.37081 0.376497 0 0 0 1.30532 -0.0248451 1.27884 
418 1.50719 1.47294 1.49917 0.217689 0 0 0 -0.37495 0.84946 0.0246079 
158 1.23226 1.80436 1.11321 0.389169 0 0 0 1.38663 -9.6914 21.2962 
394 1.50446 1.487 1.49865 0.217127 0 0 0 -0.307876 0.642158 -1.03477 
107 1.49844 1.45726 1.49538 0.218848 0 0 0 1.73309 1.28428 2.58115 
215 0.540868 2.16283 1.63004 0.479714 0 0 0 -1.42859 0.604058 -0.340534 
447 1.39749 2.80308 2.23839 0.567396 0 0 0 -0.109849 1.23067 1.24132 
205 0.0357067 1.958 2.06486 0.63064 0 0 0 -1.35407 -0.385501 0.701794 
206 1.02526 2.47209 2.29806 0.526082 0 0 0 -0.784479 0.0757656 2.24089 
207 0.438844 2.84842 1.72195 0.648683 0 0 0 -0.970145 1.70351 -0.719322 
257 1.1462 1.73854 1.5693 0.308091 0 0 0 0.15031 1.36757 0.792599 
194 0.55539 1.94539 1.63957 0.452294 0 0 0 -1.32477 0.0738805 0.248875 
235 1.21548 2.18612 2.35238 0.493662 0 0 0 -0.515541 -1.03704 1.78967 
211 0.956348 2.92222 2.05614 0.605036 0 0 0 -0.719724 1.80986 0.0663043 
212 0.453128 2.60916 1.67387 0.582916 0 0 0 -1.1616 1.49548 -0.741586 
213 0.821558 1.77282 1.80142 0.397827 0 0 0 -0.215391 0.0123944 -1.25227 
242 0.400458 2.35909 2.29194 0.5956 0 0 0 -1.03597 -0.27233 1.19627 
231 0.848339 2.32006 2.12816 0.491558 0 0 0 -1.46634 0.000741138 2.18588 
216 1.16683 2.9485 2.0896 0.59937 0 0 0 -0.547686 1.81478 0.245486 
217 0.3432 2.85139 1.83538 0.671174 0 0 0 -1.07812 1.48819 -0.520592 
218 0.18813 2.60236 1.94756 0.653439 0 0 0 -1.42616 0.765582 -0.0979198 
468 0.852814 2.30967 1.8553 0.453565 0 0 0 -2.19977 1.12493 0.887536 
204 0.982434 2.13675 1.79705 0.400181 0 0 0 -3.11368 1.07144 0.48968 
221 0.781359 2.16855 1.99554 0.461679 0 0 0 -1.81771 -0.142071 1.89151 
222 0.874641 2.13024 1.82115 0.418688 0 0 0 -2.52238 0.608255 0.876272 
223 0.64826 1.75377 1.73341 0.42543 0 0 0 -0.64753 -0.244242 0.582156 
246 1.14636 1.7805 1.58 0.313136 0 0 0 -0.965811 1.32033 0.38528 
104 0.23399 1.55828 2.31382 0.605702 0 0 0 -0.273999 -0.332358 0.943774 
226 1.33009 3.06355 2.06162 0.626232 0 0 0 -0.383187 1.88233 0.0383397 
227 0.1473 1.58649 2.08044 0.590158 0 0 0 -0.739057 -0.33382 0.957654 
234 1.08919 1.77503 1.65722 0.327874 0 0 0 -0.111463 5.1375 -13.7847 
238 1.01266 1.72345 1.58263 0.333678 0 0 0 1.23707 1.37752 -3.74548 
321 1.32125 2.33262 1.84132 0.409756 0 0 0 -2.1967 3.09489 1.05808 
475 0.85222 2.20785 1.83084 0.43453 0 0 0 -2.39322 0.831318 0.936001 
476 1.236 2.27058 2.30392 0.488505 0 0 0 -0.669868 -0.59183 2.29717 
189 0.782453 2.23929 1.56136 0.444169 0 0 0 -1.22528 1.24349 -1.12487 
239 1.34949 1.89792 1.62617 0.304189 0 0 0 -5.2432 3.48697 3.25272 
328 1.239 2.6119 1.80516 0.480291 0 0 0 -1.13646 2.55659 -0.289792 
185 0.0296344 2.45809 1.54538 0.667554 0 0 0 -1.48901 0.759415 -0.529507 
337 1.08116 2.12647 1.79494 0.38486 0 0 0 -3.71903 1.54305 0.134427 
462 1.494 3.28882 1.96818 0.696857 0 0 0 -0.327481 1.96138 -0.252663 
168 1.33185 1.85862 1.63156 0.298787 0 0 0 -4.91643 3.88231 2.86599 
247 1.21226 2.26017 1.82707 0.399116 0 0 0 -3.19362 2.60106 0.841773 
177 1.34231 2.09074 1.75652 0.350183 0 0 0 -4.10375 3.77398 -1.22924 
485 1.5067 2.80876 2.33205 0.583722 0 0 0 0.0957997 0.928983 1.38005 
264 1.3721 2.24532 1.82701 0.387491 0 0 0 -2.45579 3.42767 0.951474 
69 1.40449 2.22363 1.82304 0.381683 0 0 0 -2.28829 3.58827 0.832282 
483 1.42127 2.31225 1.83497 0.402125 0 0 0 -1.57707 3.46074 1.19409 
350 1.43899 2.292 1.83175 0.397132 0 0 0 -1.51849 3.54178 1.19881 
249 0.810745 1.71806 2.34598 0.511764 0 0 0 1.12862 -0.642054 -0.195832 
420 1.11135 1.94426 1.68018 0.344427 0 0 0 -3.58126 1.60326 -2.54889 
240 1.42888 1.99383 1.67738 0.32076 0 0 0 -4.04926 3.95805 0.324689 
300 1.51916 1.67208 1.57346 0.24525 0 0 0 -3.20863 2.2444 -0.656476 
398 1.51863 1.67007 1.57263 0.244756 0 0 0 -3.21704 2.19384 -0.698428 
29 0.0998228 1.58839 1.57877 0.564954 0 0 0 -1.34139 0.0104188 0.251662 
224 1.1137 1.66991 1.54005 0.307836 0 0 0 2.25601 1.35944 0.490931 
111 0.951817 1.52524 1.75497 0.365723 0 0 0 2.9488 3.99178 -11.4193 
105 1.42237 1.74491 1.56874 0.264089 0 0 0 -3.21485 2.29597 8.89886 
172 1.02342 1.85687 1.56823 0.344255 0 0 0 -0.615233 -1.55283 3.58351 
153 1.36635 1.7234 1.67658 0.280172 0 0 0 -1.66353 12.4805 -21.8073 
341 1.49772 1.55244 1.52725 0.220823 0 0 0 -2.07023 -1.20625 -1.11805 
144 1.49737 1.55543 1.52765 0.221188 0 0 0 -2.02567 -1.23418 -0.918709 
332 1.49424 1.56547 1.53147 0.222686 0 0 0 -0.541872 -0.875446 -0.944115 
486 1.5315 1.94567 2.15278 0.420407 0 0 0 -0.552302 0.806948 -5.18683 
336 1.53233 1.71297 1.59081 0.255617 0 0 0 -2.86369 3.07071 0.0533431 
80 1.49759 1.55013 1.52642 0.220529 0 0 0 -2.00294 -1.2182 -1.11315 
232 0.49216 2.02195 2.69549 0.642612 0 0 0 -0.0745407 -0.804792 1.41703 
233 0.819154 1.89517 2.82464 0.638637 0 0 0 0.440527 -0.774777 1.02621 
255 -0.0545601 2.84034 2.49112 0.830807 0 0 0 -1.33128 0.662502 0.395579 
266 0.366653 1.98499 2.58794 0.636923 0 0 0 -0.320957 -0.749399 1.30892 
236 1.10598 2.61864 2.76414 0.651241 0 0 0 -0.056271 -0.16782 1.86492 
237 0.373428 2.44496 2.44691 0.637518 0 0 0 -0.879447 -0.19509 1.142 
262 0.719181 1.67966 2.53177 0.568063 0 0 0 0.926277 -0.484206 0.339084 
254 0.214174 2.73861 3.11697 0.891497 0 0 0 -0.712467 0.273402 1.45048 
118 0.0283918 1.48111 2.6882 0.743109 0 0 0 -0.653605 -0.166583 1.01431 
241 0.939424 2.12978 3.11427 0.728299 0 0 0 0.137887 -0.661519 1.54255 
265 0.0329533 3.01139 2.61218 0.868524 0 0 0 -1.12544 0.909768 0.525463 
243 0.559648 3.01398 2.64267 0.760244 0 0 0 -0.508823 1.0028 0.858353 
244 -0.0538478 3.17009 2.96979 1.01469 0 0 0 -0.98922 0.906808 0.853297 
245 1.25688 2.18075 2.86043 0.631954 0 0 0 -0.0453382 -0.976655 1.37661 
256 0.0639201 2.93296 2.98772 0.928312 0 0 0 -0.938691 0.617749 1.10108 
260 -0.0684643 2.86215 2.72929 0.884981 0 0 0 -1.22646 0.592827 0.736857 
248 0.535507 2.66342 2.98132 0.7745 0 0 0 -0.342567 0.0705773 1.64871 
507 1.514 2.78544 2.91087 0.717643 0 0 0 0.00164292 0.241186 1.77995 
258 0.563515 2.96535 3.08818 0.865753 0 0 0 -0.344509 0.623051 1.4781 
251 0.511303 2.47669 2.63315 0.654785 0 0 0 -0.499771 -0.285972 1.47386 
252 -0.111927 2.39186 2.39214 0.756582 0 0 0 -1.48804 -0.0397586 0.500047 
253 1.04036 3.18639 2.78129 0.794806 0 0 0 -0.14692 1.14523 1.12594 
267 1.82892 0.385598 0.477773 0.596854 0 0 0 -0.154276 -0.0364363 -2.084 
268 2.77884 0.405525 0.28606 0.786133 0 0 0 1.25567 -0.459847 -1.24518 
269 2.2067 0.0402847 -0.170102 0.890933 0 0 0 0.374258 -0.769627 -1.6399 
270 2.56706 0.0594564 -0.0701765 0.911772 0 0 0 0.827069 -0.801609 -1.41334 
291 2.17938 0.517071 -0.0151516 0.745448 0 0 0 0.104529 -0.026523 -1.80512 
272 2.8825 0.826455 0.434373 0.720701 0 0 0 1.24074 0.0309446 -1.12001 
273 1.72709 1.05679 0.271324 0.594023 0 0 0 -0.639143 0.752362 0.272486 
295 2.1713 1.36023 0.380863 0.583848 0 0 0 -1.32076 0.225652 0.267995 
275 2.66358 -0.0269349 -0.00182088 0.933269 0 0 0 0.952079 -0.903067 -1.25183 
276 1.80978 0.0752464 0.0483148 0.77895 0 0 0 -0.0838287 -0.687914 -1.77594 
294 1.7398 1.32132 0.468061 0.539314 0 0 0 -1.13506 0.0487066 2.88251 
278 1.84913 0.118937 -0.0193169 0.79201 0 0 0 -0.0537318 -0.613862 -1.79866 
279 2.175 0.767305 0.422029 0.586649 0 0 0 -0.127616 0.711301 -1.57241 
290 2.36631 1.24236 0.156958 0.668462 0 0 0 -0.466685 0.307261 -0.928676 
281 2.44926 1.10437 0.372454 0.618623 0 0 0 -0.226733 0.581789 -1.09596 
289 2.44024 0.744302 0.539644 0.597764 0 0 0 0.576919 0.387501 -1.48428 
292 2.33956 0.902125 0.628312 0.547957 0 0 0 0.151899 0.786993 -1.36189 
284 1.63517 0.788284 0.385009 0.570141 0 0 0 -0.509444 0.940168 -0.962164 
285 2.84964 1.17716 0.0625891 0.79131 0 0 0 0.715094 0.0555148 -1.2482 
286 1.78723 0.485721 0.444934 0.587351 0 0 0 -0.294116 0.282606 -2.06144 
287 2.57698 1.17322 0.48256 0.611561 0 0 0 0.0428281 0.539619 -1.03001 
288 2.12027 0.470308 0.103726 0.706468 0 0 0 0.0547992 -0.00961635 -1.83865 
283 2.43674 -0.038141 0.797332 0.720711 0 0 0 1.11702 -1.28524 -0.558128 
297 2.10953 0.40404 1.31448 0.507881 0 0 0 1.90405 -1.28977 1.11 
298 2.93001 0.378399 1.22614 0.699642 0 0 0 1.80708 -0.768773 0.103682 
299 2.17786 0.794496 1.15772 0.446812 0 0 0 3.0414 -0.0324769 -0.486674 
326 2.16132 0.241578 1.27565 0.557616 0 0 0 1.36193 -1.47825 0.897744 
421 1.83954 1.44084 1.50274 0.295543 0 0 0 -2.29036 -3.41421 -0.0487604 
302 2.2023 0.171767 1.03879 0.5931 0 0 0 1.23407 -1.32831 -0.190312 
409 1.68112 1.13811 1.38277 0.302341 0 0 0 7.62378 -3.47608 0.200188 
304 2.56842 0.907699 0.967202 0.532659 0 0 0 1.36623 0.342753 -0.843789 
327 2.48296 0.0221874 1.06097 0.686 0 0 0 1.27706 -1.34485 -0.00758847 
271 2.03991 0.860397 1.25086 0.407328 0 0 0 4.83284 -0.12681 -0.0685274 
325 1.98594 0.35555 1.00004 0.521514 0 0 0 1.37371 -1.15551 -1.0399 
308 1.84277 0.353843 1.39549 0.497795 0 0 0 1.14366 -1.67548 1.551 
309 2.88629 1.00557 1.17505 0.594011 0 0 0 1.74591 0.142687 -0.102393 
352 2.85341 1.20475 1.47988 0.560578 0 0 0 1.76126 0.0542215 0.517022 
311 2.00274 0.716305 0.965145 0.458609 0 0 0 2.42577 -0.00774068 -1.77908 
312 2.53391 1.33844 0.846884 0.525579 0 0 0 -0.117197 0.548497 -0.597158 
293 2.4231 1.11164 0.861814 0.504926 0 0 0 0.210318 0.810948 -0.879219 
324 1.62813 -0.0597999 0.885015 0.633874 0 0 0 -0.114649 -1.61406 -0.68509 
315 2.60039 1.07859 1.23024 0.500886 0 0 0 1.63818 0.261081 -0.0846009 
316 2.72628 0.872234 1.06806 0.566482 0 0 0 1.68898 0.0839782 -0.390936 
317 2.17448 0.00895307 1.26039 0.630986 0 0 0 0.833473 -1.67312 0.738109 
345 2.10888 1.08501 1.35917 0.384712 0 0 0 3.15612 0.530448 0.357444 
323 2.38134 0.331224 1.4536 0.569986 0 0 0 1.39881 -1.1256 1.28543 
455 2.55583 1.28173 1.36755 0.472766 0 0 0 1.51373 0.132498 0.181906 
435 2.27639 1.22552 1.31463 0.41136 0 0 0 0.998823 0.0651757 0.565551 
448 2.20141 1.19778 1.32869 0.395786 0 0 0 1.29437 0.0626397 0.913655 
330 2.12819 0.968261 1.33153 0.403423 0 0 0 3.69306 0.316879 0.284987 
333 2.02459 1.08667 1.30523 0.371338 0 0 0 4.55156 0.0166483 1.82264 
320 2.05153 1.24466 1.39439 0.356995 0 0 0 1.45116 -0.218782 1.67627 
85 1.93767 0.688028 1.22732 0.424794 0 0 0 4.19022 -1.03514 -0.384167 
72 1.85279 0.835644 1.34411 0.381423 0 0 0 5.98982 -0.140079 -1.58438 
280 1.92793 1.15719 0.954524 0.418535 0 0 0 0.281932 -0.516154 5.51815 
282 1.82599 1.09003 1.37787 0.331796 0 0 0 7.68093 0.0344596 -2.08858 
58 1.53876 0.410761 0.794829 0.520966 0 0 0 -0.628901 -0.813589 -2.48363 
7 1.78038 0.749627 1.18987 0.399088 0 0 0 4.57892 -1.9304 -1.07273 
175 1.6862 0.702467 1.18442 0.402969 0 0 0 3.05509 -2.53261 -1.39652 
151 1.67338 0.694857 1.1842 0.404026 0 0 0 2.80345 -2.59533 -1.42868 
102 1.68173 0.685793 1.18738 0.406095 0 0 0 2.83205 -2.5342 -1.39621 
401 1.68764 1.21329 1.38465 0.29046 0 0 0 6.15769 -7.40072 9.30949 
431 1.82255 1.38592 1.47813 0.294159 0 0 0 -1.1756 -3.90196 1.50203 
230 1.56873 0.813988 1.19065 0.375192 0 0 0 1.90244 -3.51174 -0.549767 
402 1.95157 1.39053 1.18279 0.365149 0 0 0 -1.92859 -6.34923 17.6095 
61 2.0614 1.43224 1.48036 0.347739 0 0 0 -1.14259 -1.58268 0.681645 
305 2.1485 1.42894 1.51639 0.368182 0 0 0 -0.451936 -0.690373 -0.938183 
89 2.192 1.4391 1.48267 0.378189 0 0 0 -0.208406 -1.02953 0.257948 
363 1.70564 1.42069 1.5124 0.263045 0 0 0 1.53633 23.0343 -69.0311 
500 2.10569 1.32175 1.8839 0.412442 0 0 0 -1.33908 1.80862 -6.18431 
355 2.35839 0.18445 1.86313 0.634471 0 0 0 0.366745 -1.07708 1.0597 
381 3.11613 1.01979 2.35073 0.739097 0 0 0 1.30344 -0.262241 0.688438 
331 2.87924 0.0788046 2.06589 0.792854 0 0 0 1.08633 -1.1505 0.611489 
364 1.76962 0.735994 2.16028 0.517307 0 0 0 -0.565235 2.08264 -2.77005 
456 2.33967 1.28734 1.85278 0.452109 0 0 0 -0.0215846 -0.018781 -0.567841 
334 2.84871 0.650637 1.56623 0.619735 0 0 0 1.61396 -0.526277 0.796521 
379 2.85971 0.751267 2.16119 0.66274 0 0 0 0.95701 -0.296462 0.71639 
357 2.79171 1.1106 1.69075 0.555739 0 0 0 1.47439 -0.156983 0.974969 
349 2.50806 1.06994 1.68913 0.485856 0 0 0 1.04817 -0.243012 1.07418 
338 2.91329 1.04907 1.57017 0.592008 0 0 0 1.69173 -0.0901948 0.716331 
339 2.60637 0.208203 1.7826 0.663659 0 0 0 0.880257 -1.09949 0.93038 
340 2.03196 0.91908 1.73824 0.427766 0 0 0 0.610207 2.04102 -2.76128 
380 2.25571 1.36196 2.17206 0.492286 0 0 0 -0.922133 0.226998 -1.48842 
356 2.53184 0.904635 2.0194 0.548951 0 0 0 0.229731 -0.073398 0.595562 
359 2.00327 -0.0960536 2.15982 0.722348 0 0 0 0.00875997 -1.20855 0.524051 
344 2.80142 -0.043782 2.11853 0.816016 0 0 0 0.909481 -1.2933 0.606373 
348 3.04077 1.33757 1.60003 0.619056 0 0 0 1.74346 -0.105231 0.435883 
346 1.58774 0.374973 1.94495 0.544623 0 0 0 0.0740876 0.360903 0.055123 
354 2.04636 0.843233 1.58868 0.422711 0 0 0 2.33702 1.06351 -0.593103 
368 2.37677 0.682569 2.36623 0.614732 0 0 0 -0.272361 0.0966788 0.0449935 
366 1.71031 1.38232 2.04874 0.40569 0 0 0 -1.48414 7.06613 -20.3657 
371 2.18583 0.971476 2.33557 0.55166 0 0 0 -0.951518 0.813052 -1.29552 
377 1.74601 1.18746 1.97094 0.407206 0 0 0 -1.22624 7.546 -18.0452 
360 1.90747 0.404478 2.3254 0.616733 0 0 0 -0.290889 0.209293 -0.467811 
361 2.15681 1.26107 2.27566 0.509604 0 0 0 -1.32492 0.77232 -2.22145 
335 2.54276 0.223578 1.52697 0.631494 0 0 0 1.2022 -1.16849 0.995541 
384 1.99729 -0.0776384 2.77943 0.849448 0 0 0 0.075495 -0.817712 0.466739 
376 2.66835 0.594172 2.77917 0.779063 0 0 0 0.370217 -0.267693 0.787338 
375 2.39585 0.989107 2.70504 0.665024 0 0 0 -0.364309 0.25385 0.190221 
362 2.50173 1.42621 2.86667 0.696431 0 0 0 -0.126929 -0.207836 0.712544 
126 1.54709 0.230959 2.44275 0.66991 0 0 0 0.190666 -0.0431957 -0.289625 
383 3.11738 1.16306 2.83543 0.835525 0 0 0 1.03595 -0.275991 0.893849 
365 2.96941 -0.0926785 2.52754 0.942727 0 0 0 0.964704 -1.11942 0.625903 
374 2.49303 0.362286 2.5845 0.739406 0 0 0 0.163776 -0.519015 0.603597 
367 2.83512 -0.0952196 2.44692 0.894595 0 0 0 0.828606 -1.2058 0.631842 
382 2.46012 0.611973 2.90139 0.779648 0 0 0 0.00281968 -0.0960656 0.703923 
369 2.63778 0.580109 2.64824 0.739168 0 0 0 0.331751 -0.276055 0.688865 
373 2.14105 0.726534 2.45077 0.603869 0 0 0 -0.651259 0.594268 -0.680567 
406 2.09112 2.16896 0.430839 0.611265 0 0 0 -1.06555 -1.4341 0.481137 
386 2.0284 2.99123 0.371048 0.772706 0 0 0 -0.203153 0.499839 -0.469316 
387 2.72329 1.69898 0.609378 0.620611 0 0 0 0.125402 -0.139189 -0.670064 
408 1.85313 2.49566 0.31794 0.670082 0 0 0 -0.440783 -0.943461 0.185443 
389 2.18616 3.05826 0.428307 0.790717 0 0 0 -0.0941001 0.695846 -0.557207 
390 2.98318 1.77901 0.535154 0.707932 0 0 0 0.849953 -0.129221 -0.779558 
391 2.11534 1.83161 0.648487 0.532526 0 0 0 -2.13325 -1.78881 1.75429 
403 2.5459 2.18678 0.119715 0.75135 0 0 0 -0.0754418 -0.411419 -0.815055 
393 2.66093 2.28842 0.183063 0.764203 0 0 0 0.173622 -0.246699 -0.873321 
405 2.78811 3.02173 -0.121112 1.01931 0 0 0 0.448673 0.483339 -0.802734 
395 1.81381 2.31842 0.625911 0.567286 0 0 0 -0.975048 -2.06637 1.31386 
396 2.10804 2.72738 0.663081 0.647389 0 0 0 -0.447573 -0.0233155 -0.398817 
397 2.16783 2.01055 -0.00250838 0.730132 0 0 0 -0.5518 -0.808897 -0.326887 
407 3.03609 2.65996 0.0661357 0.941522 0 0 0 0.752094 0.242133 -0.877927 
399 2.55634 2.07553 0.33948 0.678297 0 0 0 -0.217672 -0.510606 -0.662314 
400 3.03867 3.09633 0.0948046 1.03122 0 0 0 0.703319 0.615655 -0.726255 
404 2.54911 1.82912 0.135099 0.717735 0 0 0 -0.227233 -0.383297 -0.795833 
392 1.64897 1.70187 1.30242 0.31361 0 0 0 -4.39701 -24.578 61.8084 
347 1.74968 2.58561 1.44171 0.482408 0 0 0 -0.442415 0.909018 -1.16963 
470 3.18034 2.73685 1.51285 0.777334 0 0 0 1.36502 0.545257 -0.2835 
412 2.83896 2.70487 0.904629 0.719797 0 0 0 0.791074 0.476975 -0.695049 
413 2.99687 2.31763 1.18363 0.663646 0 0 0 1.32585 -0.0830399 -0.625427 
414 2.35624 1.78558 1.13988 0.461763 0 0 0 -0.742063 -1.47667 0.0408827 
415 2.18729 1.9517 0.959639 0.482594 0 0 0 -2.14021 -2.22286 1.05748 
416 1.76813 2.56765 1.21183 0.503755 0 0 0 -0.959972 -0.469341 -0.75551 
454 1.96176 3.07035 1.40585 0.634756 0 0 0 -0.187823 1.48749 -0.880992 
427 1.90156 2.97812 1.41373 0.600581 0 0 0 -0.275432 1.39298 -1.01349 
419 3.09087 2.31628 1.28366 0.68543 0 0 0 1.47359 -0.0907355 -0.502465 
457 2.18048 2.18526 1.39274 0.445663 0 0 0 0.664194 -0.848427 -0.804386 
411 1.77752 1.49709 1.51758 0.279055 0 0 0 -3.50347 -3.86796 0.146557 
422 2.52327 1.82722 0.892714 0.534171 0 0 0 -0.488506 -0.711521 -0.445591 
423 2.22281 3.17064 1.41836 0.692849 0 0 0 0.211827 1.49871 -0.625279 
424 1.98908 2.69972 0.785544 0.609123 0 0 0 -0.644648 -0.213526 -0.311733 
425 2.52502 2.65947 0.978214 0.634304 0 0 0 0.284944 0.379837 -0.819763 
426 2.16555 2.22826 1.02762 0.500696 0 0 0 -1.39641 -1.51874 -0.245562 
446 2.15403 1.47216 1.43062 0.370643 0 0 0 -0.757674 -2.07794 2.30983 
441 3.15009 2.03261 1.39372 0.670919 0 0 0 1.68536 -0.393118 -0.32169 
429 2.28301 3.01719 0.830938 0.710771 0 0 0 -0.0175303 0.880808 -0.645504 
430 3.24666 2.98695 1.29672 0.86617 0 0 0 1.22318 0.80167 -0.32843 
449 2.29125 2.24049 1.41348 0.472488 0 0 0 0.979689 -0.23805 -1.01196 
388 1.59812 2.19682 1.01817 0.463183 0 0 0 -1.1253 -4.52493 4.55163 
433 2.03727 1.738 1.21707 0.390792 0 0 0 -3.06218 -5.99462 9.07567 
434 1.60082 2.73668 1.06615 0.558629 0 0 0 -0.646759 -0.10438 -0.507386 
432 2.37388 1.88404 1.34991 0.447539 0 0 0 0.877516 -1.55934 -0.547192 
436 3.01036 2.09203 0.843108 0.681815 0 0 0 1.07795 -0.223346 -0.68843 
437 2.8462 1.57157 0.966138 0.587293 0 0 0 0.941099 0.0776047 -0.585538 
438 2.8555 2.16438 1.42914 0.589202 0 0 0 1.62876 -0.368299 -0.503914 
439 3.06985 3.26361 1.23339 0.897858 0 0 0 0.949547 1.11243 -0.325506 
440 2.10108 2.01538 0.939854 0.483858 0 0 0 -2.34472 -2.61684 1.56034 
458 2.14521 2.40779 1.42054 0.480223 0 0 0 0.451883 0.375995 -1.0474 
464 2.20089 2.07552 1.39204 0.431482 0 0 0 0.776108 -1.57477 -0.489461 
443 2.58771 1.94946 2.09056 0.535522 0 0 0 1.22742 -0.883185 1.06629 
444 2.8486 1.46504 1.86655 0.570207 0 0 0 1.47565 -0.4959 0.74117 
445 2.81527 2.21551 2.1293 0.614388 0 0 0 1.21889 -0.376512 0.618647 
310 1.78294 2.08929 1.76574 0.364649 0 0 0 2.9294 1.76751 -0.104242 
372 1.61022 2.19644 1.81033 0.37771 0 0 0 0.390895 3.52847 0.842684 
296 2.37677 1.99587 1.7502 0.454791 0 0 0 2.73136 -0.912668 0.691481 
471 1.98875 1.90613 1.68087 0.358626 0 0 0 3.68226 -2.2703 -0.855669 
450 2.68 1.85887 1.96779 0.537546 0 0 0 1.57158 -0.979815 0.850411 
182 1.64286 1.8895 1.64868 0.302928 0 0 0 0.631283 1.14053 2.0336 
452 2.11881 2.90998 1.68517 0.592224 0 0 0 0.466492 1.44554 -0.398908 
453 1.56028 2.45095 2.19982 0.487036 0 0 0 0.354165 0.827353 2.32792 
469 2.08406 1.70842 2.05619 0.431064 0 0 0 0.0260776 -0.355142 -3.0891 
343 2.09718 1.70346 1.57754 0.360073 0 0 0 0.921663 -3.60561 0.049443 
481 2.16303 2.25178 1.79844 0.451739 0 0 0 2.75672 0.771922 1.1111 
467 1.86345 2.64931 1.66668 0.495963 0 0 0 0.528464 1.84497 -0.479506 
378 1.78868 2.33535 1.81545 0.420989 0 0 0 1.83499 2.73097 1.3787 
459 3.15663 2.7618 2.17728 0.803692 0 0 0 1.33109 0.59902 0.259747 
277 1.76729 1.99982 1.70693 0.340651 0 0 0 3.00475 0.914731 -1.08456 
461 1.65114 2.97999 1.7122 0.580969 0 0 0 -0.21449 1.91983 -0.769179 
263 1.87895 1.99472 1.72044 0.355846 0 0 0 3.87558 -0.294753 -0.869941 
261 1.68405 1.99279 1.69119 0.329303 0 0 0 1.71172 1.80467 -0.603264 
176 1.90638 1.54434 1.53657 0.311138 0 0 0 -2.19399 -3.76067 0.587877 
465 1.96043 2.96194 1.89533 0.597784 0 0 0 0.441381 1.55927 0.0161966 
466 2.24247 3.27131 1.79524 0.726836 0 0 0 0.419261 1.62689 -0.194187 
319 2.24975 1.91453 1.63878 0.411732 0 0 0 2.91653 -1.83089 0.106761 
478 2.18734 3.04936 2.25827 0.683238 0 0 0 0.539356 1.21411 0.572457 
484 1.90492 2.64752 2.31714 0.562313 0 0 0 0.647536 0.489736 1.45387 
187 2.13032 2.09995 1.70539 0.413711 0 0 0 3.45064 -0.361662 0.630774 
509 3.29297 2.84291 2.26144 0.875197 0 0 0 1.37372 0.653921 0.329604 
488 2.31767 1.87767 1.72535 0.429172 0 0 0 2.78249 -1.52812 0.406165 
492 2.70859 2.30871 2.28735 0.620863 0 0 0 0.893936 -0.21377 0.823969 
494 2.94687 2.34984 2.28063 0.684461 0 0 0 1.18416 -0.127222 0.575926 
504 2.87672 1.9456 2.27657 0.631953 0 0 0 1.10363 -0.739883 0.756574 
199 1.89316 1.96045 1.70228 0.351188 0 0 0 3.89479 -0.92679 -1.12806 
120 1.67259 1.9638 1.67438 0.321489 0 0 0 1.45873 1.53484 -0.00676565 
442 2.28184 1.67739 1.7112 0.410209 0 0 0 1.68423 -1.59481 -0.50492 
498 2.04613 1.55965 1.97777 0.409436 0 0 0 -0.91048 1.08525 -7.14767 
487 1.91916 2.03368 2.33112 0.488957 0 0 0 0.0325982 -0.698189 0.224785 
209 2.03145 1.70588 1.59109 0.345965 0 0 0 0.865893 -3.84841 -0.484362 
36 2.10179 2.14084 1.72251 0.416347 0 0 0 3.40618 0.097353 0.774154 
191 1.67811 1.96819 1.67706 0.323026 0 0 0 1.57616 1.52169 -0.148889 
417 2.33714 2.53508 1.7657 0.533536 0 0 0 1.30001 0.973422 0.259021 
451 2.99114 2.22371 1.53029 0.633452 0 0 0 1.65109 -0.275871 -0.312246 
259 1.58512 1.88708 1.64909 0.297931 0 0 0 -0.811346 2.34963 2.43783 
463 1.58447 1.95969 1.66739 0.313836 0 0 0 -0.644659 2.58974 1.31907 
307 1.54445 1.74376 1.60346 0.263563 0 0 0 -2.47154 3.24385 0.803745 
220 1.54372 1.74206 1.60278 0.263123 0 0 0 -2.49592 3.24401 0.760208 
496 2.03147 2.50601 2.78625 0.657586 0 0 0 0.0310601 -0.181226 1.52986 
472 2.0747 1.79642 2.63684 0.574766 0 0 0 -0.779183 -0.595606 -0.0764292 
473 1.75625 1.5959 2.58876 0.549214 0 0 0 -1.17761 0.121222 -2.34804 
474 2.95854 3.17647 2.68346 0.934255 0 0 0 0.90126 1.04183 0.755748 
497 1.61663 1.94127 2.57965 0.539008 0 0 0 -0.635493 -1.02513 -0.520783 
502 2.22662 2.57159 2.71503 0.667086 0 0 0 0.220394 0.0468133 1.38662 
477 3.17713 2.0138 2.59479 0.781979 0 0 0 1.29714 -0.453759 0.85716 
513 2.63016 3.0298 3.05945 0.919998 0 0 0 0.557671 0.805122 1.27698 
479 1.80985 1.75127 2.41699 0.498559 0 0 0 -1.15676 -0.356552 -2.63245 
501 1.6536 2.4538 3.00118 0.698251 0 0 0 -0.144808 -0.376352 1.73333 
503 2.03372 3.15351 2.47845 0.734327 0 0 0 0.328423 1.26101 0.849365 
482 1.57532 3.16058 3.12965 0.875849 0 0 0 0.0454579 0.862642 1.49565 
511 3.00815 2.13234 2.41307 0.702012 0 0 0 1.18575 -0.463508 0.754367 
510 2.10249 2.54653 2.61072 0.623522 0 0 0 0.225984 -0.0462973 1.3835 
508 2.62305 1.96044 3.05692 0.772122 0 0 0 0.282797 -0.409117 1.38038 
505 3.15568 2.91939 3.22206 1.06052 0 0 0 0.88715 0.587055 1.13086 
499 1.80691 1.78436 2.91322 0.645107 0 0 0 -0.705459 -0.515561 0.136715 
495 2.94831 1.72933 2.7966 0.758142 0 0 0 0.827154 -0.506851 1.07252 
489 3.12957 1.50361 3.00018 0.86801 0 0 0 0.959302 -0.334819 1.0465 
490 2.37284 2.40854 2.58346 0.629828 0 0 0 0.304723 -0.18117 1.22528 
491 2.27434 1.49882 2.74564 0.629951 0 0 0 -0.618158 -0.160383 0.104052 
506 1.97648 2.06882 3.04671 0.70028 0 0 0 -0.385102 -0.559234 1.21405 
493 3.07267 3.01075 2.79147 0.943095 0 0 0 1.00008 0.81725 0.88601 
480 2.35966 2.25058 2.39424 0.569221 0 0 0 0.406818 -0.387109 1.22444 
ITEM: TIMESTEP
800998
ITEM: NUMBER OF ATOMS
512
ITEM: BOX BOUNDS ss ss ss
-2.2775349561678951e-01 3.2932607586404616e+00
-4.0122540508749138e-01 3.2891132425832117e+00
-1.7039273299291779e-01 3.2223573019164853e+00
ITEM: ATOMS id x y z width_SPH x_COM y_COM z_COM vx vy vz 
23 0.539289 1.16104 0.37278 0.613016 0 0 0 0.633794 -0.0976216 -0.569952 
3 -0.140332 -0.124436 0.0939714 1.0357 0 0 0 -1.01064 -0.934114 -0.88133 
4 1.1215 0.710241 0.265507 0.622554 0 0 0 0.00938398 0.209796 -1.02931 
5 0.225458 1.27088 -0.039404 0.782511 0 0 0 -0.197429 -0.301947 -0.966479 
6 0.0115243 1.14394 0.376957 0.727353 0 0 0 -0.762233 -0.267999 -0.705372 
22 0.12862 1.05029 0.0595974 0.785118 0 0 0 -0.507384 -0.424287 -0.970643 
8 0.686461 0.733453 -0.0391992 0.747515 0 0 0 0.0953416 -0.433125 -1.18301 
9 1.3567 -0.241857 0.263488 0.804207 0 0 0 -0.298875 -1.1864 -1.40893 
10 -0.0863186 -0.263408 0.0260424 1.07371 0 0 0 -0.931958 -0.985716 -0.90189 
11 0.920708 1.15036 -0.0285266 0.696437 0 0 0 0.752231 -0.165321 -0.435056 
12 0.461888 1.343 0.164182 0.674424 0 0 0 0.502725 -0.204145 -0.606919 
13 0.278626 -0.299312 0.200449 0.957908 0 0 0 -0.806282 -1.14361 -1.0185 
14 0.972042 1.22081 0.390072 0.568523 0 0 0 1.27039 0.142514 0.812819 
15 1.08249 0.669971 0.304805 0.617965 0 0 0 -0.0678745 0.142906 -1.16068 
16 0.612755 -0.235831 0.244737 0.869626 0 0 0 -0.630635 -1.16657 -1.20386 
17 0.878269 0.253886 0.00522482 0.783182 0 0 0 -0.298591 -0.660942 -1.49781 
18 0.56219 0.565601 0.356089 0.673123 0 0 0 -0.327135 -0.544873 -1.23562 
274 1.4895 1.31441 0.568102 0.508705 0 0 0 -0.206651 -0.281905 4.84941 
20 0.679391 0.940679 0.297779 0.628464 0 0 0 0.464 -0.143598 -0.766426 
62 1.19143 1.02676 0.635989 0.499497 0 0 0 0.00576791 0.577762 1.37865 
50 0.549985 -0.381034 0.627221 0.850634 0 0 0 -0.738627 -1.36613 -0.856465 
31 -0.066701 1.19079 0.657983 0.694832 0 0 0 -0.999922 -0.0999328 -0.584628 
44 0.384566 0.857336 0.611342 0.611981 0 0 0 -0.317965 -0.373717 -1.12024 
24 1.01877 -0.213789 1.39568 0.679356 0 0 0 -0.123932 -1.69286 0.6033 
353 1.43469 1.07794 1.35086 0.306621 0 0 0 -0.478019 -3.56943 0.634674 
26 -0.135941 1.02548 1.49494 0.658916 0 0 0 -1.52796 0.0880402 0.0612274 
27 0.398738 1.14913 0.832386 0.546232 0 0 0 -0.0929953 0.0262168 -1.24831 
28 0.947153 0.224994 1.38726 0.550775 0 0 0 -0.8814 -1.47365 0.74259 
91 0.800639 1.12867 1.21354 0.410235 0 0 0 -0.998596 -0.848749 -0.341471 
303 1.47401 1.06096 1.34497 0.308982 0 0 0 0.971365 -3.79538 0.769606 
65 0.66983 0.471778 1.33838 0.530131 0 0 0 -1.15554 -1.29712 0.0919948 
32 0.390324 -0.347402 1.28432 0.809111 0 0 0 -0.778067 -1.47593 -0.132785 
33 0.74758 -0.211903 1.15272 0.709655 0 0 0 -0.599439 -1.55105 -0.195129 
173 0.936208 0.960752 1.29479 0.396887 0 0 0 -3.46674 -1.145 -0.810899 
35 1.49751 0.0185804 0.818709 0.616277 0 0 0 -0.421785 -1.41791 -1.15812 
21 1.50709 1.44185 1.49138 0.220513 0 0 0 0.245516 1.59559 0.614093 
154 1.3247 1.31546 1.43482 0.26889 0 0 0 1.65058 2.35606 -4.96065 
38 0.21985 1.02869 0.800808 0.601116 0 0 0 -0.640101 -0.169636 -1.01703 
39 -0.227463 0.894409 1.43968 0.703335 0 0 0 -1.58739 -0.02969 -0.0849049 
2 1.14966 0.675234 1.21353 0.42603 0 0 0 -4.14256 -2.31397 -1.38021 
351 0.859143 1.19145 1.32514 0.381098 0 0 0 -0.727879 -0.464469 0.443652 
42 0.799972 1.37177 1.32996 0.382826 0 0 0 0.818812 -0.146607 1.05487 
195 1.40657 0.79986 1.18838 0.381453 0 0 0 -2.14181 -3.62156 -0.893231 
318 1.49221 1.06869 1.34922 0.306653 0 0 0 1.80142 -3.84544 0.63166 
45 0.998551 0.224025 1.32982 0.545674 0 0 0 -1.04159 -1.56828 0.537171 
46 0.610444 0.267934 0.79068 0.635118 0 0 0 -0.974906 -0.894067 -1.36004 
47 1.21211 0.915314 0.835752 0.454217 0 0 0 -1.73096 -0.485093 0.988032 
48 0.526617 0.788818 1.37475 0.498784 0 0 0 -1.05288 -1.06533 0.0363487 
250 1.49188 1.08592 1.35641 0.30246 0 0 0 1.96554 -3.83571 0.344013 
79 1.49624 1.36941 1.46082 0.233517 0 0 0 3.64318 0.757231 0.549409 
51 0.476675 1.30496 0.949268 0.506039 0 0 0 0.169075 0.221634 -1.33572 
52 1.29203 0.226349 1.31754 0.525365 0 0 0 -0.907336 -1.91142 0.784944 
53 -0.0398887 0.626631 1.25892 0.678805 0 0 0 -1.45045 -0.441264 -0.414622 
54 1.02301 -0.400935 1.42877 0.747462 0 0 0 0.0050955 -1.7438 0.513776 
385 1.48526 1.28966 1.43147 0.252414 0 0 0 3.42513 -2.10777 0.489444 
56 1.27651 0.103588 1.02253 0.574016 0 0 0 -0.869617 -1.66903 -0.734805 
178 0.995035 1.43604 1.45857 0.329982 0 0 0 2.91012 1.35566 0.624029 
115 1.50527 1.1504 1.3764 0.287022 0 0 0 3.09643 -4.38578 0.777432 
59 0.618213 0.602599 1.24066 0.517392 0 0 0 -1.31674 -1.2683 -0.596025 
124 1.46275 1.03845 1.33351 0.314954 0 0 0 0.307869 -3.79395 1.08003 
306 1.50773 -0.285868 0.765564 0.723847 0 0 0 -0.127702 -1.60431 -0.682412 
64 0.863755 -0.339059 1.3046 0.73647 0 0 0 -0.275624 -1.69422 0.221046 
119 1.46936 1.29803 1.43365 0.251085 0 0 0 3.24281 -1.67102 0.899063 
313 1.06027 1.33634 1.41902 0.322542 0 0 0 1.09868 0.946754 2.21115 
149 1.36225 1.21564 1.35163 0.287132 0 0 0 -1.32992 -1.56216 -0.789937 
179 1.2709 0.655437 1.19793 0.420364 0 0 0 -3.49649 -2.75719 -1.577 
106 1.48399 1.28128 1.42805 0.254532 0 0 0 3.33343 -2.41854 0.652014 
322 1.48978 1.08075 1.35422 0.303754 0 0 0 1.82449 -3.83003 0.431682 
19 1.48533 0.423843 1.00493 0.484897 0 0 0 -0.852853 -1.86254 -1.91694 
512 1.4942 1.3562 1.4562 0.23644 0 0 0 3.6723 0.311179 0.466219 
301 0.930613 1.30713 1.40803 0.352102 0 0 0 0.844435 0.695511 0.473178 
214 1.3994 0.983945 1.30053 0.332298 0 0 0 -2.34891 -3.66498 1.32643 
77 0.453285 1.43621 1.29507 0.467505 0 0 0 -0.730049 0.322676 -0.756598 
358 0.80263 1.13455 1.1541 0.418096 0 0 0 -0.811506 -0.815834 -0.341098 
81 0.658628 0.594054 1.15419 0.517897 0 0 0 -1.43266 -1.2458 -1.06382 
71 0.654124 1.22741 1.34848 0.421633 0 0 0 -0.472718 -0.274747 -0.366917 
329 0.872549 1.19711 1.34631 0.376299 0 0 0 -0.66388 -0.284772 0.350641 
57 1.51229 0.644695 1.1874 0.412434 0 0 0 -0.122721 -3.05681 -1.62624 
122 1.21655 0.673184 1.2029 0.420717 0 0 0 -3.98075 -2.58489 -1.52516 
74 0.974788 0.845285 1.26175 0.411892 0 0 0 -4.06605 -1.59229 -1.0576 
228 1.19612 1.41564 1.46552 0.285846 0 0 0 3.66129 1.69447 2.5429 
198 0.988613 1.43717 1.45868 0.331363 0 0 0 2.87817 1.2569 0.754114 
165 1.32818 0.926622 1.25837 0.353442 0 0 0 -4.30464 -3.50941 0.956067 
101 1.00027 1.23476 1.37485 0.345702 0 0 0 -1.00774 0.364819 1.16494 
82 0.914203 0.731777 1.19891 0.446426 0 0 0 -3.04088 -1.67014 -1.19374 
229 1.43794 1.01782 1.32157 0.321267 0 0 0 -0.817698 -3.73974 1.2564 
66 0.0779113 -0.209395 2.31732 0.901789 0 0 0 -0.687947 -1.05208 0.580834 
67 0.896593 0.389783 1.9898 0.568994 0 0 0 0.53521 -0.0874593 0.637787 
68 1.03629 0.897872 1.78783 0.431437 0 0 0 0.892992 2.98624 -4.25804 
95 0.398484 -0.0109054 2.10984 0.741996 0 0 0 -0.249913 -0.999984 0.679931 
70 0.431863 1.36488 2.12842 0.534682 0 0 0 0.501896 -0.113949 0.726854 
88 0.0603594 0.335403 2.25425 0.754697 0 0 0 -0.785905 -0.437355 0.780297 
55 0.17915 0.110079 1.56623 0.715518 0 0 0 -0.990347 -1.03046 0.129755 
63 0.0686938 1.42392 1.57716 0.574451 0 0 0 -1.32739 0.122341 0.333556 
87 -0.124829 0.602196 1.97093 0.726217 0 0 0 -1.2334 -0.227796 0.586437 
75 0.134229 1.38274 2.08426 0.597904 0 0 0 -0.600635 -0.111104 0.927851 
86 1.52819 0.494283 1.73489 0.483927 0 0 0 0.0890117 0.601176 0.00413365 
90 0.772501 1.18916 2.00601 0.467508 0 0 0 2.16492 1.0865 -1.69355 
78 0.397216 -0.0026328 2.21456 0.755243 0 0 0 -0.216477 -0.931592 0.705694 
113 0.978013 1.36001 2.06097 0.439913 0 0 0 2.96977 2.5456 -6.73583 
93 0.811344 0.804864 2.02329 0.511044 0 0 0 1.24664 0.892039 -0.290718 
92 0.388018 0.389792 1.87057 0.619936 0 0 0 -0.311892 -0.630189 0.888698 
108 1.1812 0.815753 2.12936 0.500494 0 0 0 1.03684 2.7348 -3.26176 
83 0.717769 1.15515 1.91968 0.462904 0 0 0 1.764 0.737056 -0.787052 
84 0.247412 0.0622336 2.16075 0.758667 0 0 0 -0.490184 -0.857545 0.680799 
96 1.42755 0.839321 1.89147 0.437815 0 0 0 0.311155 5.24165 -7.87507 
127 1.45838 0.642893 2.04464 0.504503 0 0 0 0.179434 2.32782 -2.51041 
34 -0.00995444 0.53052 1.66397 0.680599 0 0 0 -1.2569 -0.446983 0.29242 
60 0.616723 0.958432 1.89369 0.49654 0 0 0 0.906016 0.186405 0.694705 
25 1.06931 0.282776 1.61881 0.537639 0 0 0 -0.332223 -0.974044 1.42411 
76 0.569499 0.905024 1.57237 0.476954 0 0 0 -0.410871 -0.726924 0.959385 
94 0.548012 0.812208 1.57409 0.494662 0 0 0 -0.474151 -0.799137 1.01572 
37 0.451644 1.06436 1.55401 0.483799 0 0 0 -0.715248 -0.372709 0.801514 
49 -0.225099 0.992379 1.53528 0.693615 0 0 0 -1.56998 0.0720024 0.0721405 
125 1.09268 1.35857 2.31575 0.494743 0 0 0 1.87407 1.87937 -4.76237 
370 1.52837 0.876196 2.3462 0.535456 0 0 0 -0.113961 2.66188 -3.73631 
121 1.2299 0.0557162 2.56175 0.739898 0 0 0 0.420663 -0.463467 0.188907 
97 0.741257 0.963638 2.6719 0.641808 0 0 0 0.791111 0.769513 -0.0277394 
98 0.311901 1.03301 2.82434 0.738886 0 0 0 -0.0618658 0.189115 0.942161 
99 0.716606 0.0242818 2.58279 0.779048 0 0 0 0.238169 -0.6506 0.651575 
100 0.647804 0.403616 2.84607 0.773453 0 0 0 0.218169 0.0515931 0.748517 
128 0.383364 1.44118 2.49724 0.615767 0 0 0 0.291493 -0.114641 0.746853 
131 0.549719 1.23793 2.93584 0.721724 0 0 0 0.375453 0.238874 0.767501 
103 1.03332 0.516069 2.74005 0.695683 0 0 0 0.557523 0.57961 -0.00878364 
130 1.37067 0.465212 2.56845 0.651141 0 0 0 0.363752 0.736487 -0.682374 
114 1.06694 0.880381 2.58086 0.60421 0 0 0 0.894424 1.47521 -1.26384 
129 0.508149 0.0503786 3.07878 0.93857 0 0 0 -0.094373 -0.45258 0.926417 
116 -0.0918073 0.828692 2.48471 0.76891 0 0 0 -0.926309 -0.0065594 0.912661 
117 -0.112811 0.373905 2.52757 0.8492 0 0 0 -0.963989 -0.312892 0.858344 
109 0.427185 0.944434 3.03849 0.79387 0 0 0 0.0460095 0.256783 0.963202 
110 0.486302 -0.25506 2.78202 0.938174 0 0 0 -0.121528 -0.936652 0.764145 
123 1.28799 1.23657 2.37883 0.51135 0 0 0 0.834633 2.64158 -5.32667 
112 1.16532 0.424953 2.80165 0.724468 0 0 0 0.467879 0.431149 0.0412888 
162 0.457141 2.5951 0.566882 0.691738 0 0 0 -0.199005 0.795911 -0.433733 
132 0.662221 2.53027 0.21789 0.7328 0 0 0 0.175149 0.271975 -0.335473 
133 0.0922389 1.78605 0.558713 0.665838 0 0 0 -0.455948 0.139894 -0.504164 
134 0.162151 2.01557 0.242428 0.73626 0 0 0 -0.340456 0.1972 -0.589832 
135 1.32373 2.40948 0.446203 0.616065 0 0 0 0.357536 -1.41327 1.05045 
136 1.10481 2.57107 0.555836 0.622616 0 0 0 0.39742 -0.469636 0.464779 
137 0.049034 2.5059 0.614625 0.758156 0 0 0 -0.886034 0.864035 -0.494808 
138 0.513596 2.21214 0.0647095 0.745663 0 0 0 0.264197 0.00931165 -0.511823 
139 0.291597 2.24805 0.292714 0.722673 0 0 0 -0.186709 0.334765 -0.526104 
140 0.883335 2.73443 0.162876 0.770977 0 0 0 0.12948 0.361238 -0.290016 
141 -0.0439183 2.3866 0.160639 0.863762 0 0 0 -0.835658 0.58853 -0.612659 
142 1.45321 2.54108 0.575782 0.605432 0 0 0 -0.0152865 -1.15817 0.848445 
143 1.27571 2.91643 0.597735 0.68765 0 0 0 -0.0928465 0.53308 -0.00200393 
160 0.794611 3.07602 0.428213 0.804015 0 0 0 -0.207705 1.1648 -0.290282 
145 0.495422 2.00223 0.0139378 0.740952 0 0 0 0.384881 -0.140952 -0.551334 
146 1.33715 2.00136 0.341058 0.60108 0 0 0 0.654422 -2.10926 2.10568 
147 0.766201 1.82077 0.226308 0.636296 0 0 0 1.19529 -0.679975 0.317659 
148 1.26681 3.02295 0.25203 0.799052 0 0 0 -0.0618277 0.640666 -0.233351 
156 0.0923336 1.95726 0.419735 0.70568 0 0 0 -0.503555 0.220027 -0.514317 
150 1.08321 1.84153 0.514021 0.54952 0 0 0 1.65377 -2.03894 2.64048 
155 0.802654 1.62672 0.139303 0.650625 0 0 0 1.20365 -0.523851 0.232187 
161 1.37471 2.00683 0.411137 0.582785 0 0 0 0.554468 -2.40394 2.53761 
159 0.0392277 1.48545 -0.0352918 0.821638 0 0 0 -0.532892 -0.159694 -0.891061 
170 1.13968 2.09622 1.09397 0.440544 0 0 0 1.46594 -3.77871 4.57946 
163 0.512818 2.85755 0.715425 0.721365 0 0 0 -0.362575 1.26012 -0.434176 
202 0.614155 2.0095 1.00202 0.503112 0 0 0 1.0999 -0.139502 -1.05796 
167 0.867411 1.79173 1.05683 0.436399 0 0 0 2.56063 -1.83472 2.56824 
225 1.49735 1.51636 1.51443 0.217516 0 0 0 -0.8554 -0.814333 -0.88904 
169 0.925718 1.73866 1.43073 0.356731 0 0 0 1.8462 -1.94799 4.92864 
201 -0.0239002 2.74169 0.921926 0.787362 0 0 0 -1.10165 1.15806 -0.493679 
171 0.344797 1.88397 1.31499 0.510872 0 0 0 -0.75226 0.282531 -1.14352 
183 1.0557 1.45292 1.4625 0.315988 0 0 0 3.41736 1.6067 1.20782 
30 0.792092 1.64482 1.51741 0.376351 0 0 0 1.02591 0.0812998 0.161866 
174 0.206878 1.77876 1.03603 0.567115 0 0 0 -0.476588 0.230791 -1.0229 
210 1.50148 1.47893 1.50125 0.217346 0 0 0 0.564567 0.989145 0.140957 
157 1.18864 2.27083 1.02742 0.478468 0 0 0 0.927561 -2.54603 1.9789 
152 1.07997 2.08941 0.712471 0.523342 0 0 0 1.53884 -2.43135 2.37612 
314 1.50113 1.48139 1.50212 0.217248 0 0 0 0.469787 0.86525 0.0370468 
197 0.074839 2.23525 1.0802 0.643444 0 0 0 -1.00244 0.595577 -0.809933 
180 0.421872 2.02562 1.49853 0.493813 0 0 0 -1.13665 0.339449 -0.727816 
181 0.627685 2.08579 1.41776 0.456517 0 0 0 -0.467008 0.710841 -1.4179 
428 1.18669 2.56475 1.42783 0.483303 0 0 0 -0.598093 1.18337 -1.62202 
410 1.49911 1.48774 1.50438 0.217075 0 0 0 0.801737 0.612536 -0.0340482 
184 0.816887 2.82807 1.23688 0.603672 0 0 0 -0.22696 1.57113 -1.11912 
460 1.49413 1.50152 1.50836 0.217101 0 0 0 -0.273438 -0.0767823 -0.509003 
186 0.975643 2.81775 1.04021 0.606022 0 0 0 -0.0236979 1.00241 -0.639758 
196 0.570963 1.70122 1.47318 0.432141 0 0 0 -0.554013 0.19163 -0.178977 
188 0.309623 2.5385 1.32084 0.61326 0 0 0 -0.883927 1.28408 -1.11736 
200 0.952342 2.70818 1.14964 0.565977 0 0 0 0.0652616 0.959687 -1.03814 
190 0.811573 1.85975 1.03819 0.453605 0 0 0 2.21262 -1.24139 0.979184 
166 0.578328 1.64115 0.820061 0.51415 0 0 0 1.37955 -0.126806 -0.491355 
192 0.613366 2.06273 1.28736 0.468808 0 0 0 0.152064 0.522725 -1.66714 
193 1.11512 2.50091 1.38662 0.476143 0 0 0 -0.41808 0.86875 -1.52481 
203 1.49708 1.53528 1.52114 0.218899 0 0 0 -1.53221 -1.18094 -1.0564 
208 1.50103 1.48233 1.50246 0.217214 0 0 0 0.44355 0.813067 0.00369417 
41 1.49969 1.49087 1.50544 0.217014 0 0 0 0.110992 0.320159 -0.335507 
342 1.4981 1.50466 1.51029 0.217085 0 0 0 -0.413197 -0.389506 -0.700663 
164 1.49914 1.49496 1.50687 0.216985 0 0 0 -0.0436949 0.0871606 -0.465383 
40 1.49907 1.4955 1.50706 0.216984 0 0 0 -0.0644124 0.0573101 -0.481153 
219 1.49839 1.50152 1.50918 0.217027 0 0 0 -0.293519 -0.247946 -0.634089 
73 1.49776 1.50902 1.51183 0.217206 0 0 0 -0.579166 -0.566627 -0.780874 
43 0.805606 1.44796 1.37081 0.376497 0 0 0 1.30531 -0.0248663 1.27884 
418 1.50719 1.47294 1.49917 0.217689 0 0 0 -0.37496 0.849562 0.0243832 
158 1.23226 1.80436 1.11321 0.389167 0 0 0 1.38658 -9.69156 21.2968 
394 1.50446 1.487 1.49864 0.217126 0 0 0 -0.307924 0.642067 -1.03437 
107 1.49844 1.45726 1.49538 0.218848 0 0 0 1.73309 1.28447 2.58061 
215 0.540867 2.16283 1.63004 0.479714 0 0 0 -1.4286 0.604063 -0.340538 
447 1.39749 2.80308 2.23839 0.567396 0 0 0 -0.109843 1.23067 1.24131 
205 0.0357064 1.958 2.06486 0.630641 0 0 0 -1.35408 -0.385501 0.701791 
206 1.02526 2.47209 2.29806 0.526082 0 0 0 -0.784469 0.0757642 2.24088 
207 0.438844 2.84842 1.72195 0.648683 0 0 0 -0.970146 1.70351 -0.719323 
257 1.1462 1.73855 1.5693 0.308091 0 0 0 0.15025 1.36763 0.792665 
194 0.55539 1.94539 1.63957 0.452294 0 0 0 -1.32478 0.0738848 0.24887 
235 1.21548 2.18612 2.35239 0.493662 0 0 0 -0.515527 -1.03704 1.78966 
211 0.956348 2.92222 2.05614 0.605037 0 0 0 -0.719719 1.80986 0.0663028 
212 0.453128 2.60916 1.67387 0.582916 0 0 0 -1.1616 1.49548 -0.741589 
213 0.821558 1.77282 1.80142 0.397827 0 0 0 -0.215403 0.0124097 -1.25229 
242 0.400458 2.35909 2.29195 0.5956 0 0 0 -1.03597 -0.27233 1.19627 
231 0.848338 2.32006 2.12816 0.491558 0 0 0 -1.46633 0.00074116 2.18588 
216 1.16683 2.9485 2.0896 0.59937 0 0 0 -0.547681 1.81478 0.245485 
217 0.343199 2.85139 1.83538 0.671174 0 0 0 -1.07812 1.48819 -0.520593 
218 0.18813 2.60236 1.94756 0.653439 0 0 0 -1.42616 0.765583 -0.0979213 
468 0.852814 2.30967 1.8553 0.453565 0 0 0 -2.19976 1.12494 0.887534 
204 0.982434 2.13675 1.79705 0.400181 0 0 0 -3.11366 1.07146 0.489677 
221 0.781358 2.16855 1.99555 0.461679 0 0 0 -1.8177 -0.142067 1.89151 
222 0.87464 2.13024 1.82115 0.418688 0 0 0 -2.52237 0.60827 0.87627 
223 0.64826 1.75377 1.73341 0.42543 0 0 0 -0.647548 -0.244238 0.582145 
246 1.14636 1.7805 1.58 0.313136 0 0 0 -0.965857 1.32036 0.385382 
104 0.23399 1.55828 2.31382 0.605702 0 0 0 -0.274001 -0.332358 0.943771 
226 1.33009 3.06355 2.06162 0.626232 0 0 0 -0.383183 1.88233 0.0383384 
227 0.1473 1.58649 2.08044 0.590158 0 0 0 -0.73906 -0.333821 0.95765 
234 1.08919 1.77503 1.65722 0.327874 0 0 0 -0.111502 5.13747 -13.7844 
238 1.01266 1.72345 1.58263 0.333678 0 0 0 1.23704 1.37752 -3.7454 
321 1.32125 2.33263 1.84132 0.409756 0 0 0 -2.19668 3.09489 1.05807 
475 0.852219 2.20785 1.83084 0.43453 0 0 0 -2.39322 0.83133 0.935999 
476 1.236 2.27058 2.30392 0.488505 0 0 0 -0.669853 -0.591833 2.29716 
189 0.782452 2.2393 1.56136 0.444169 0 0 0 -1.22528 1.2435 -1.12487 
239 1.34949 1.89792 1.62617 0.304189 0 0 0 -5.24324 3.48698 3.25283 
328 1.239 2.6119 1.80516 0.480291 0 0 0 -1.13645 2.55659 -0.289797 
185 0.0296341 2.45809 1.54538 0.667554 0 0 0 -1.48902 0.759416 -0.529509 
337 1.08116 2.12647 1.79494 0.38486 0 0 0 -3.719 1.54307 0.134422 
462 1.494 3.28882 1.96818 0.696857 0 0 0 -0.327479 1.96138 -0.252663 
168 1.33185 1.85862 1.63156 0.298788 0 0 0 -4.91648 3.8824 2.86591 
247 1.21226 2.26017 1.82707 0.399116 0 0 0 -3.19359 2.60107 0.841765 
177 1.34231 2.09074 1.75652 0.350183 0 0 0 -4.10372 3.77399 -1.22922 
485 1.5067 2.80876 2.33205 0.583722 0 0 0 0.0958045 0.928981 1.38005 
264 1.37209 2.24532 1.82701 0.387491 0 0 0 -2.45576 3.42767 0.951462 
69 1.40449 2.22363 1.82304 0.381683 0 0 0 -2.28826 3.58827 0.832271 
483 1.42127 2.31225 1.83497 0.402125 0 0 0 -1.57704 3.46074 1.19407 
350 1.43899 2.292 1.83175 0.397132 0 0 0 -1.51847 3.54178 1.1988 
249 0.810746 1.71806 2.34598 0.511764 0 0 0 1.12862 -0.642051 -0.195844 
420 1.11135 1.94426 1.68018 0.344427 0 0 0 -3.58124 1.60328 -2.54885 
240 1.42888 1.99383 1.67738 0.32076 0 0 0 -4.04927 3.95805 0.324751 
300 1.51915 1.67208 1.57346 0.24525 0 0 0 -3.20874 2.2446 -0.656583 
398 1.51862 1.67007 1.57263 0.244756 0 0 0 -3.21715 2.19404 -0.698533 
29 0.0998225 1.58839 1.57877 0.564954 0 0 0 -1.3414 0.0104173 0.251659 
224 1.1137 1.66991 1.54005 0.307835 0 0 0 2.25594 1.35947 0.491041 
111 0.951818 1.52524 1.75497 0.365723 0 0 0 2.94879 3.99183 -11.4194 
105 1.42237 1.74491 1.56874 0.264089 0 0 0 -3.21502 2.29596 8.89939 
172 1.02342 1.85687 1.56823 0.344255 0 0 0 -0.61526 -1.55276 3.58345 
153 1.36634 1.7234 1.67657 0.280171 0 0 0 -1.66359 12.4812 -21.8087 
341 1.49772 1.55244 1.52725 0.220822 0 0 0 -2.07027 -1.20607 -1.11819 
144 1.49736 1.55543 1.52765 0.221187 0 0 0 -2.02573 -1.23402 -0.918792 
332 1.49424 1.56547 1.53147 0.222686 0 0 0 -0.541994 -0.875281 -0.944214 
486 1.5315 1.94568 2.15278 0.420407 0 0 0 -0.552288 0.806969 -5.18689 
336 1.53233 1.71297 1.59081 0.255617 0 0 0 -2.86379 3.07092 0.0531856 
80 1.49759 1.55013 1.52642 0.220529 0 0 0 -2.00299 -1.21803 -1.11329 
232 0.49216 2.02195 2.69549 0.642612 0 0 0 -0.0745399 -0.804791 1.41702 
233 0.819154 1.89517 2.82464 0.638637 0 0 0 0.440529 -0.774777 1.02621 
255 -0.0545604 2.84034 2.49112 0.830807 0 0 0 -1.33128 0.662503 0.395578 
266 0.366652 1.98499 2.58794 0.636923 0 0 0 -0.320958 -0.749399 1.30892 
236 1.10598 2.61864 2.76414 0.651241 0 0 0 -0.0562671 -0.16782 1.86492 
237 0.373428 2.44496 2.44691 0.637518 0 0 0 -0.879447 -0.19509 1.142 
262 0.719181 1.67966 2.53177 0.568063 0 0 0 0.926278 -0.484205 0.339077 
254 0.214174 2.73861 3.11697 0.891497 0 0 0 -0.712466 0.273402 1.45048 
118 0.0283917 1.48111 2.6882 0.743109 0 0 0 -0.653607 -0.166583 1.0143 
241 0.939424 2.12978 3.11427 0.728299 0 0 0 0.13789 -0.661518 1.54255 
265 0.032953 3.01139 2.61218 0.868524 0 0 0 -1.12544 0.909768 0.525461 
243 0.559648 3.01398 2.64267 0.760244 0 0 0 -0.508821 1.0028 0.858351 
244 -0.053848 3.17009 2.96979 1.01469 0 0 0 -0.98922 0.906808 0.853296 
245 1.25688 2.18075 2.86043 0.631954 0 0 0 -0.0453336 -0.976654 1.37661 
256 0.0639198 2.93296 2.98772 0.928312 0 0 0 -0.938691 0.617749 1.10108 
260 -0.0684646 2.86215 2.72929 0.884982 0 0 0 -1.22646 0.592828 0.736856 
248 0.535507 2.66342 2.98132 0.7745 0 0 0 -0.342566 0.0705776 1.64871 
507 1.514 2.78544 2.91087 0.717643 0 0 0 0.00164553 0.241185 1.77994 
258 0.563515 2.96535 3.08818 0.865753 0 0 0 -0.344508 0.623051 1.4781 
251 0.511303 2.47669 2.63315 0.654785 0 0 0 -0.499769 -0.285972 1.47386 
252 -0.111927 2.39186 2.39214 0.756582 0 0 0 -1.48804 -0.0397584 0.500045 
253 1.04036 3.18639 2.78129 0.794806 0 0 0 -0.146918 1.14523 1.12594 
267 1.82892 0.385598 0.477773 0.596854 0 0 0 -0.15428 -0.0364374 -2.08399 
268 2.77884 0.405525 0.28606 0.786134 0 0 0 1.25567 -0.459849 -1.24518 
269 2.2067 0.0402845 -0.170102 0.890933 0 0 0 0.374258 -0.769628 -1.63989 
270 2.56706 0.0594562 -0.0701768 0.911772 0 0 0 0.827069 -0.80161 -1.41334 
291 2.17938 0.517071 -0.0151521 0.745449 0 0 0 0.104528 -0.0265238 -1.80512 
272 2.8825 0.826455 0.434372 0.720701 0 0 0 1.24074 0.030943 -1.12001 
273 1.72709 1.05679 0.271324 0.594023 0 0 0 -0.639145 0.752363 0.272491 
295 2.1713 1.36023 0.380863 0.583848 0 0 0 -1.32076 0.225655 0.267998 
275 2.66358 -0.0269351 -0.00182119 0.93327 0 0 0 0.952079 -0.903069 -1.25183 
276 1.80978 0.0752462 0.0483144 0.77895 0 0 0 -0.0838287 -0.687914 -1.77594 
294 1.7398 1.32132 0.468062 0.539314 0 0 0 -1.13507 0.0487102 2.88252 
278 1.84913 0.118937 -0.0193174 0.792011 0 0 0 -0.0537319 -0.613862 -1.79866 
279 2.175 0.767306 0.422028 0.586649 0 0 0 -0.12762 0.7113 -1.57241 
290 2.36631 1.24236 0.156958 0.668462 0 0 0 -0.466686 0.307262 -0.928674 
281 2.44926 1.10437 0.372454 0.618623 0 0 0 -0.226734 0.581789 -1.09596 
289 2.44024 0.744302 0.539644 0.597764 0 0 0 0.576917 0.387499 -1.48428 
292 2.33956 0.902125 0.628311 0.547957 0 0 0 0.151895 0.786991 -1.3619 
284 1.63517 0.788285 0.385008 0.570141 0 0 0 -0.509446 0.940169 -0.96216 
285 2.84964 1.17716 0.0625887 0.79131 0 0 0 0.715095 0.0555149 -1.24819 
286 1.78723 0.485721 0.444934 0.587351 0 0 0 -0.294119 0.282606 -2.06144 
287 2.57698 1.17322 0.48256 0.611561 0 0 0 0.0428282 0.539619 -1.03001 
288 2.12027 0.470308 0.103725 0.706468 0 0 0 0.0547979 -0.00961735 -1.83865 
283 2.43674 -0.0381413 0.797332 0.720711 0 0 0 1.11702 -1.28524 -0.558128 
297 2.10953 0.404039 1.31448 0.507881 0 0 0 1.90404 -1.28979 1.11 
298 2.93001 0.378399 1.22614 0.699642 0 0 0 1.80708 -0.768779 0.103682 
299 2.17786 0.794496 1.15772 0.446812 0 0 0 3.04139 -0.0325017 -0.486679 
326 2.16132 0.241577 1.27565 0.557616 0 0 0 1.36192 -1.47826 0.897746 
421 1.83954 1.44084 1.50274 0.295542 0 0 0 -2.29027 -3.41423 -0.0488913 
302 2.2023 0.171766 1.03879 0.5931 0 0 0 1.23406 -1.32832 -0.190312 
409 1.68112 1.13811 1.38277 0.302342 0 0 0 7.6238 -3.47617 0.200101 
304 2.56842 0.907699 0.967202 0.53266 0 0 0 1.36623 0.342748 -0.843795 
327 2.48296 0.0221871 1.06097 0.686 0 0 0 1.27706 -1.34485 -0.00758836 
271 2.03991 0.860397 1.25086 0.407328 0 0 0 4.8328 -0.126847 -0.0685277 
325 1.98594 0.35555 1.00004 0.521515 0 0 0 1.3737 -1.15552 -1.0399 
308 1.84277 0.353842 1.39549 0.497795 0 0 0 1.14365 -1.6755 1.551 
309 2.88629 1.00557 1.17505 0.594011 0 0 0 1.74591 0.142685 -0.102394 
352 2.85341 1.20475 1.47989 0.560578 0 0 0 1.76128 0.0542202 0.517025 
311 2.00274 0.716304 0.965144 0.458609 0 0 0 2.42575 -0.00775329 -1.77909 
312 2.53391 1.33844 0.846884 0.525579 0 0 0 -0.117193 0.5485 -0.597161 
293 2.4231 1.11164 0.861814 0.504926 0 0 0 0.21032 0.810946 -0.879225 
324 1.62813 -0.0598003 0.885015 0.633874 0 0 0 -0.114649 -1.61406 -0.685088 
315 2.60039 1.07859 1.23024 0.500886 0 0 0 1.6382 0.261075 -0.0846029 
316 2.72628 0.872234 1.06806 0.566482 0 0 0 1.68899 0.0839731 -0.390939 
317 2.17448 0.00895266 1.26039 0.630986 0 0 0 0.833471 -1.67313 0.73811 
345 2.10888 1.08502 1.35917 0.384712 0 0 0 3.15612 0.530399 0.357448 
323 2.38134 0.331224 1.4536 0.569986 0 0 0 1.39881 -1.12562 1.28543 
455 2.55583 1.28173 1.36755 0.472766 0 0 0 1.51376 0.132498 0.181907 
435 2.27639 1.22552 1.31463 0.41136 0 0 0 0.998851 0.0651617 0.565553 
448 2.20141 1.19778 1.32869 0.395786 0 0 0 1.29439 0.0626152 0.913657 
330 2.1282 0.968261 1.33153 0.403423 0 0 0 3.69305 0.316836 0.284987 
333 2.0246 1.08667 1.30523 0.371338 0 0 0 4.55153 0.0165967 1.82263 
320 2.05153 1.24466 1.39439 0.356995 0 0 0 1.45119 -0.218833 1.67629 
85 1.93767 0.688027 1.22732 0.424794 0 0 0 4.19019 -1.03516 -0.384165 
72 1.85279 0.835644 1.34411 0.381423 0 0 0 5.98979 -0.140134 -1.58436 
280 1.92793 1.15719 0.954525 0.418535 0 0 0 0.281921 -0.516179 5.51818 
282 1.82599 1.09003 1.37787 0.331796 0 0 0 7.6809 0.0343735 -2.08855 
58 1.53876 0.410761 0.794829 0.520966 0 0 0 -0.628904 -0.813587 -2.48363 
7 1.78038 0.749627 1.18987 0.399088 0 0 0 4.57889 -1.93042 -1.07273 
175 1.6862 0.702466 1.18442 0.40297 0 0 0 3.05506 -2.53263 -1.39651 
151 1.67338 0.694856 1.1842 0.404027 0 0 0 2.80342 -2.59535 -1.42867 
102 1.68174 0.685792 1.18738 0.406096 0 0 0 2.83203 -2.53421 -1.3962 
401 1.68764 1.21329 1.38466 0.29046 0 0 0 6.15776 -7.40087 9.30947 
431 1.82255 1.38592 1.47813 0.294159 0 0 0 -1.1755 -3.90201 1.5019 
230 1.56873 0.813987 1.19065 0.375192 0 0 0 1.90241 -3.51176 -0.549758 
402 1.95157 1.39053 1.18279 0.365148 0 0 0 -1.92856 -6.34934 17.6097 
61 2.0614 1.43224 1.48036 0.347739 0 0 0 -1.14254 -1.58269 0.681678 
305 2.1485 1.42894 1.51639 0.368182 0 0 0 -0.451892 -0.690374 -0.93816 
89 2.192 1.4391 1.48267 0.378189 0 0 0 -0.208365 -1.02952 0.257964 
363 1.70564 1.4207 1.51238 0.263044 0 0 0 1.53627 23.0334 -69.0293 
500 2.10569 1.32175 1.8839 0.412442 0 0 0 -1.33905 1.80863 -6.18436 
355 2.35839 0.18445 1.86313 0.634471 0 0 0 0.366746 -1.07709 1.0597 
381 3.11613 1.01979 2.35073 0.739097 0 0 0 1.30344 -0.262244 0.688443 
331 2.87924 0.0788043 2.06589 0.792854 0 0 0 1.08633 -1.1505 0.611492 
364 1.76962 0.735994 2.16028 0.517307 0 0 0 -0.565229 2.08264 -2.77006 
456 2.33967 1.28734 1.85278 0.452109 0 0 0 -0.021563 -0.018785 -0.567832 
334 2.84871 0.650637 1.56623 0.619735 0 0 0 1.61397 -0.526284 0.796525 
379 2.85971 0.751267 2.16119 0.66274 0 0 0 0.957014 -0.296466 0.716396 
357 2.79171 1.1106 1.69075 0.555739 0 0 0 1.4744 -0.156987 0.974976 
349 2.50806 1.06994 1.68913 0.485856 0 0 0 1.04819 -0.243022 1.07419 
338 2.91329 1.04907 1.57017 0.592008 0 0 0 1.69175 -0.0901982 0.716335 
339 2.60637 0.208203 1.7826 0.663659 0 0 0 0.880259 -1.09949 0.930383 
340 2.03196 0.919081 1.73824 0.427766 0 0 0 0.610224 2.041 -2.7613 
380 2.25571 1.36196 2.17206 0.492286 0 0 0 -0.922126 0.226996 -1.48842 
356 2.53184 0.904635 2.0194 0.548951 0 0 0 0.229738 -0.0734052 0.595571 
359 2.00327 -0.0960539 2.15982 0.722348 0 0 0 0.00876145 -1.20855 0.524053 
344 2.80142 -0.0437824 2.11853 0.816016 0 0 0 0.909483 -1.2933 0.606376 
348 3.04077 1.33757 1.60003 0.619056 0 0 0 1.74347 -0.105231 0.435886 
346 1.58774 0.374973 1.94495 0.544623 0 0 0 0.0740912 0.360895 0.0551195 
354 2.04636 0.843233 1.58868 0.422711 0 0 0 2.33702 1.06347 -0.593108 
368 2.37677 0.682569 2.36623 0.614732 0 0 0 -0.272359 0.0966751 0.0449979 
366 1.71031 1.38232 2.04874 0.405689 0 0 0 -1.48411 7.06631 -20.3662 
371 2.18583 0.971476 2.33557 0.55166 0 0 0 -0.951515 0.813049 -1.29552 
377 1.74601 1.18747 1.97094 0.407204 0 0 0 -1.2262 7.54614 -18.0456 
360 1.90747 0.404478 2.3254 0.616733 0 0 0 -0.290886 0.20929 -0.46781 
361 2.15681 1.26107 2.27566 0.509604 0 0 0 -1.32491 0.772318 -2.22145 
335 2.54276 0.223577 1.52697 0.631494 0 0 0 1.2022 -1.1685 0.995543 
384 1.99729 -0.0776386 2.77943 0.849448 0 0 0 0.0754972 -0.817715 0.46674 
376 2.66835 0.594172 2.77917 0.779064 0 0 0 0.370219 -0.267696 0.787341 
375 2.39585 0.989107 2.70504 0.665024 0 0 0 -0.364307 0.253848 0.190224 
362 2.50173 1.42621 2.86667 0.696431 0 0 0 -0.126928 -0.207838 0.712546 
126 1.54709 0.230959 2.44275 0.66991 0 0 0 0.190669 -0.0431987 -0.289625 
383 3.11738 1.16306 2.83543 0.835525 0 0 0 1.03595 -0.275992 0.893852 
365 2.96941 -0.0926788 2.52754 0.942727 0 0 0 0.964707 -1.11942 0.625906 
374 2.49303 0.362286 2.5845 0.739406 0 0 0 0.163778 -0.519018 0.6036 
367 2.83512 -0.0952199 2.44692 0.894595 0 0 0 0.828608 -1.2058 0.631845 
382 2.46012 0.611973 2.90139 0.779648 0 0 0 0.00282217 -0.0960681 0.703925 
369 2.63778 0.580109 2.64824 0.739168 0 0 0 0.331754 -0.276058 0.688869 
373 2.14105 0.726534 2.45077 0.603869 0 0 0 -0.651256 0.594266 -0.680566 
406 2.09112 2.16896 0.43084 0.611265 0 0 0 -1.06555 -1.4341 0.481142 
386 2.0284 2.99123 0.371048 0.772706 0 0 0 -0.203153 0.49984 -0.469316 
387 2.72329 1.69898 0.609378 0.620611 0 0 0 0.125403 -0.139185 -0.670065 
408 1.85313 2.49566 0.31794 0.670083 0 0 0 -0.440784 -0.943459 0.185445 
389 2.18616 3.05826 0.428307 0.790718 0 0 0 -0.0941001 0.695846 -0.557207 
390 2.98318 1.77901 0.535154 0.707932 0 0 0 0.849955 -0.129218 -0.779559 
391 2.11534 1.83161 0.648487 0.532526 0 0 0 -2.13326 -1.7888 1.7543 
403 2.5459 2.18678 0.119715 0.751351 0 0 0 -0.0754417 -0.411417 -0.815053 
393 2.66093 2.28842 0.183063 0.764203 0 0 0 0.173622 -0.246697 -0.87332 
405 2.78811 3.02173 -0.121113 1.01931 0 0 0 0.448673 0.48334 -0.802734 
395 1.8138 2.31842 0.625911 0.567286 0 0 0 -0.97505 -2.06637 1.31386 
396 2.10804 2.72738 0.663081 0.647389 0 0 0 -0.447573 -0.0233149 -0.398816 
397 2.16783 2.01055 -0.00250847 0.730132 0 0 0 -0.5518 -0.808895 -0.326884 
407 3.03609 2.65996 0.0661355 0.941522 0 0 0 0.752094 0.242134 -0.877926 
399 2.55634 2.07553 0.339479 0.678297 0 0 0 -0.217672 -0.510603 -0.662313 
400 3.03867 3.09633 0.0948045 1.03122 0 0 0 0.703319 0.615656 -0.726254 
404 2.54911 1.82912 0.135099 0.717735 0 0 0 -0.227233 -0.383294 -0.795831 
392 1.64897 1.70187 1.30244 0.313604 0 0 0 -4.39716 -24.579 61.8114 
347 1.74968 2.58561 1.44171 0.482408 0 0 0 -0.442419 0.909017 -1.16962 
470 3.18034 2.73685 1.51285 0.777334 0 0 0 1.36502 0.545259 -0.2835 
412 2.83896 2.70487 0.904629 0.719797 0 0 0 0.791074 0.476976 -0.695049 
413 2.99687 2.31763 1.18363 0.663646 0 0 0 1.32585 -0.0830363 -0.625429 
414 2.35624 1.78558 1.13988 0.461763 0 0 0 -0.74206 -1.47665 0.0408878 
415 2.18729 1.9517 0.95964 0.482594 0 0 0 -2.14022 -2.22286 1.0575 
416 1.76813 2.56765 1.21183 0.503756 0 0 0 -0.959973 -0.469342 -0.755506 
454 1.96176 3.07035 1.40585 0.634756 0 0 0 -0.187823 1.48749 -0.880992 
427 1.90156 2.97812 1.41373 0.600582 0 0 0 -0.275432 1.39297 -1.01349 
419 3.09087 2.31628 1.28366 0.685431 0 0 0 1.47359 -0.0907324 -0.502466 
457 2.18048 2.18526 1.39274 0.445663 0 0 0 0.664182 -0.848415 -0.804382 
411 1.77752 1.49709 1.51758 0.279055 0 0 0 -3.5034 -3.86797 0.146464 
422 2.52327 1.82722 0.892713 0.534171 0 0 0 -0.488506 -0.711513 -0.445592 
423 2.22281 3.17064 1.41836 0.692849 0 0 0 0.211826 1.49871 -0.62528 
424 1.98908 2.69972 0.785544 0.609123 0 0 0 -0.644649 -0.213526 -0.311732 
425 2.52502 2.65947 0.978214 0.634304 0 0 0 0.284943 0.379839 -0.819764 
426 2.16555 2.22826 1.02762 0.500696 0 0 0 -1.39642 -1.51874 -0.245556 
446 2.15403 1.47216 1.43063 0.370643 0 0 0 -0.757635 -2.07793 2.30985 
441 3.15009 2.03261 1.39372 0.670919 0 0 0 1.68537 -0.393115 -0.32169 
429 2.28301 3.01719 0.830938 0.710772 0 0 0 -0.0175304 0.880808 -0.645504 
430 3.24666 2.98695 1.29672 0.86617 0 0 0 1.22318 0.801671 -0.32843 
449 2.29125 2.24049 1.41348 0.472488 0 0 0 0.979681 -0.23804 -1.01196 
388 1.59812 2.19682 1.01817 0.463183 0 0 0 -1.1253 -4.52494 4.55167 
433 2.03727 1.738 1.21707 0.390791 0 0 0 -3.06218 -5.99465 9.07581 
434 1.60082 2.73668 1.06615 0.55863 0 0 0 -0.646758 -0.10438 -0.507387 
432 2.37388 1.88404 1.34991 0.447539 0 0 0 0.87752 -1.55932 -0.547189 
436 3.01036 2.09203 0.843108 0.681815 0 0 0 1.07795 -0.223342 -0.688432 
437 2.8462 1.57157 0.966138 0.587293 0 0 0 0.941105 0.0776093 -0.585541 
438 2.8555 2.16438 1.42914 0.589202 0 0 0 1.62876 -0.368294 -0.503916 
439 3.06985 3.26361 1.23339 0.897858 0 0 0 0.949546 1.11243 -0.325506 
440 2.10108 2.01538 0.939854 0.483858 0 0 0 -2.34473 -2.61684 1.56036 
458 2.14521 2.40779 1.42054 0.480224 0 0 0 0.451873 0.376 -1.0474 
464 2.20089 2.07552 1.39204 0.431482 0 0 0 0.776098 -1.57475 -0.489455 
443 2.58771 1.94946 2.09056 0.535522 0 0 0 1.22742 -0.883182 1.0663 
444 2.8486 1.46504 1.86655 0.570207 0 0 0 1.47566 -0.4959 0.741177 
445 2.81527 2.21551 2.1293 0.614389 0 0 0 1.21889 -0.37651 0.618649 
310 1.78294 2.08929 1.76574 0.364649 0 0 0 2.92938 1.76751 -0.104242 
372 1.61022 2.19644 1.81033 0.37771 0 0 0 0.390897 3.52847 0.842674 
296 2.37677 1.99587 1.7502 0.454791 0 0 0 2.73136 -0.912654 0.691487 
471 1.98875 1.90613 1.68087 0.358626 0 0 0 3.68222 -2.27029 -0.855661 
450 2.68 1.85887 1.96779 0.537547 0 0 0 1.57158 -0.979811 0.850417 
182 1.64286 1.8895 1.64868 0.302928 0 0 0 0.631238 1.14055 2.03359 
452 2.11881 2.90998 1.68517 0.592224 0 0 0 0.466491 1.44554 -0.398909 
453 1.56028 2.45095 2.19982 0.487036 0 0 0 0.354172 0.827347 2.32792 
469 2.08406 1.70842 2.05619 0.431064 0 0 0 0.0260802 -0.355131 -3.08911 
343 2.09718 1.70346 1.57754 0.360073 0 0 0 0.921656 -3.60557 0.0494561 
481 2.16303 2.25178 1.79844 0.451739 0 0 0 2.7567 0.771929 1.1111 
467 1.86345 2.64931 1.66668 0.495963 0 0 0 0.528459 1.84497 -0.479507 
378 1.78868 2.33535 1.81545 0.420989 0 0 0 1.83498 2.73096 1.37869 
459 3.15663 2.7618 2.17728 0.803692 0 0 0 1.33109 0.599021 0.259747 
277 1.76729 1.99982 1.70693 0.340651 0 0 0 3.00472 0.914719 -1.08453 
461 1.65114 2.97999 1.7122 0.580969 0 0 0 -0.214487 1.91983 -0.769181 
263 1.87895 1.99472 1.72044 0.355846 0 0 0 3.87554 -0.294754 -0.869932 
261 1.68405 1.99279 1.69119 0.329303 0 0 0 1.71169 1.80465 -0.603218 
176 1.90638 1.54433 1.53657 0.311138 0 0 0 -2.19395 -3.76064 0.587835 
465 1.96043 2.96194 1.89533 0.597784 0 0 0 0.441381 1.55927 0.0161954 
466 2.24247 3.27131 1.79524 0.726837 0 0 0 0.41926 1.62689 -0.194188 
319 2.24976 1.91453 1.63878 0.411733 0 0 0 2.91652 -1.83087 0.106769 
478 2.18734 3.04936 2.25827 0.683238 0 0 0 0.539356 1.21411 0.572456 
484 1.90492 2.64752 2.31714 0.562313 0 0 0 0.647536 0.489735 1.45387 
187 2.13032 2.09995 1.70539 0.413711 0 0 0 3.45061 -0.361647 0.630778 
509 3.29297 2.84291 2.26144 0.875197 0 0 0 1.37372 0.653922 0.329604 
488 2.31767 1.87767 1.72535 0.429172 0 0 0 2.78248 -1.5281 0.406175 
492 2.70859 2.30871 2.28735 0.620863 0 0 0 0.893935 -0.213769 0.823972 
494 2.94687 2.34984 2.28063 0.684461 0 0 0 1.18415 -0.12722 0.575927 
504 2.87672 1.9456 2.27657 0.631953 0 0 0 1.10363 -0.739882 0.756578 
199 1.89316 1.96045 1.70228 0.351188 0 0 0 3.89474 -0.92679 -1.12805 
120 1.67259 1.9638 1.67438 0.32149 0 0 0 1.4587 1.53483 -0.00671151 
442 2.28184 1.67739 1.7112 0.410209 0 0 0 1.68424 -1.59478 -0.504905 
498 2.04613 1.55965 1.97777 0.409435 0 0 0 -0.910466 1.08527 -7.14772 
487 1.91916 2.03368 2.33112 0.488957 0 0 0 0.0325957 -0.698187 0.224779 
209 2.03145 1.70588 1.59109 0.345965 0 0 0 0.865875 -3.84837 -0.484348 
36 2.10179 2.14084 1.72251 0.416347 0 0 0 3.40615 0.0973651 0.774157 
191 1.67812 1.96819 1.67706 0.323026 0 0 0 1.57612 1.52167 -0.148836 
417 2.33714 2.53508 1.7657 0.533536 0 0 0 1.3 0.973426 0.25902 
451 2.99114 2.22371 1.53029 0.633452 0 0 0 1.65109 -0.275867 -0.312247 
259 1.58512 1.88708 1.64909 0.297931 0 0 0 -0.811397 2.34968 2.43779 
463 1.58447 1.95969 1.66739 0.313836 0 0 0 -0.644693 2.58974 1.31912 
307 1.54445 1.74376 1.60346 0.263563 0 0 0 -2.47164 3.24405 0.803568 
220 1.54372 1.74206 1.60278 0.263123 0 0 0 -2.49601 3.24421 0.760031 
496 2.03147 2.50601 2.78625 0.657587 0 0 0 0.0310609 -0.181226 1.52986 
472 2.0747 1.79642 2.63684 0.574766 0 0 0 -0.779181 -0.595607 -0.0764324 
473 1.75625 1.5959 2.58876 0.549214 0 0 0 -1.17761 0.121222 -2.34805 
474 2.95854 3.17647 2.68346 0.934255 0 0 0 0.901259 1.04182 0.755747 
497 1.61663 1.94127 2.57965 0.539008 0 0 0 -0.635487 -1.02513 -0.520794 
502 2.22662 2.57159 2.71503 0.667086 0 0 0 0.220394 0.046813 1.38662 
477 3.17714 2.0138 2.59479 0.781979 0 0 0 1.29714 -0.453759 0.857162 
513 2.63016 3.0298 3.05945 0.919998 0 0 0 0.557671 0.805121 1.27698 
479 1.80984 1.75127 2.41699 0.498559 0 0 0 -1.15675 -0.356549 -2.63247 
501 1.6536 2.4538 3.00118 0.698251 0 0 0 -0.144805 -0.376352 1.73333 
503 2.03372 3.15351 2.47845 0.734327 0 0 0 0.328424 1.26101 0.849364 
482 1.57532 3.16058 3.12965 0.875849 0 0 0 0.0454595 0.862641 1.49564 
511 3.00815 2.13234 2.41307 0.702012 0 0 0 1.18575 -0.463507 0.754369 
510 2.10249 2.54653 2.61072 0.623522 0 0 0 0.225983 -0.0462976 1.3835 
508 2.62305 1.96044 3.05692 0.772122 0 0 0 0.282798 -0.409118 1.38038 
505 3.15568 2.91939 3.22206 1.06052 0 0 0 0.88715 0.587054 1.13086 
499 1.80691 1.78436 2.91322 0.645107 0 0 0 -0.705454 -0.515562 0.13671 
495 2.94831 1.72933 2.7966 0.758143 0 0 0 0.827156 -0.506852 1.07252 
489 3.12957 1.50361 3.00018 0.86801 0 0 0 0.959304 -0.33482 1.0465 
490 2.37284 2.40854 2.58346 0.629828 0 0 0 0.304722 -0.18117 1.22528 
491 2.27434 1.49882 2.74564 0.629951 0 0 0 -0.618157 -0.160385 0.104051 
506 1.97648 2.06882 3.04671 0.70028 0 0 0 -0.385099 -0.559235 1.21405 
493 3.07267 3.01075 2.79147 0.943095 0 0 0 1.00008 0.81725 0.886009 
480 2.35966 2.25058 2.39424 0.569221 0 0 0 0.406815 -0.387107 1.22444 
ITEM: TIMESTEP
800999
ITEM: NUMBER OF ATOMS
512
ITEM: BOX BOUNDS ss ss ss
-2.2775349561678951e-01 3.2932607586404616e+00
-4.0122540508749138e-01 3.2891132425832117e+00
-1.7039273299291779e-01 3.2223573019164853e+00
ITEM: ATOMS id x y z width_SPH x_COM y_COM z_COM vx vy vz 
23 0.539289 1.16104 0.37278 0.613016 0 0 0 0.633794 -0.0976196 -0.56995 
3 -0.140333 -0.124436 0.0939712 1.0357 0 0 0 -1.01064 -0.934112 -0.881329 
4 1.1215 0.710241 0.265506 0.622554 0 0 0 0.00938555 0.209798 -1.02931 
5 0.225458 1.27088 -0.0394043 0.782511 0 0 0 -0.19743 -0.301945 -0.966477 
6 0.0115241 1.14394 0.376957 0.727354 0 0 0 -0.762234 -0.267997 -0.70537 
22 0.12862 1.05029 0.0595972 0.785118 0 0 0 -0.507384 -0.424286 -0.970641 
8 0.686461 0.733453 -0.0391994 0.747515 0 0 0 0.0953424 -0.433123 -1.18301 
9 1.3567 -0.241857 0.263487 0.804207 0 0 0 -0.298873 -1.1864 -1.40893 
10 -0.0863188 -0.263408 0.0260422 1.07371 0 0 0 -0.931957 -0.985715 -0.901889 
11 0.920708 1.15036 -0.0285267 0.696437 0 0 0 0.752231 -0.165319 -0.435053 
12 0.461888 1.343 0.164182 0.674424 0 0 0 0.502725 -0.204143 -0.606917 
13 0.278626 -0.299312 0.200449 0.957908 0 0 0 -0.806281 -1.14361 -1.0185 
14 0.972042 1.22081 0.390072 0.568523 0 0 0 1.27039 0.142517 0.812824 
15 1.08249 0.669971 0.304805 0.617965 0 0 0 -0.0678726 0.142908 -1.16068 
16 0.612755 -0.235831 0.244737 0.869627 0 0 0 -0.630633 -1.16657 -1.20386 
17 0.878269 0.253886 0.00522444 0.783183 0 0 0 -0.29859 -0.66094 -1.49781 
18 0.56219 0.565601 0.356089 0.673123 0 0 0 -0.327134 -0.544872 -1.23561 
274 1.4895 1.31441 0.568103 0.508705 0 0 0 -0.206654 -0.281903 4.84944 
20 0.679391 0.940679 0.297778 0.628464 0 0 0 0.464001 -0.143596 -0.766424 
62 1.19143 1.02676 0.63599 0.499497 0 0 0 0.00577048 0.577766 1.37866 
50 0.549985 -0.381035 0.627221 0.850634 0 0 0 -0.738625 -1.36613 -0.856463 
31 -0.0667013 1.19079 0.657983 0.694832 0 0 0 -0.999924 -0.0999316 -0.584627 
44 0.384566 0.857336 0.611342 0.611981 0 0 0 -0.317964 -0.373715 -1.12024 
24 1.01877 -0.213789 1.39568 0.679356 0 0 0 -0.123928 -1.69286 0.603301 
353 1.43469 1.07794 1.35086 0.306621 0 0 0 -0.478024 -3.56947 0.634581 
26 -0.135942 1.02548 1.49494 0.658916 0 0 0 -1.52796 0.088041 0.0612272 
27 0.398738 1.14913 0.832386 0.546232 0 0 0 -0.0929959 0.0262187 -1.2483 
28 0.947153 0.224994 1.38726 0.550775 0 0 0 -0.881392 -1.47365 0.742592 
91 0.800639 1.12867 1.21354 0.410235 0 0 0 -0.998587 -0.848756 -0.341472 
303 1.47401 1.06095 1.34497 0.308982 0 0 0 0.971365 -3.79542 0.769516 
65 0.66983 0.471778 1.33838 0.530131 0 0 0 -1.15554 -1.29712 0.0919971 
32 0.390324 -0.347403 1.28432 0.809112 0 0 0 -0.778065 -1.47593 -0.132783 
33 0.74758 -0.211903 1.15272 0.709655 0 0 0 -0.599436 -1.55105 -0.195127 
173 0.936207 0.960752 1.29479 0.396887 0 0 0 -3.46671 -1.145 -0.810892 
35 1.49751 0.01858 0.818709 0.616277 0 0 0 -0.421784 -1.41791 -1.15812 
21 1.50709 1.44185 1.49138 0.220513 0 0 0 0.245566 1.59576 0.613528 
154 1.3247 1.31546 1.43482 0.26889 0 0 0 1.65059 2.35598 -4.96052 
38 0.21985 1.02869 0.800807 0.601116 0 0 0 -0.640102 -0.169634 -1.01702 
39 -0.227463 0.894409 1.43968 0.703335 0 0 0 -1.58739 -0.029689 -0.0849047 
2 1.14966 0.675233 1.21353 0.42603 0 0 0 -4.14254 -2.31396 -1.3802 
351 0.859143 1.19145 1.32514 0.381098 0 0 0 -0.727869 -0.464485 0.443645 
42 0.799972 1.37177 1.32996 0.382826 0 0 0 0.818804 -0.146628 1.05487 
195 1.40657 0.799859 1.18838 0.381453 0 0 0 -2.14182 -3.62156 -0.893218 
318 1.49221 1.06869 1.34922 0.306653 0 0 0 1.80143 -3.84549 0.631565 
45 0.998551 0.224024 1.32982 0.545674 0 0 0 -1.04158 -1.56828 0.537173 
46 0.610444 0.267934 0.79068 0.635118 0 0 0 -0.974902 -0.894064 -1.36004 
47 1.21211 0.915314 0.835752 0.454217 0 0 0 -1.73095 -0.485085 0.988035 
48 0.526616 0.788817 1.37475 0.498785 0 0 0 -1.05288 -1.06533 0.0363499 
250 1.49188 1.08592 1.35641 0.30246 0 0 0 1.96555 -3.83576 0.343916 
79 1.49624 1.36941 1.46082 0.233517 0 0 0 3.64321 0.757175 0.549237 
51 0.476675 1.30496 0.949268 0.506039 0 0 0 0.169074 0.221633 -1.33572 
52 1.29203 0.226348 1.31754 0.525365 0 0 0 -0.907329 -1.91142 0.784946 
53 -0.0398891 0.626631 1.25892 0.678806 0 0 0 -1.45045 -0.441262 -0.414621 
54 1.02301 -0.400936 1.42877 0.747462 0 0 0 0.00509831 -1.7438 0.513777 
385 1.48526 1.28966 1.43147 0.252414 0 0 0 3.42519 -2.10788 0.489266 
56 1.27651 0.103588 1.02253 0.574016 0 0 0 -0.869612 -1.66903 -0.734803 
178 0.995036 1.43604 1.45857 0.329982 0 0 0 2.9101 1.35565 0.624026 
115 1.50527 1.1504 1.3764 0.287022 0 0 0 3.09646 -4.3859 0.777372 
59 0.618213 0.602598 1.24066 0.517392 0 0 0 -1.31674 -1.2683 -0.596023 
124 1.46276 1.03845 1.33351 0.314954 0 0 0 0.307862 -3.79398 1.07995 
306 1.50773 -0.285869 0.765563 0.723847 0 0 0 -0.1277 -1.60431 -0.68241 
64 0.863755 -0.33906 1.30461 0.73647 0 0 0 -0.275621 -1.69422 0.221048 
119 1.46936 1.29803 1.43365 0.251085 0 0 0 3.24287 -1.67111 0.898888 
313 1.06027 1.33634 1.41902 0.322542 0 0 0 1.0987 0.946737 2.21115 
149 1.36225 1.21564 1.35163 0.287132 0 0 0 -1.32996 -1.56257 -0.788982 
179 1.2709 0.655436 1.19793 0.420364 0 0 0 -3.49648 -2.75719 -1.57698 
106 1.48399 1.28128 1.42805 0.254532 0 0 0 3.33349 -2.41865 0.651844 
322 1.48978 1.08075 1.35422 0.303754 0 0 0 1.82451 -3.83008 0.431586 
19 1.48533 0.423843 1.00493 0.484897 0 0 0 -0.852855 -1.86254 -1.91694 
512 1.4942 1.3562 1.4562 0.23644 0 0 0 3.67235 0.311115 0.466033 
301 0.930613 1.30713 1.40803 0.352102 0 0 0 0.844441 0.695485 0.473171 
214 1.3994 0.983944 1.30053 0.332298 0 0 0 -2.34893 -3.66499 1.32638 
77 0.453285 1.43621 1.29507 0.467505 0 0 0 -0.730059 0.322671 -0.756601 
358 0.80263 1.13455 1.1541 0.418096 0 0 0 -0.811498 -0.81584 -0.341097 
81 0.658628 0.594054 1.15419 0.517897 0 0 0 -1.43266 -1.2458 -1.06382 
71 0.654124 1.22741 1.34848 0.421633 0 0 0 -0.472722 -0.274757 -0.366922 
329 0.872549 1.19711 1.34631 0.376299 0 0 0 -0.663869 -0.284791 0.350635 
57 1.51229 0.644694 1.1874 0.412434 0 0 0 -0.122734 -3.05681 -1.62623 
122 1.21655 0.673183 1.2029 0.420718 0 0 0 -3.98074 -2.58488 -1.52515 
74 0.974787 0.845285 1.26175 0.411892 0 0 0 -4.06602 -1.59228 -1.05759 
228 1.19612 1.41564 1.46552 0.285846 0 0 0 3.66128 1.69455 2.54277 
198 0.988614 1.43717 1.45868 0.331363 0 0 0 2.87816 1.25689 0.754104 
165 1.32818 0.926622 1.25837 0.353443 0 0 0 -4.30465 -3.5094 0.956054 
101 1.00027 1.23476 1.37485 0.345702 0 0 0 -1.00771 0.364793 1.16494 
82 0.914202 0.731777 1.19891 0.446427 0 0 0 -3.04085 -1.67013 -1.19374 
229 1.43794 1.01782 1.32157 0.321267 0 0 0 -0.817713 -3.73976 1.25633 
66 0.0779111 -0.209395 2.31732 0.901789 0 0 0 -0.687946 -1.05208 0.580834 
67 0.896593 0.389783 1.9898 0.568994 0 0 0 0.535212 -0.0874617 0.637785 
68 1.03629 0.897872 1.78783 0.431437 0 0 0 0.892991 2.98624 -4.25808 
95 0.398484 -0.0109056 2.10984 0.741996 0 0 0 -0.249912 -0.999984 0.679932 
70 0.431863 1.36488 2.12842 0.534682 0 0 0 0.501893 -0.113949 0.726848 
88 0.0603592 0.335403 2.25425 0.754697 0 0 0 -0.785905 -0.437354 0.780297 
55 0.179149 0.110079 1.56623 0.715518 0 0 0 -0.990346 -1.03046 0.129756 
63 0.0686934 1.42392 1.57716 0.574451 0 0 0 -1.3274 0.12234 0.333554 
87 -0.124829 0.602196 1.97093 0.726217 0 0 0 -1.2334 -0.227795 0.586436 
75 0.134229 1.38274 2.08426 0.597904 0 0 0 -0.600639 -0.111104 0.927848 
86 1.52819 0.494283 1.73489 0.483927 0 0 0 0.0890156 0.601165 0.00412196 
90 0.772502 1.18916 2.00601 0.467508 0 0 0 2.16492 1.08651 -1.69357 
78 0.397216 -0.00263303 2.21456 0.755243 0 0 0 -0.216476 -0.931592 0.705694 
113 0.978014 1.36001 2.06096 0.439912 0 0 0 2.96977 2.54562 -6.73591 
93 0.811344 0.804865 2.02329 0.511044 0 0 0 1.24664 0.892039 -0.290726 
92 0.388018 0.389792 1.87057 0.619936 0 0 0 -0.311891 -0.630188 0.888699 
108 1.1812 0.815754 2.12936 0.500494 0 0 0 1.03684 2.7348 -3.26179 
83 0.717769 1.15515 1.91968 0.462904 0 0 0 1.764 0.737058 -0.78707 
84 0.247412 0.0622334 2.16075 0.758667 0 0 0 -0.490183 -0.857545 0.6808 
96 1.42755 0.839322 1.89146 0.437814 0 0 0 0.311165 5.24167 -7.87517 
127 1.45838 0.642893 2.04464 0.504502 0 0 0 0.17944 2.32782 -2.51043 
34 -0.00995475 0.53052 1.66397 0.680599 0 0 0 -1.2569 -0.446982 0.29242 
60 0.616723 0.958432 1.89369 0.49654 0 0 0 0.906014 0.186405 0.694698 
25 1.06931 0.282775 1.61881 0.53764 0 0 0 -0.332216 -0.974047 1.42411 
76 0.569499 0.905024 1.57237 0.476954 0 0 0 -0.41087 -0.726924 0.959383 
94 0.548012 0.812208 1.57409 0.494662 0 0 0 -0.47415 -0.799136 1.01572 
37 0.451644 1.06436 1.55401 0.483799 0 0 0 -0.715251 -0.37271 0.801511 
49 -0.2251 0.992379 1.53528 0.693615 0 0 0 -1.56998 0.0720031 0.0721402 
125 1.09268 1.35857 2.31575 0.494742 0 0 0 1.87407 1.87938 -4.7624 
370 1.52837 0.876197 2.3462 0.535455 0 0 0 -0.113953 2.66189 -3.73633 
121 1.2299 0.0557161 2.56175 0.739898 0 0 0 0.420666 -0.46347 0.188907 
97 0.741258 0.963638 2.6719 0.641808 0 0 0 0.791113 0.769513 -0.0277447 
98 0.311901 1.03301 2.82434 0.738886 0 0 0 -0.0618655 0.189115 0.942158 
99 0.716607 0.0242816 2.58279 0.779048 0 0 0 0.238171 -0.650601 0.651575 
100 0.647804 0.403616 2.84607 0.773453 0 0 0 0.21817 0.0515926 0.748515 
128 0.383364 1.44118 2.49724 0.615767 0 0 0 0.291492 -0.114641 0.746849 
131 0.549719 1.23793 2.93584 0.721725 0 0 0 0.375454 0.238873 0.767497 
103 1.03332 0.516069 2.74005 0.695683 0 0 0 0.557526 0.579609 -0.0087864 
130 1.37067 0.465212 2.56845 0.651141 0 0 0 0.363756 0.736486 -0.682377 
114 1.06694 0.880382 2.58086 0.60421 0 0 0 0.894428 1.47521 -1.26385 
129 0.508149 0.0503785 3.07878 0.93857 0 0 0 -0.0943717 -0.452581 0.926416 
116 -0.0918075 0.828692 2.48471 0.76891 0 0 0 -0.92631 -0.00655928 0.912659 
117 -0.112812 0.373905 2.52757 0.849201 0 0 0 -0.963989 -0.312891 0.858343 
109 0.427185 0.944435 3.03849 0.79387 0 0 0 0.0460104 0.256782 0.963199 
110 0.486302 -0.25506 2.78202 0.938174 0 0 0 -0.121527 -0.936653 0.764145 
123 1.28799 1.23657 2.37883 0.51135 0 0 0 0.834642 2.64159 -5.32671 
112 1.16532 0.424953 2.80165 0.724468 0 0 0 0.467882 0.431148 0.0412868 
162 0.457141 2.5951 0.566882 0.691738 0 0 0 -0.199006 0.795913 -0.433735 
132 0.662221 2.53027 0.217889 0.7328 0 0 0 0.175148 0.271977 -0.335473 
133 0.0922388 1.78605 0.558713 0.665838 0 0 0 -0.45595 0.139895 -0.504164 
134 0.162151 2.01557 0.242428 0.736261 0 0 0 -0.340458 0.197201 -0.589832 
135 1.32373 2.40948 0.446204 0.616065 0 0 0 0.357536 -1.41327 1.05046 
136 1.10481 2.57107 0.555836 0.622616 0 0 0 0.397419 -0.469635 0.464778 
137 0.0490337 2.5059 0.614625 0.758157 0 0 0 -0.886036 0.864036 -0.49481 
138 0.513596 2.21214 0.0647094 0.745663 0 0 0 0.264196 0.00931381 -0.511823 
139 0.291597 2.24805 0.292714 0.722673 0 0 0 -0.18671 0.334767 -0.526104 
140 0.883335 2.73443 0.162876 0.770977 0 0 0 0.129479 0.36124 -0.290016 
141 -0.0439185 2.3866 0.160639 0.863762 0 0 0 -0.83566 0.588531 -0.612659 
142 1.45321 2.54108 0.575782 0.605432 0 0 0 -0.0152873 -1.15817 0.848445 
143 1.27571 2.91643 0.597735 0.68765 0 0 0 -0.092847 0.533082 -0.00200586 
160 0.794611 3.07602 0.428213 0.804015 0 0 0 -0.207706 1.1648 -0.290284 
145 0.495423 2.00223 0.0139377 0.740952 0 0 0 0.38488 -0.14095 -0.551332 
146 1.33715 2.00136 0.341059 0.60108 0 0 0 0.654422 -2.10926 2.10569 
147 0.766201 1.82077 0.226308 0.636296 0 0 0 1.19529 -0.679973 0.317663 
148 1.2668 3.02295 0.25203 0.799052 0 0 0 -0.0618284 0.640667 -0.233351 
156 0.0923334 1.95726 0.419735 0.70568 0 0 0 -0.503557 0.220028 -0.514317 
150 1.08321 1.84153 0.514022 0.54952 0 0 0 1.65377 -2.03894 2.64049 
155 0.802654 1.62672 0.139303 0.650625 0 0 0 1.20365 -0.523849 0.232191 
161 1.37471 2.00683 0.411138 0.582784 0 0 0 0.554468 -2.40394 2.53762 
159 0.0392276 1.48545 -0.0352921 0.821639 0 0 0 -0.532893 -0.159692 -0.89106 
170 1.13968 2.09622 1.09397 0.440544 0 0 0 1.46593 -3.77871 4.57951 
163 0.512818 2.85755 0.715425 0.721365 0 0 0 -0.362576 1.26012 -0.434178 
202 0.614155 2.0095 1.00202 0.503112 0 0 0 1.09989 -0.139501 -1.05796 
167 0.867412 1.79173 1.05683 0.436398 0 0 0 2.56062 -1.83473 2.56827 
225 1.49735 1.51636 1.51443 0.217516 0 0 0 -0.855422 -0.814159 -0.889226 
169 0.925719 1.73866 1.43073 0.356731 0 0 0 1.84616 -1.94798 4.92864 
201 -0.0239005 2.74169 0.921926 0.787362 0 0 0 -1.10166 1.15806 -0.493681 
171 0.344797 1.88397 1.31499 0.510872 0 0 0 -0.752271 0.28253 -1.14352 
183 1.0557 1.45292 1.4625 0.315987 0 0 0 3.41735 1.60669 1.20786 
30 0.792092 1.64482 1.51741 0.376351 0 0 0 1.02589 0.0812952 0.161853 
174 0.206878 1.77876 1.03603 0.567115 0 0 0 -0.476593 0.230791 -1.0229 
210 1.50148 1.47893 1.50125 0.217346 0 0 0 0.564542 0.98926 0.140715 
157 1.18864 2.27083 1.02743 0.478468 0 0 0 0.927559 -2.54603 1.97891 
152 1.07997 2.0894 0.712472 0.523342 0 0 0 1.53884 -2.43135 2.37613 
314 1.50113 1.48139 1.50212 0.217248 0 0 0 0.469763 0.865371 0.0368085 
197 0.0748387 2.23525 1.0802 0.643444 0 0 0 -1.00245 0.595578 -0.809935 
180 0.421872 2.02562 1.49853 0.493814 0 0 0 -1.13666 0.339451 -0.727821 
181 0.627685 2.08579 1.41776 0.456517 0 0 0 -0.467023 0.710849 -1.41791 
428 1.18669 2.56475 1.42783 0.483303 0 0 0 -0.598087 1.18338 -1.62202 
410 1.49911 1.48774 1.50438 0.217075 0 0 0 0.801698 0.612671 -0.0342889 
184 0.816887 2.82807 1.23688 0.603672 0 0 0 -0.22696 1.57114 -1.11912 
460 1.49413 1.50152 1.50836 0.217101 0 0 0 -0.273428 -0.0766429 -0.50914 
186 0.975643 2.81775 1.04021 0.606022 0 0 0 -0.0236983 1.00241 -0.639761 
196 0.570963 1.70122 1.47318 0.432141 0 0 0 -0.554036 0.191626 -0.178984 
188 0.309623 2.5385 1.32084 0.61326 0 0 0 -0.883931 1.28408 -1.11736 
200 0.952342 2.70818 1.14964 0.565978 0 0 0 0.0652612 0.95969 -1.03814 
190 0.811574 1.85975 1.03819 0.453605 0 0 0 2.21261 -1.24139 0.9792 
166 0.578328 1.64115 0.820061 0.51415 0 0 0 1.37954 -0.126807 -0.491351 
192 0.613366 2.06273 1.28736 0.468808 0 0 0 0.152051 0.52273 -1.66714 
193 1.11512 2.50092 1.38662 0.476143 0 0 0 -0.418075 0.868757 -1.52481 
203 1.49708 1.53528 1.52114 0.218899 0 0 0 -1.53224 -1.18076 -1.05656 
208 1.50103 1.48233 1.50246 0.217214 0 0 0 0.443526 0.81319 0.00345667 
41 1.49969 1.49087 1.50544 0.217014 0 0 0 0.110971 0.320301 -0.335727 
342 1.4981 1.50466 1.51029 0.217085 0 0 0 -0.413216 -0.389342 -0.700864 
164 1.49914 1.49496 1.50687 0.216985 0 0 0 -0.0437142 0.08731 -0.465596 
40 1.49907 1.4955 1.50706 0.216984 0 0 0 -0.0644316 0.0574605 -0.481366 
219 1.49839 1.50152 1.50918 0.217026 0 0 0 -0.293538 -0.247786 -0.634293 
73 1.49776 1.50902 1.51183 0.217206 0 0 0 -0.579185 -0.566458 -0.781069 
43 0.805607 1.44796 1.37081 0.376497 0 0 0 1.30529 -0.0248875 1.27883 
418 1.50719 1.47294 1.49917 0.217689 0 0 0 -0.37497 0.849665 0.0241585 
158 1.23226 1.80436 1.11322 0.389165 0 0 0 1.38653 -9.69172 21.2973 
394 1.50446 1.487 1.49864 0.217126 0 0 0 -0.307973 0.641976 -1.03398 
107 1.49844 1.45726 1.49538 0.218848 0 0 0 1.73309 1.28466 2.58007 
215 0.540867 2.16283 1.63004 0.479714 0 0 0 -1.42861 0.604069 -0.340543 
447 1.39749 2.80308 2.23839 0.567396 0 0 0 -0.109837 1.23067 1.24131 
205 0.0357061 1.958 2.06486 0.630641 0 0 0 -1.35408 -0.385502 0.701789 
206 1.02526 2.47209 2.29806 0.526083 0 0 0 -0.784459 0.0757629 2.24088 
207 0.438844 2.84842 1.72195 0.648683 0 0 0 -0.970146 1.70351 -0.719325 
257 1.1462 1.73855 1.5693 0.30809 0 0 0 0.150189 1.3677 0.792731 
194 0.555389 1.94539 1.63957 0.452294 0 0 0 -1.3248 0.0738891 0.248865 
235 1.21548 2.18612 2.35239 0.493662 0 0 0 -0.515513 -1.03704 1.78965 
211 0.956348 2.92222 2.05614 0.605037 0 0 0 -0.719715 1.80986 0.0663013 
212 0.453128 2.60916 1.67387 0.582916 0 0 0 -1.1616 1.49548 -0.741592 
213 0.821558 1.77282 1.80142 0.397826 0 0 0 -0.215416 0.012425 -1.25231 
242 0.400457 2.35909 2.29195 0.5956 0 0 0 -1.03597 -0.27233 1.19627 
231 0.848338 2.32006 2.12816 0.491559 0 0 0 -1.46632 0.000741182 2.18588 
216 1.16683 2.9485 2.0896 0.59937 0 0 0 -0.547676 1.81478 0.245483 
217 0.343199 2.85139 1.83538 0.671174 0 0 0 -1.07812 1.48819 -0.520594 
218 0.188129 2.60237 1.94756 0.653439 0 0 0 -1.42616 0.765583 -0.0979228 
468 0.852813 2.30967 1.8553 0.453565 0 0 0 -2.19975 1.12495 0.887531 
204 0.982433 2.13675 1.79705 0.400181 0 0 0 -3.11364 1.07148 0.489673 
221 0.781358 2.16855 1.99555 0.461679 0 0 0 -1.8177 -0.142063 1.8915 
222 0.87464 2.13024 1.82115 0.418688 0 0 0 -2.52236 0.608286 0.876267 
223 0.648259 1.75377 1.73341 0.42543 0 0 0 -0.647567 -0.244234 0.582134 
246 1.14636 1.7805 1.58 0.313135 0 0 0 -0.965903 1.3204 0.385484 
104 0.23399 1.55828 2.31382 0.605702 0 0 0 -0.274003 -0.332359 0.943767 
226 1.33009 3.06355 2.06162 0.626232 0 0 0 -0.383179 1.88233 0.038337 
227 0.1473 1.58649 2.08044 0.590158 0 0 0 -0.739064 -0.333822 0.957647 
234 1.08919 1.77503 1.65722 0.327873 0 0 0 -0.111541 5.13745 -13.7842 
238 1.01266 1.72345 1.58263 0.333677 0 0 0 1.237 1.37753 -3.74532 
321 1.32125 2.33263 1.84132 0.409756 0 0 0 -2.19665 3.09489 1.05806 
475 0.852219 2.20785 1.83084 0.43453 0 0 0 -2.39321 0.831342 0.935996 
476 1.236 2.27058 2.30392 0.488506 0 0 0 -0.669838 -0.591836 2.29715 
189 0.782452 2.2393 1.56136 0.444169 0 0 0 -1.22529 1.24352 -1.12488 
239 1.34949 1.89792 1.62617 0.30419 0 0 0 -5.24328 3.48699 3.25295 
328 1.239 2.6119 1.80516 0.480291 0 0 0 -1.13643 2.55659 -0.289802 
185 0.0296337 2.45809 1.54538 0.667554 0 0 0 -1.48902 0.759416 -0.529511 
337 1.08116 2.12647 1.79494 0.38486 0 0 0 -3.71897 1.54309 0.134417 
462 1.494 3.28883 1.96818 0.696857 0 0 0 -0.327476 1.96138 -0.252664 
168 1.33184 1.85862 1.63156 0.298788 0 0 0 -4.91653 3.8825 2.86582 
247 1.21226 2.26017 1.82707 0.399116 0 0 0 -3.19355 2.60107 0.841756 
177 1.34231 2.09074 1.75652 0.350183 0 0 0 -4.1037 3.77399 -1.22921 
485 1.5067 2.80876 2.33205 0.583722 0 0 0 0.0958094 0.92898 1.38005 
264 1.37209 2.24532 1.82701 0.387491 0 0 0 -2.45573 3.42767 0.95145 
69 1.40449 2.22363 1.82304 0.381683 0 0 0 -2.28824 3.58827 0.832259 
483 1.42127 2.31225 1.83497 0.402125 0 0 0 -1.57702 3.46074 1.19406 
350 1.43899 2.292 1.83175 0.397132 0 0 0 -1.51845 3.54178 1.19878 
249 0.810746 1.71806 2.34598 0.511764 0 0 0 1.12862 -0.642049 -0.195855 
420 1.11135 1.94426 1.68018 0.344427 0 0 0 -3.58122 1.6033 -2.54881 
240 1.42888 1.99383 1.67738 0.32076 0 0 0 -4.04929 3.95805 0.324813 
300 1.51915 1.67208 1.57346 0.24525 0 0 0 -3.20886 2.24481 -0.65669 
398 1.51862 1.67008 1.57263 0.244756 0 0 0 -3.21726 2.19425 -0.698638 
29 0.0998221 1.58839 1.57877 0.564954 0 0 0 -1.3414 0.0104158 0.251656 
224 1.1137 1.66991 1.54005 0.307835 0 0 0 2.25587 1.35951 0.491152 
111 0.951818 1.52524 1.75497 0.365722 0 0 0 2.94878 3.99187 -11.4196 
105 1.42237 1.74491 1.56874 0.264089 0 0 0 -3.21519 2.29595 8.89992 
172 1.02342 1.85687 1.56824 0.344255 0 0 0 -0.615287 -1.55269 3.58338 
153 1.36634 1.7234 1.67657 0.28017 0 0 0 -1.66365 12.4818 -21.81 
341 1.49772 1.55244 1.52725 0.220822 0 0 0 -2.07032 -1.20589 -1.11833 
144 1.49736 1.55543 1.52765 0.221187 0 0 0 -2.02578 -1.23387 -0.918874 
332 1.49424 1.56547 1.53147 0.222686 0 0 0 -0.542116 -0.875115 -0.944313 
486 1.5315 1.94568 2.15278 0.420407 0 0 0 -0.552274 0.806989 -5.18694 
336 1.53232 1.71297 1.59081 0.255617 0 0 0 -2.8639 3.07113 0.0530281 
80 1.49759 1.55013 1.52642 0.220529 0 0 0 -2.00304 -1.21785 -1.11343 
232 0.49216 2.02195 2.69549 0.642612 0 0 0 -0.0745391 -0.804791 1.41702 
233 0.819154 1.89517 2.82464 0.638637 0 0 0 0.440532 -0.774776 1.0262 
255 -0.0545607 2.84034 2.49112 0.830807 0 0 0 -1.33128 0.662503 0.395577 
266 0.366652 1.98499 2.58794 0.636923 0 0 0 -0.320958 -0.749398 1.30892 
236 1.10598 2.61864 2.76414 0.651241 0 0 0 -0.0562633 -0.16782 1.86492 
237 0.373428 2.44496 2.44691 0.637519 0 0 0 -0.879447 -0.19509 1.142 
262 0.719181 1.67966 2.53177 0.568063 0 0 0 0.92628 -0.484204 0.33907 
254 0.214174 2.73861 3.11697 0.891497 0 0 0 -0.712466 0.273402 1.45047 
118 0.0283915 1.48111 2.6882 0.743109 0 0 0 -0.653608 -0.166583 1.0143 
241 0.939424 2.12978 3.11427 0.7283 0 0 0 0.137893 -0.661517 1.54254 
265 0.0329527 3.01139 2.61218 0.868524 0 0 0 -1.12544 0.909769 0.52546 
243 0.559647 3.01398 2.64267 0.760245 0 0 0 -0.50882 1.0028 0.85835 
244 -0.0538483 3.17009 2.96979 1.01469 0 0 0 -0.98922 0.906809 0.853294 
245 1.25688 2.18075 2.86043 0.631954 0 0 0 -0.0453291 -0.976654 1.3766 
256 0.0639196 2.93296 2.98772 0.928312 0 0 0 -0.93869 0.617749 1.10108 
260 -0.0684649 2.86215 2.72929 0.884982 0 0 0 -1.22646 0.592828 0.736854 
248 0.535507 2.66342 2.98132 0.7745 0 0 0 -0.342564 0.0705778 1.64871 
507 1.514 2.78544 2.91087 0.717643 0 0 0 0.00164813 0.241185 1.77994 
258 0.563514 2.96535 3.08818 0.865753 0 0 0 -0.344507 0.623051 1.4781 
251 0.511303 2.47669 2.63315 0.654785 0 0 0 -0.499768 -0.285971 1.47386 
252 -0.111927 2.39186 2.39214 0.756582 0 0 0 -1.48804 -0.0397582 0.500044 
253 1.04036 3.18639 2.78129 0.794807 0 0 0 -0.146915 1.14522 1.12593 
267 1.82892 0.385598 0.477772 0.596854 0 0 0 -0.154283 -0.0364385 -2.08399 
268 2.77884 0.405525 0.28606 0.786134 0 0 0 1.25567 -0.459851 -1.24518 
269 2.2067 0.0402843 -0.170103 0.890933 0 0 0 0.374258 -0.769629 -1.63989 
270 2.56706 0.059456 -0.0701772 0.911772 0 0 0 0.827069 -0.801611 -1.41334 
291 2.17938 0.517071 -0.0151525 0.745449 0 0 0 0.104527 -0.0265246 -1.80512 
272 2.8825 0.826455 0.434372 0.720701 0 0 0 1.24074 0.0309414 -1.12001 
273 1.72709 1.05679 0.271324 0.594023 0 0 0 -0.639147 0.752365 0.272496 
295 2.1713 1.36023 0.380863 0.583848 0 0 0 -1.32076 0.225658 0.268002 
275 2.66358 -0.0269353 -0.00182151 0.93327 0 0 0 0.952079 -0.90307 -1.25182 
276 1.80978 0.075246 0.0483139 0.77895 0 0 0 -0.0838287 -0.687914 -1.77594 
294 1.7398 1.32132 0.468063 0.539314 0 0 0 -1.13507 0.0487138 2.88254 
278 1.84913 0.118937 -0.0193178 0.792011 0 0 0 -0.053732 -0.613863 -1.79866 
279 2.175 0.767306 0.422028 0.586649 0 0 0 -0.127624 0.711298 -1.57241 
290 2.36631 1.24236 0.156957 0.668462 0 0 0 -0.466687 0.307263 -0.928673 
281 2.44926 1.10437 0.372454 0.618623 0 0 0 -0.226736 0.581789 -1.09596 
289 2.44024 0.744302 0.539644 0.597764 0 0 0 0.576915 0.387496 -1.48429 
292 2.33956 0.902125 0.628311 0.547958 0 0 0 0.151891 0.786988 -1.3619 
284 1.63517 0.788285 0.385008 0.570141 0 0 0 -0.509448 0.940169 -0.962156 
285 2.84964 1.17716 0.0625884 0.79131 0 0 0 0.715096 0.055515 -1.24819 
286 1.78723 0.485721 0.444933 0.587351 0 0 0 -0.294123 0.282605 -2.06144 
287 2.57698 1.17322 0.48256 0.611561 0 0 0 0.0428283 0.53962 -1.03001 
288 2.12027 0.470308 0.103725 0.706468 0 0 0 0.0547965 -0.00961834 -1.83865 
283 2.43674 -0.0381416 0.797332 0.720711 0 0 0 1.11702 -1.28525 -0.558128 
297 2.10953 0.404039 1.31448 0.507882 0 0 0 1.90403 -1.28981 1.11 
298 2.93001 0.378399 1.22614 0.699642 0 0 0 1.80708 -0.768784 0.103682 
299 2.17786 0.794496 1.15772 0.446812 0 0 0 3.04137 -0.0325265 -0.486684 
326 2.16132 0.241577 1.27565 0.557616 0 0 0 1.36191 -1.47827 0.897747 
421 1.83954 1.44084 1.50274 0.295542 0 0 0 -2.29017 -3.41424 -0.0490222 
302 2.2023 0.171766 1.03879 0.5931 0 0 0 1.23406 -1.32833 -0.190312 
409 1.68112 1.13811 1.38277 0.302342 0 0 0 7.62383 -3.47625 0.200013 
304 2.56842 0.9077 0.967201 0.53266 0 0 0 1.36624 0.342742 -0.8438 
327 2.48296 0.0221867 1.06097 0.686 0 0 0 1.27706 -1.34486 -0.00758824 
271 2.03991 0.860397 1.25086 0.407328 0 0 0 4.83277 -0.126885 -0.068528 
325 1.98594 0.35555 1.00004 0.521515 0 0 0 1.37369 -1.15553 -1.0399 
308 1.84278 0.353842 1.39549 0.497795 0 0 0 1.14364 -1.67551 1.551 
309 2.88629 1.00557 1.17505 0.594011 0 0 0 1.74592 0.142682 -0.102395 
352 2.85341 1.20475 1.47989 0.560578 0 0 0 1.76129 0.054219 0.517028 
311 2.00274 0.716304 0.965144 0.458609 0 0 0 2.42572 -0.0077659 -1.77909 
312 2.53391 1.33844 0.846884 0.525579 0 0 0 -0.117189 0.548503 -0.597165 
293 2.4231 1.11164 0.861814 0.504926 0 0 0 0.210322 0.810944 -0.879231 
324 1.62813 -0.0598007 0.885014 0.633874 0 0 0 -0.114648 -1.61406 -0.685086 
315 2.60039 1.07859 1.23024 0.500886 0 0 0 1.63821 0.26107 -0.0846049 
316 2.72628 0.872234 1.06806 0.566482 0 0 0 1.689 0.0839681 -0.390941 
317 2.17448 0.00895224 1.26039 0.630986 0 0 0 0.833468 -1.67314 0.738111 
345 2.10889 1.08502 1.35917 0.384712 0 0 0 3.15612 0.530349 0.357451 
323 2.38134 0.331224 1.4536 0.569986 0 0 0 1.39881 -1.12563 1.28543 
455 2.55584 1.28173 1.36755 0.472766 0 0 0 1.51378 0.132498 0.181909 
435 2.27639 1.22552 1.31463 0.41136 0 0 0 0.998879 0.0651477 0.565555 
448 2.20141 1.19778 1.32869 0.395786 0 0 0 1.29442 0.0625907 0.913658 
330 2.1282 0.968261 1.33153 0.403423 0 0 0 3.69304 0.316792 0.284986 
333 2.0246 1.08667 1.30523 0.371338 0 0 0 4.55151 0.016545 1.82263 
320 2.05153 1.24466 1.39439 0.356994 0 0 0 1.45122 -0.218884 1.6763 
85 1.93767 0.688027 1.22732 0.424794 0 0 0 4.19016 -1.03519 -0.384164 
72 1.85279 0.835644 1.34411 0.381423 0 0 0 5.98977 -0.14019 -1.58433 
280 1.92793 1.15719 0.954527 0.418534 0 0 0 0.281911 -0.516205 5.51821 
282 1.82599 1.09003 1.37787 0.331796 0 0 0 7.68087 0.0342875 -2.08853 
58 1.53876 0.410761 0.794828 0.520967 0 0 0 -0.628907 -0.813585 -2.48362 
7 1.78038 0.749626 1.18987 0.399089 0 0 0 4.57885 -1.93044 -1.07272 
175 1.6862 0.702466 1.18442 0.40297 0 0 0 3.05503 -2.53264 -1.3965 
151 1.67338 0.694856 1.1842 0.404027 0 0 0 2.8034 -2.59536 -1.42866 
102 1.68174 0.685792 1.18738 0.406096 0 0 0 2.832 -2.53422 -1.39619 
401 1.68764 1.21329 1.38466 0.290461 0 0 0 6.15782 -7.40101 9.30944 
431 1.82255 1.38592 1.47813 0.294159 0 0 0 -1.17539 -3.90207 1.50176 
230 1.56873 0.813986 1.19065 0.375192 0 0 0 1.90239 -3.51177 -0.549748 
402 1.95157 1.39053 1.1828 0.365147 0 0 0 -1.92853 -6.34945 17.6099 
61 2.06139 1.43224 1.48036 0.347739 0 0 0 -1.14249 -1.5827 0.681711 
305 2.1485 1.42894 1.51639 0.368182 0 0 0 -0.451849 -0.690374 -0.938137 
89 2.192 1.43909 1.48267 0.378188 0 0 0 -0.208325 -1.02952 0.257981 
363 1.70564 1.4207 1.51236 0.263042 0 0 0 1.53622 23.0324 -69.0274 
500 2.10569 1.32175 1.8839 0.412441 0 0 0 -1.33903 1.80864 -6.18441 
355 2.35839 0.18445 1.86313 0.634471 0 0 0 0.366746 -1.0771 1.05971 
381 3.11613 1.01979 2.35073 0.739097 0 0 0 1.30344 -0.262246 0.688448 
331 2.87924 0.078804 2.06589 0.792855 0 0 0 1.08634 -1.15051 0.611495 
364 1.76962 0.735995 2.16028 0.517307 0 0 0 -0.565223 2.08264 -2.77007 
456 2.33967 1.28734 1.85278 0.452109 0 0 0 -0.0215413 -0.0187891 -0.567824 
334 2.84871 0.650637 1.56623 0.619735 0 0 0 1.61397 -0.526291 0.796528 
379 2.85971 0.751267 2.16119 0.66274 0 0 0 0.957019 -0.29647 0.716402 
357 2.79171 1.1106 1.69075 0.555739 0 0 0 1.47442 -0.156991 0.974983 
349 2.50806 1.06994 1.68913 0.485856 0 0 0 1.04821 -0.243033 1.0742 
338 2.91329 1.04907 1.57017 0.592008 0 0 0 1.69176 -0.0902016 0.716339 
339 2.60637 0.208203 1.7826 0.663659 0 0 0 0.88026 -1.0995 0.930387 
340 2.03196 0.919081 1.73824 0.427766 0 0 0 0.610241 2.04097 -2.76133 
380 2.25571 1.36196 2.17206 0.492285 0 0 0 -0.922119 0.226994 -1.48841 
356 2.53184 0.904635 2.0194 0.548951 0 0 0 0.229744 -0.0734124 0.595579 
359 2.00327 -0.0960542 2.15982 0.722348 0 0 0 0.00876294 -1.20856 0.524055 
344 2.80142 -0.0437827 2.11853 0.816016 0 0 0 0.909485 -1.29331 0.606379 
348 3.04077 1.33757 1.60003 0.619056 0 0 0 1.74348 -0.105231 0.435889 
346 1.58774 0.374973 1.94495 0.544623 0 0 0 0.0740948 0.360888 0.055116 
354 2.04636 0.843233 1.58868 0.42271 0 0 0 2.33703 1.06343 -0.593113 
368 2.37677 0.682569 2.36623 0.614732 0 0 0 -0.272357 0.0966714 0.0450022 
366 1.71031 1.38232 2.04873 0.405687 0 0 0 -1.48408 7.06649 -20.3668 
371 2.18583 0.971476 2.33557 0.55166 0 0 0 -0.951512 0.813046 -1.29552 
377 1.74601 1.18747 1.97094 0.407203 0 0 0 -1.22616 7.54628 -18.0461 
360 1.90747 0.404478 2.3254 0.616733 0 0 0 -0.290883 0.209286 -0.467809 
361 2.15681 1.26107 2.27566 0.509604 0 0 0 -1.32491 0.772316 -2.22145 
335 2.54276 0.223577 1.52697 0.631494 0 0 0 1.2022 -1.16851 0.995546 
384 1.99729 -0.0776388 2.77943 0.849449 0 0 0 0.0754995 -0.817719 0.466741 
376 2.66835 0.594172 2.77917 0.779064 0 0 0 0.370222 -0.267699 0.787344 
375 2.39585 0.989107 2.70504 0.665024 0 0 0 -0.364305 0.253845 0.190226 
362 2.50173 1.42621 2.86667 0.696431 0 0 0 -0.126926 -0.20784 0.712547 
126 1.54709 0.230959 2.44275 0.66991 0 0 0 0.190673 -0.0432017 -0.289625 
383 3.11738 1.16306 2.83543 0.835525 0 0 0 1.03595 -0.275994 0.893855 
365 2.96941 -0.0926791 2.52754 0.942727 0 0 0 0.964709 -1.11943 0.625908 
374 2.49303 0.362286 2.58451 0.739406 0 0 0 0.16378 -0.519022 0.603603 
367 2.83512 -0.0952202 2.44692 0.894595 0 0 0 0.82861 -1.20581 0.631847 
382 2.46012 0.611973 2.90139 0.779648 0 0 0 0.00282465 -0.0960706 0.703927 
369 2.63778 0.580109 2.64824 0.739168 0 0 0 0.331756 -0.276061 0.688872 
373 2.14105 0.726535 2.45077 0.603869 0 0 0 -0.651254 0.594263 -0.680565 
406 2.09112 2.16896 0.43084 0.611265 0 0 0 -1.06555 -1.4341 0.481146 
386 2.0284 2.99123 0.371048 0.772706 0 0 0 -0.203153 0.499841 -0.469315 
387 2.72329 1.69898 0.609378 0.620611 0 0 0 0.125405 -0.139181 -0.670067 
408 1.85313 2.49566 0.31794 0.670083 0 0 0 -0.440785 -0.943458 0.185448 
389 2.18616 3.05826 0.428306 0.790718 0 0 0 -0.0941001 0.695847 -0.557207 
390 2.98318 1.77901 0.535154 0.707932 0 0 0 0.849958 -0.129215 -0.77956 
391 2.11534 1.83161 0.648488 0.532526 0 0 0 -2.13326 -1.7888 1.75431 
403 2.5459 2.18678 0.119715 0.751351 0 0 0 -0.0754416 -0.411415 -0.815051 
393 2.66093 2.28842 0.183063 0.764203 0 0 0 0.173622 -0.246695 -0.873318 
405 2.78811 3.02173 -0.121113 1.01931 0 0 0 0.448673 0.483341 -0.802733 
395 1.8138 2.31842 0.625912 0.567286 0 0 0 -0.975052 -2.06637 1.31387 
396 2.10804 2.72738 0.663081 0.647389 0 0 0 -0.447573 -0.0233143 -0.398816 
397 2.16783 2.01055 -0.00250855 0.730132 0 0 0 -0.551801 -0.808893 -0.32688 
407 3.03609 2.65996 0.0661353 0.941522 0 0 0 0.752094 0.242136 -0.877925 
399 2.55634 2.07553 0.339479 0.678297 0 0 0 -0.217672 -0.5106 -0.662312 
400 3.03867 3.09633 0.0948043 1.03122 0 0 0 0.703319 0.615657 -0.726254 
404 2.54911 1.82912 0.135098 0.717735 0 0 0 -0.227232 -0.383292 -0.795829 
392 1.64896 1.70186 1.30245 0.313598 0 0 0 -4.39731 -24.5799 61.8144 
347 1.74968 2.58561 1.44171 0.482408 0 0 0 -0.442422 0.909016 -1.16962 
470 3.18034 2.73685 1.51285 0.777334 0 0 0 1.36502 0.54526 -0.2835 
412 2.83896 2.70487 0.904629 0.719797 0 0 0 0.791074 0.476978 -0.69505 
413 2.99687 2.31763 1.18363 0.663646 0 0 0 1.32585 -0.0830328 -0.62543 
414 2.35624 1.78558 1.13988 0.461763 0 0 0 -0.742057 -1.47664 0.0408929 
415 2.18729 1.9517 0.95964 0.482594 0 0 0 -2.14023 -2.22286 1.05751 
416 1.76813 2.56765 1.21183 0.503756 0 0 0 -0.959975 -0.469343 -0.755503 
454 1.96176 3.07035 1.40585 0.634756 0 0 0 -0.187822 1.48749 -0.880992 
427 1.90156 2.97812 1.41372 0.600582 0 0 0 -0.275431 1.39297 -1.01349 
419 3.09087 2.31628 1.28366 0.685431 0 0 0 1.47359 -0.0907292 -0.502467 
457 2.18048 2.18526 1.39274 0.445663 0 0 0 0.66417 -0.848404 -0.804377 
411 1.77752 1.49708 1.51758 0.279054 0 0 0 -3.50333 -3.86799 0.146372 
422 2.52327 1.82722 0.892713 0.534171 0 0 0 -0.488505 -0.711506 -0.445594 
423 2.22281 3.17065 1.41836 0.692849 0 0 0 0.211826 1.49871 -0.62528 
424 1.98908 2.69972 0.785544 0.609123 0 0 0 -0.644649 -0.213526 -0.311732 
425 2.52502 2.65947 0.978214 0.634305 0 0 0 0.284942 0.379841 -0.819764 
426 2.16555 2.22826 1.02762 0.500696 0 0 0 -1.39643 -1.51874 -0.245551 
446 2.15403 1.47216 1.43063 0.370643 0 0 0 -0.757596 -2.07792 2.30986 
441 3.15009 2.03261 1.39372 0.670919 0 0 0 1.68537 -0.393112 -0.321691 
429 2.28301 3.01719 0.830938 0.710772 0 0 0 -0.0175304 0.880808 -0.645504 
430 3.24666 2.98695 1.29672 0.86617 0 0 0 1.22318 0.801672 -0.32843 
449 2.29125 2.24049 1.41348 0.472488 0 0 0 0.979673 -0.23803 -1.01196 
388 1.59811 2.19682 1.01817 0.463182 0 0 0 -1.12531 -4.52496 4.55172 
433 2.03726 1.738 1.21708 0.390791 0 0 0 -3.06218 -5.99467 9.07595 
434 1.60082 2.73668 1.06615 0.55863 0 0 0 -0.646757 -0.104381 -0.507387 
432 2.37388 1.88404 1.3499 0.447539 0 0 0 0.877523 -1.55931 -0.547185 
436 3.01036 2.09203 0.843108 0.681815 0 0 0 1.07795 -0.223338 -0.688433 
437 2.8462 1.57157 0.966138 0.587293 0 0 0 0.941111 0.0776139 -0.585544 
438 2.8555 2.16438 1.42914 0.589202 0 0 0 1.62876 -0.368288 -0.503917 
439 3.06985 3.26361 1.23339 0.897859 0 0 0 0.949546 1.11243 -0.325506 
440 2.10108 2.01538 0.939854 0.483858 0 0 0 -2.34474 -2.61684 1.56038 
458 2.14521 2.40779 1.42054 0.480224 0 0 0 0.451863 0.376005 -1.0474 
464 2.20089 2.07552 1.39204 0.431482 0 0 0 0.776087 -1.57473 -0.489449 
443 2.58771 1.94946 2.09056 0.535522 0 0 0 1.22742 -0.883178 1.06631 
444 2.8486 1.46504 1.86655 0.570207 0 0 0 1.47567 -0.4959 0.741184 
445 2.81527 2.21551 2.1293 0.614389 0 0 0 1.21889 -0.376508 0.618652 
310 1.78294 2.08929 1.76574 0.364649 0 0 0 2.92935 1.76751 -0.104242 
372 1.61022 2.19645 1.81033 0.377711 0 0 0 0.3909 3.52847 0.842665 
296 2.37677 1.99587 1.7502 0.454791 0 0 0 2.73135 -0.91264 0.691493 
471 1.98875 1.90613 1.68087 0.358626 0 0 0 3.68217 -2.27027 -0.855652 
450 2.68 1.85887 1.96779 0.537547 0 0 0 1.57158 -0.979807 0.850423 
182 1.64286 1.8895 1.64868 0.302928 0 0 0 0.631193 1.14058 2.03358 
452 2.11881 2.90998 1.68517 0.592224 0 0 0 0.466489 1.44553 -0.39891 
453 1.56028 2.45095 2.19982 0.487036 0 0 0 0.35418 0.82734 2.32791 
469 2.08406 1.70842 2.05619 0.431064 0 0 0 0.0260828 -0.35512 -3.08912 
343 2.09718 1.70346 1.57754 0.360073 0 0 0 0.921649 -3.60552 0.0494692 
481 2.16303 2.25178 1.79844 0.45174 0 0 0 2.75668 0.771936 1.11111 
467 1.86345 2.64931 1.66668 0.495963 0 0 0 0.528455 1.84496 -0.479508 
378 1.78868 2.33536 1.81545 0.420989 0 0 0 1.83497 2.73096 1.37868 
459 3.15664 2.7618 2.17728 0.803692 0 0 0 1.33109 0.599022 0.259748 
277 1.76729 1.99982 1.70693 0.340651 0 0 0 3.00468 0.914708 -1.08451 
461 1.65114 2.97999 1.7122 0.58097 0 0 0 -0.214484 1.91983 -0.769182 
263 1.87896 1.99472 1.72044 0.355846 0 0 0 3.8755 -0.294754 -0.869923 
261 1.68405 1.99279 1.69119 0.329303 0 0 0 1.71166 1.80464 -0.603173 
176 1.90638 1.54433 1.53657 0.311137 0 0 0 -2.19391 -3.76061 0.587794 
465 1.96043 2.96194 1.89533 0.597784 0 0 0 0.441381 1.55927 0.0161943 
466 2.24247 3.27131 1.79524 0.726837 0 0 0 0.41926 1.62689 -0.194188 
319 2.24976 1.91453 1.63878 0.411733 0 0 0 2.91651 -1.83084 0.106778 
478 2.18734 3.04936 2.25827 0.683239 0 0 0 0.539355 1.21411 0.572455 
484 1.90492 2.64752 2.31715 0.562313 0 0 0 0.647536 0.489734 1.45387 
187 2.13032 2.09995 1.70539 0.413711 0 0 0 3.45058 -0.361633 0.630782 
509 3.29297 2.84291 2.26144 0.875197 0 0 0 1.37372 0.653923 0.329604 
488 2.31767 1.87767 1.72535 0.429172 0 0 0 2.78248 -1.52808 0.406185 
492 2.70859 2.30871 2.28735 0.620863 0 0 0 0.893933 -0.213767 0.823974 
494 2.94687 2.34984 2.28063 0.684461 0 0 0 1.18415 -0.127219 0.575929 
504 2.87672 1.9456 2.27657 0.631953 0 0 0 1.10363 -0.739881 0.756582 
199 1.89316 1.96045 1.70228 0.351188 0 0 0 3.8947 -0.92679 -1.12803 
120 1.67259 1.9638 1.67438 0.32149 0 0 0 1.45866 1.53482 -0.00665737 
442 2.28184 1.67739 1.7112 0.410209 0 0 0 1.68425 -1.59476 -0.50489 
498 2.04613 1.55965 1.97777 0.409435 0 0 0 -0.910452 1.0853 -7.14778 
487 1.91916 2.03368 2.33112 0.488957 0 0 0 0.0325931 -0.698185 0.224772 
209 2.03145 1.70588 1.59109 0.345965 0 0 0 0.865857 -3.84833 -0.484334 
36 2.10179 2.14084 1.72251 0.416347 0 0 0 3.40612 0.0973771 0.77416 
191 1.67812 1.96819 1.67706 0.323026 0 0 0 1.57609 1.52166 -0.148784 
417 2.33714 2.53508 1.7657 0.533536 0 0 0 1.29999 0.97343 0.25902 
451 2.99114 2.22371 1.53029 0.633453 0 0 0 1.65109 -0.275863 -0.312248 
259 1.58512 1.88708 1.64909 0.297931 0 0 0 -0.811448 2.34973 2.43775 
463 1.58447 1.95969 1.66739 0.313836 0 0 0 -0.644726 2.58974 1.31917 
307 1.54445 1.74376 1.60346 0.263564 0 0 0 -2.47173 3.24425 0.803391 
220 1.54372 1.74206 1.60278 0.263123 0 0 0 -2.49611 3.24441 0.759855 
496 2.03147 2.50601 2.78625 0.657587 0 0 0 0.0310618 -0.181226 1.52985 
472 2.0747 1.79642 2.63684 0.574766 0 0 0 -0.779179 -0.595607 -0.0764356 
473 1.75625 1.5959 2.58875 0.549214 0 0 0 -1.1776 0.121222 -2.34806 
474 2.95854 3.17647 2.68346 0.934256 0 0 0 0.901259 1.04182 0.755747 
497 1.61663 1.94127 2.57965 0.539008 0 0 0 -0.635481 -1.02513 -0.520805 
502 2.22662 2.57159 2.71503 0.667086 0 0 0 0.220393 0.0468126 1.38662 
477 3.17714 2.0138 2.59479 0.781979 0 0 0 1.29714 -0.453759 0.857164 
513 2.63017 3.0298 3.05945 0.919998 0 0 0 0.557671 0.805121 1.27698 
479 1.80984 1.75127 2.41699 0.498559 0 0 0 -1.15675 -0.356545 -2.63248 
501 1.6536 2.4538 3.00118 0.698251 0 0 0 -0.144802 -0.376352 1.73332 
503 2.03372 3.15351 2.47845 0.734327 0 0 0 0.328424 1.26101 0.849362 
482 1.57532 3.16058 3.12965 0.87585 0 0 0 0.0454611 0.862641 1.49564 
511 3.00815 2.13234 2.41307 0.702012 0 0 0 1.18575 -0.463506 0.754372 
510 2.10249 2.54653 2.61072 0.623523 0 0 0 0.225983 -0.0462978 1.3835 
508 2.62305 1.96044 3.05692 0.772123 0 0 0 0.282799 -0.409119 1.38038 
505 3.15568 2.91939 3.22206 1.06052 0 0 0 0.887151 0.587054 1.13086 
499 1.80691 1.78436 2.91322 0.645107 0 0 0 -0.70545 -0.515563 0.136704 
495 2.94832 1.72933 2.7966 0.758143 0 0 0 0.827157 -0.506853 1.07252 
489 3.12957 1.50361 3.00018 0.86801 0 0 0 0.959305 -0.334822 1.0465 
490 2.37284 2.40854 2.58346 0.629828 0 0 0 0.30472 -0.18117 1.22528 
491 2.27434 1.49882 2.74564 0.629951 0 0 0 -0.618155 -0.160387 0.104051 
506 1.97648 2.06882 3.04671 0.70028 0 0 0 -0.385096 -0.559236 1.21405 
493 3.07267 3.01075 2.79147 0.943095 0 0 0 1.00008 0.81725 0.886009 
480 2.35966 2.25058 2.39424 0.569221 0 0 0 0.406813 -0.387106 1.22444 
ITEM: TIMESTEP
801000
ITEM: NUMBER OF ATOMS
512
ITEM: BOX BOUNDS ss ss ss
-2.2775349561678951e-01 3.2932607586404616e+00
-4.0122540508749138e-01 3.2891132425832117e+00
-1.7039273299291779e-01 3.2223573019164853e+00
ITEM: ATOMS id x y z width_SPH x_COM y_COM z_COM vx vy vz 
23 0.539289 1.16104 0.372779 0.613016 0 0 0 0.633794 -0.0976177 -0.569948 
3 -0.140333 -0.124436 0.093971 1.0357 0 0 0 -1.01064 -0.934111 -0.881327 
4 1.1215 0.710241 0.265506 0.622554 0 0 0 0.00938712 0.209799 -1.02931 
5 0.225458 1.27088 -0.0394045 0.782511 0 0 0 -0.19743 -0.301943 -0.966475 
6 0.0115239 1.14394 0.376957 0.727354 0 0 0 -0.762234 -0.267996 -0.705369 
22 0.128619 1.05028 0.0595969 0.785118 0 0 0 -0.507384 -0.424284 -0.97064 
8 0.686461 0.733453 -0.0391997 0.747515 0 0 0 0.0953431 -0.433122 -1.18301 
9 1.3567 -0.241858 0.263487 0.804207 0 0 0 -0.298872 -1.1864 -1.40893 
10 -0.086319 -0.263408 0.026042 1.07371 0 0 0 -0.931956 -0.985713 -0.901888 
11 0.920708 1.15036 -0.0285268 0.696437 0 0 0 0.752231 -0.165317 -0.43505 
12 0.461888 1.343 0.164182 0.674424 0 0 0 0.502725 -0.204141 -0.606915 
13 0.278626 -0.299313 0.200449 0.957908 0 0 0 -0.80628 -1.14361 -1.01849 
14 0.972043 1.22081 0.390072 0.568523 0 0 0 1.27039 0.142519 0.81283 
15 1.08249 0.669971 0.304804 0.617965 0 0 0 -0.0678706 0.142909 -1.16068 
16 0.612755 -0.235831 0.244736 0.869627 0 0 0 -0.630631 -1.16657 -1.20386 
17 0.878269 0.253886 0.00522407 0.783183 0 0 0 -0.298588 -0.660939 -1.49781 
18 0.56219 0.565601 0.356089 0.673123 0 0 0 -0.327132 -0.54487 -1.23561 
274 1.4895 1.31441 0.568104 0.508704 0 0 0 -0.206657 -0.281902 4.84946 
20 0.679391 0.940679 0.297778 0.628464 0 0 0 0.464001 -0.143594 -0.766422 
62 1.19143 1.02676 0.63599 0.499497 0 0 0 0.00577305 0.577769 1.37867 
50 0.549985 -0.381035 0.62722 0.850634 0 0 0 -0.738623 -1.36613 -0.856461 
31 -0.0667015 1.19079 0.657983 0.694833 0 0 0 -0.999925 -0.0999305 -0.584627 
44 0.384566 0.857335 0.611342 0.611981 0 0 0 -0.317964 -0.373713 -1.12024 
24 1.01877 -0.21379 1.39568 0.679356 0 0 0 -0.123924 -1.69286 0.603303 
353 1.43469 1.07794 1.35086 0.306622 0 0 0 -0.478028 -3.5695 0.634488 
26 -0.135942 1.02548 1.49494 0.658916 0 0 0 -1.52796 0.0880418 0.061227 
27 0.398738 1.14913 0.832386 0.546232 0 0 0 -0.0929964 0.0262205 -1.2483 
28 0.947153 0.224994 1.38726 0.550775 0 0 0 -0.881384 -1.47365 0.742594 
91 0.800639 1.12867 1.21354 0.410235 0 0 0 -0.998578 -0.848763 -0.341473 
303 1.47401 1.06095 1.34497 0.308983 0 0 0 0.971366 -3.79545 0.769425 
65 0.66983 0.471778 1.33838 0.530131 0 0 0 -1.15553 -1.29712 0.0919994 
32 0.390324 -0.347403 1.28432 0.809112 0 0 0 -0.778063 -1.47593 -0.132782 
33 0.74758 -0.211904 1.15272 0.709656 0 0 0 -0.599432 -1.55105 -0.195126 
173 0.936206 0.960752 1.29479 0.396887 0 0 0 -3.46667 -1.14501 -0.810885 
35 1.49751 0.0185797 0.818709 0.616278 0 0 0 -0.421782 -1.41791 -1.15812 
21 1.50709 1.44185 1.49138 0.220513 0 0 0 0.245617 1.59594 0.612964 
154 1.3247 1.31546 1.43482 0.26889 0 0 0 1.6506 2.35589 -4.96038 
38 0.21985 1.02869 0.800807 0.601116 0 0 0 -0.640103 -0.169632 -1.01702 
39 -0.227463 0.894409 1.43968 0.703335 0 0 0 -1.58739 -0.029688 -0.0849046 
2 1.14966 0.675233 1.21353 0.426031 0 0 0 -4.14252 -2.31396 -1.38019 
351 0.859143 1.19145 1.32514 0.381098 0 0 0 -0.727858 -0.464501 0.443639 
42 0.799972 1.37177 1.32996 0.382826 0 0 0 0.818796 -0.146649 1.05487 
195 1.40657 0.799858 1.18838 0.381454 0 0 0 -2.14184 -3.62156 -0.893206 
318 1.49221 1.06869 1.34922 0.306653 0 0 0 1.80144 -3.84553 0.63147 
45 0.99855 0.224024 1.32982 0.545674 0 0 0 -1.04157 -1.56828 0.537175 
46 0.610443 0.267934 0.790679 0.635119 0 0 0 -0.974899 -0.894062 -1.36004 
47 1.21211 0.915314 0.835752 0.454217 0 0 0 -1.73095 -0.485077 0.988039 
48 0.526616 0.788817 1.37475 0.498785 0 0 0 -1.05288 -1.06533 0.0363512 
250 1.49188 1.08592 1.35641 0.30246 0 0 0 1.96556 -3.83581 0.34382 
79 1.49624 1.36941 1.46082 0.233517 0 0 0 3.64325 0.757118 0.549065 
51 0.476675 1.30496 0.949268 0.506039 0 0 0 0.169072 0.221633 -1.33571 
52 1.29203 0.226348 1.31754 0.525366 0 0 0 -0.907322 -1.91142 0.784948 
53 -0.0398894 0.626631 1.25892 0.678806 0 0 0 -1.45045 -0.44126 -0.41462 
54 1.02301 -0.400936 1.42877 0.747462 0 0 0 0.00510112 -1.7438 0.513778 
385 1.48526 1.28966 1.43147 0.252414 0 0 0 3.42525 -2.10799 0.489089 
56 1.27651 0.103587 1.02253 0.574017 0 0 0 -0.869607 -1.66903 -0.7348 
178 0.995037 1.43604 1.45857 0.329982 0 0 0 2.91009 1.35563 0.624024 
115 1.50527 1.1504 1.3764 0.287022 0 0 0 3.0965 -4.38601 0.777313 
59 0.618213 0.602598 1.24066 0.517392 0 0 0 -1.31673 -1.2683 -0.596021 
124 1.46276 1.03845 1.33351 0.314954 0 0 0 0.307855 -3.79401 1.07987 
306 1.50773 -0.285869 0.765563 0.723848 0 0 0 -0.127699 -1.60431 -0.682408 
64 0.863755 -0.33906 1.30461 0.73647 0 0 0 -0.275618 -1.69422 0.221049 
119 1.46936 1.29803 1.43365 0.251085 0 0 0 3.24292 -1.67121 0.898713 
313 1.06027 1.33634 1.41902 0.322542 0 0 0 1.09871 0.946721 2.21114 
149 1.36225 1.21564 1.35163 0.287132 0 0 0 -1.33 -1.56299 -0.788028 
179 1.2709 0.655436 1.19793 0.420364 0 0 0 -3.49647 -2.75718 -1.57697 
106 1.48399 1.28128 1.42805 0.254532 0 0 0 3.33355 -2.41877 0.651674 
322 1.48978 1.08075 1.35423 0.303754 0 0 0 1.82452 -3.83013 0.43149 
19 1.48533 0.423842 1.00493 0.484897 0 0 0 -0.852858 -1.86254 -1.91693 
512 1.4942 1.3562 1.4562 0.23644 0 0 0 3.6724 0.31105 0.465847 
301 0.930613 1.30713 1.40803 0.352102 0 0 0 0.844448 0.69546 0.473165 
214 1.3994 0.983943 1.30053 0.332298 0 0 0 -2.34895 -3.665 1.32634 
77 0.453285 1.43621 1.29507 0.467505 0 0 0 -0.730069 0.322666 -0.756604 
358 0.80263 1.13455 1.1541 0.418096 0 0 0 -0.81149 -0.815845 -0.341097 
81 0.658627 0.594053 1.15419 0.517897 0 0 0 -1.43265 -1.24579 -1.06381 
71 0.654124 1.22741 1.34848 0.421633 0 0 0 -0.472727 -0.274767 -0.366927 
329 0.872549 1.19711 1.34631 0.376299 0 0 0 -0.663857 -0.284809 0.350628 
57 1.51229 0.644694 1.1874 0.412435 0 0 0 -0.122747 -3.05682 -1.62622 
122 1.21655 0.673182 1.2029 0.420718 0 0 0 -3.98072 -2.58487 -1.52514 
74 0.974786 0.845284 1.26175 0.411892 0 0 0 -4.06598 -1.59228 -1.05758 
228 1.19612 1.41564 1.46552 0.285845 0 0 0 3.66127 1.69463 2.54264 
198 0.988614 1.43717 1.45868 0.331362 0 0 0 2.87815 1.25688 0.754095 
165 1.32818 0.926621 1.25837 0.353443 0 0 0 -4.30466 -3.50939 0.956042 
101 1.00027 1.23476 1.37485 0.345702 0 0 0 -1.00768 0.364767 1.16495 
82 0.914201 0.731776 1.19891 0.446427 0 0 0 -3.04083 -1.67013 -1.19374 
229 1.43794 1.01782 1.32157 0.321268 0 0 0 -0.817727 -3.73978 1.25627 
66 0.0779109 -0.209395 2.31732 0.90179 0 0 0 -0.687945 -1.05208 0.580834 
67 0.896593 0.389783 1.9898 0.568994 0 0 0 0.535214 -0.087464 0.637784 
68 1.03629 0.897873 1.78783 0.431437 0 0 0 0.89299 2.98625 -4.25812 
95 0.398484 -0.0109059 2.10984 0.741996 0 0 0 -0.24991 -0.999984 0.679933 
70 0.431863 1.36488 2.12842 0.534682 0 0 0 0.50189 -0.113948 0.726842 
88 0.0603591 0.335403 2.25425 0.754697 0 0 0 -0.785904 -0.437353 0.780296 
55 0.179149 0.110078 1.56623 0.715518 0 0 0 -0.990345 -1.03046 0.129758 
63 0.0686931 1.42392 1.57716 0.574451 0 0 0 -1.32741 0.122339 0.333552 
87 -0.12483 0.602196 1.97093 0.726218 0 0 0 -1.2334 -0.227794 0.586436 
75 0.134228 1.38274 2.08426 0.597904 0 0 0 -0.600642 -0.111105 0.927845 
86 1.52819 0.494283 1.73489 0.483927 0 0 0 0.0890194 0.601153 0.00411026 
90 0.772503 1.18916 2.006 0.467508 0 0 0 2.16492 1.08651 -1.69359 
78 0.397216 -0.00263326 2.21456 0.755243 0 0 0 -0.216474 -0.931592 0.705694 
113 0.978015 1.36001 2.06096 0.439912 0 0 0 2.96978 2.54565 -6.736 
93 0.811344 0.804865 2.02329 0.511044 0 0 0 1.24664 0.892039 -0.290734 
92 0.388018 0.389792 1.87057 0.619937 0 0 0 -0.311891 -0.630188 0.888699 
108 1.1812 0.815754 2.12936 0.500494 0 0 0 1.03685 2.7348 -3.26181 
83 0.71777 1.15515 1.91968 0.462904 0 0 0 1.764 0.73706 -0.787089 
84 0.247412 0.0622331 2.16075 0.758667 0 0 0 -0.490182 -0.857544 0.6808 
96 1.42755 0.839324 1.89146 0.437814 0 0 0 0.311175 5.2417 -7.87528 
127 1.45838 0.642894 2.04464 0.504502 0 0 0 0.179446 2.32782 -2.51044 
34 -0.00995507 0.53052 1.66397 0.6806 0 0 0 -1.2569 -0.44698 0.292421 
60 0.616724 0.958432 1.89369 0.49654 0 0 0 0.906013 0.186405 0.694691 
25 1.06931 0.282775 1.61881 0.53764 0 0 0 -0.332209 -0.97405 1.4241 
76 0.569499 0.905024 1.57237 0.476954 0 0 0 -0.41087 -0.726924 0.959381 
94 0.548012 0.812208 1.57409 0.494662 0 0 0 -0.47415 -0.799135 1.01572 
37 0.451644 1.06436 1.55401 0.483799 0 0 0 -0.715254 -0.372711 0.801508 
49 -0.2251 0.992379 1.53528 0.693615 0 0 0 -1.56998 0.0720038 0.07214 
125 1.09268 1.35857 2.31575 0.494742 0 0 0 1.87408 1.87939 -4.76244 
370 1.52837 0.876198 2.3462 0.535455 0 0 0 -0.113946 2.66189 -3.73635 
121 1.2299 0.055716 2.56175 0.739898 0 0 0 0.420668 -0.463472 0.188907 
97 0.741258 0.963638 2.6719 0.641808 0 0 0 0.791114 0.769513 -0.02775 
98 0.311901 1.03301 2.82434 0.738886 0 0 0 -0.0618653 0.189115 0.942155 
99 0.716607 0.0242814 2.58279 0.779048 0 0 0 0.238173 -0.650602 0.651574 
100 0.647804 0.403616 2.84607 0.773454 0 0 0 0.218172 0.0515922 0.748513 
128 0.383364 1.44118 2.49724 0.615767 0 0 0 0.291491 -0.114641 0.746845 
131 0.549719 1.23793 2.93584 0.721725 0 0 0 0.375455 0.238873 0.767493 
103 1.03332 0.516069 2.74005 0.695684 0 0 0 0.557529 0.579609 -0.00878916 
130 1.37067 0.465213 2.56845 0.651141 0 0 0 0.36376 0.736485 -0.68238 
114 1.06694 0.880382 2.58086 0.60421 0 0 0 0.894432 1.47521 -1.26386 
129 0.508149 0.0503784 3.07878 0.93857 0 0 0 -0.0943703 -0.452581 0.926415 
116 -0.0918077 0.828692 2.48471 0.76891 0 0 0 -0.92631 -0.00655916 0.912657 
117 -0.112812 0.373905 2.52757 0.849201 0 0 0 -0.963989 -0.312891 0.858343 
109 0.427185 0.944435 3.03849 0.79387 0 0 0 0.0460114 0.256782 0.963197 
110 0.486302 -0.25506 2.78202 0.938175 0 0 0 -0.121526 -0.936654 0.764145 
123 1.28799 1.23657 2.37883 0.51135 0 0 0 0.834651 2.6416 -5.32674 
112 1.16532 0.424953 2.80165 0.724468 0 0 0 0.467885 0.431147 0.0412847 
162 0.457141 2.5951 0.566882 0.691738 0 0 0 -0.199008 0.795915 -0.433738 
132 0.662221 2.53027 0.217889 0.7328 0 0 0 0.175147 0.271979 -0.335474 
133 0.0922387 1.78605 0.558713 0.665839 0 0 0 -0.455952 0.139896 -0.504164 
134 0.162151 2.01557 0.242428 0.736261 0 0 0 -0.340459 0.197203 -0.589832 
135 1.32373 2.40948 0.446204 0.616065 0 0 0 0.357535 -1.41327 1.05046 
136 1.10481 2.57107 0.555836 0.622616 0 0 0 0.397418 -0.469634 0.464776 
137 0.0490335 2.5059 0.614625 0.758157 0 0 0 -0.886039 0.864038 -0.494812 
138 0.513596 2.21214 0.0647092 0.745663 0 0 0 0.264195 0.00931597 -0.511822 
139 0.291597 2.24805 0.292714 0.722673 0 0 0 -0.186711 0.334769 -0.526105 
140 0.883335 2.73443 0.162876 0.770977 0 0 0 0.129478 0.361242 -0.290017 
141 -0.0439187 2.3866 0.160639 0.863762 0 0 0 -0.835662 0.588533 -0.61266 
142 1.45321 2.54108 0.575782 0.605432 0 0 0 -0.015288 -1.15817 0.848446 
143 1.27571 2.91643 0.597735 0.68765 0 0 0 -0.0928476 0.533083 -0.0020078 
160 0.794611 3.07602 0.428213 0.804015 0 0 0 -0.207707 1.1648 -0.290286 
145 0.495423 2.00223 0.0139376 0.740952 0 0 0 0.38488 -0.140947 -0.551331 
146 1.33715 2.00136 0.341059 0.60108 0 0 0 0.654421 -2.10926 2.1057 
147 0.766201 1.82077 0.226308 0.636296 0 0 0 1.19529 -0.67997 0.317666 
148 1.2668 3.02295 0.25203 0.799052 0 0 0 -0.0618291 0.640669 -0.233352 
156 0.0923333 1.95726 0.419734 0.70568 0 0 0 -0.503559 0.22003 -0.514318 
150 1.08321 1.84153 0.514022 0.54952 0 0 0 1.65377 -2.03894 2.6405 
155 0.802654 1.62672 0.139303 0.650625 0 0 0 1.20365 -0.523846 0.232195 
161 1.37471 2.00683 0.411139 0.582784 0 0 0 0.554468 -2.40393 2.53763 
159 0.0392275 1.48545 -0.0352923 0.821639 0 0 0 -0.532893 -0.159691 -0.891059 
170 1.13968 2.09622 1.09397 0.440543 0 0 0 1.46592 -3.77872 4.57955 
163 0.512818 2.85755 0.715425 0.721365 0 0 0 -0.362577 1.26012 -0.434181 
202 0.614156 2.0095 1.00202 0.503112 0 0 0 1.09989 -0.139499 -1.05796 
167 0.867412 1.79173 1.05683 0.436398 0 0 0 2.56061 -1.83473 2.5683 
225 1.49735 1.51636 1.51443 0.217516 0 0 0 -0.855443 -0.813985 -0.889413 
169 0.925719 1.73866 1.43073 0.35673 0 0 0 1.84612 -1.94797 4.92865 
201 -0.0239008 2.74169 0.921926 0.787362 0 0 0 -1.10166 1.15806 -0.493683 
171 0.344796 1.88397 1.31499 0.510872 0 0 0 -0.752282 0.28253 -1.14353 
183 1.0557 1.45292 1.4625 0.315987 0 0 0 3.41733 1.60667 1.20789 
30 0.792092 1.64482 1.51741 0.376351 0 0 0 1.02586 0.0812907 0.16184 
174 0.206878 1.77876 1.03603 0.567115 0 0 0 -0.476599 0.230791 -1.0229 
210 1.50148 1.47893 1.50125 0.217346 0 0 0 0.564517 0.989376 0.140473 
157 1.18864 2.27083 1.02743 0.478468 0 0 0 0.927558 -2.54603 1.97892 
152 1.07997 2.0894 0.712472 0.523341 0 0 0 1.53884 -2.43135 2.37614 
314 1.50113 1.48139 1.50212 0.217248 0 0 0 0.469739 0.865491 0.0365701 
197 0.0748385 2.23525 1.0802 0.643444 0 0 0 -1.00245 0.595578 -0.809937 
180 0.421871 2.02562 1.49853 0.493814 0 0 0 -1.13667 0.339453 -0.727826 
181 0.627685 2.08579 1.41776 0.456517 0 0 0 -0.467038 0.710857 -1.41791 
428 1.18669 2.56475 1.42783 0.483303 0 0 0 -0.59808 1.18338 -1.62202 
410 1.49911 1.48774 1.50438 0.217075 0 0 0 0.80166 0.612807 -0.0345297 
184 0.816887 2.82807 1.23688 0.603672 0 0 0 -0.226961 1.57114 -1.11913 
460 1.49413 1.50152 1.50836 0.217101 0 0 0 -0.273419 -0.0765035 -0.509277 
186 0.975643 2.81775 1.04021 0.606022 0 0 0 -0.0236987 1.00241 -0.639764 
196 0.570963 1.70122 1.47318 0.432141 0 0 0 -0.554059 0.191623 -0.178992 
188 0.309622 2.5385 1.32084 0.613261 0 0 0 -0.883934 1.28408 -1.11736 
200 0.952342 2.70818 1.14964 0.565978 0 0 0 0.0652608 0.959693 -1.03815 
190 0.811574 1.85975 1.03819 0.453604 0 0 0 2.2126 -1.2414 0.979216 
166 0.578328 1.64115 0.820061 0.51415 0 0 0 1.37954 -0.126808 -0.491346 
192 0.613366 2.06273 1.28736 0.468808 0 0 0 0.152037 0.522736 -1.66715 
193 1.11512 2.50092 1.38662 0.476143 0 0 0 -0.418071 0.868764 -1.52481 
203 1.49708 1.53528 1.52114 0.218899 0 0 0 -1.53227 -1.18058 -1.05673 
208 1.50103 1.48233 1.50246 0.217214 0 0 0 0.443501 0.813312 0.00321916 
41 1.49969 1.49087 1.50544 0.217014 0 0 0 0.110951 0.320442 -0.335947 
342 1.4981 1.50466 1.51029 0.217084 0 0 0 -0.413235 -0.389177 -0.701064 
164 1.49914 1.49496 1.50687 0.216985 0 0 0 -0.0437336 0.0874594 -0.46581 
40 1.49907 1.4955 1.50706 0.216984 0 0 0 -0.0644508 0.0576109 -0.481578 
219 1.49839 1.50152 1.50918 0.217026 0 0 0 -0.293556 -0.247626 -0.634497 
73 1.49776 1.50902 1.51183 0.217206 0 0 0 -0.579204 -0.566289 -0.781265 
43 0.805607 1.44796 1.37081 0.376497 0 0 0 1.30528 -0.0249087 1.27883 
418 1.50719 1.47294 1.49917 0.217689 0 0 0 -0.374981 0.849767 0.0239338 
158 1.23226 1.80435 1.11323 0.389163 0 0 0 1.38648 -9.69188 21.2979 
394 1.50446 1.487 1.49864 0.217126 0 0 0 -0.308021 0.641885 -1.03359 
107 1.49844 1.45726 1.49538 0.218848 0 0 0 1.73309 1.28484 2.57953 
215 0.540866 2.16283 1.63004 0.479714 0 0 0 -1.42862 0.604074 -0.340548 
447 1.39749 2.80308 2.23839 0.567396 0 0 0 -0.109831 1.23067 1.24131 
205 0.0357057 1.958 2.06486 0.630641 0 0 0 -1.35408 -0.385502 0.701787 
206 1.02526 2.47209 2.29807 0.526083 0 0 0 -0.784449 0.0757615 2.24088 
207 0.438843 2.84842 1.72195 0.648683 0 0 0 -0.970146 1.70351 -0.719326 
257 1.1462 1.73855 1.5693 0.30809 0 0 0 0.150128 1.36776 0.792797 
194 0.555389 1.94539 1.63957 0.452294 0 0 0 -1.32482 0.0738935 0.248859 
235 1.21548 2.18612 2.35239 0.493662 0 0 0 -0.515499 -1.03704 1.78964 
211 0.956348 2.92222 2.05614 0.605037 0 0 0 -0.719711 1.80986 0.0662998 
212 0.453127 2.60916 1.67387 0.582916 0 0 0 -1.1616 1.49548 -0.741595 
213 0.821558 1.77282 1.80142 0.397826 0 0 0 -0.215428 0.0124403 -1.25233 
242 0.400457 2.35909 2.29195 0.5956 0 0 0 -1.03597 -0.27233 1.19627 
231 0.848338 2.32006 2.12816 0.491559 0 0 0 -1.46631 0.000741205 2.18587 
216 1.16683 2.9485 2.0896 0.59937 0 0 0 -0.547671 1.81478 0.245482 
217 0.343199 2.85139 1.83538 0.671174 0 0 0 -1.07812 1.48819 -0.520596 
218 0.188129 2.60237 1.94756 0.653439 0 0 0 -1.42617 0.765584 -0.0979243 
468 0.852813 2.30967 1.8553 0.453565 0 0 0 -2.19974 1.12496 0.887529 
204 0.982432 2.13675 1.79705 0.400181 0 0 0 -3.11362 1.0715 0.48967 
221 0.781357 2.16855 1.99555 0.461679 0 0 0 -1.81769 -0.142059 1.8915 
222 0.874639 2.13024 1.82115 0.418688 0 0 0 -2.52235 0.608301 0.876264 
223 0.648259 1.75377 1.73341 0.42543 0 0 0 -0.647585 -0.24423 0.582123 
246 1.14636 1.7805 1.58 0.313135 0 0 0 -0.965949 1.32044 0.385586 
104 0.23399 1.55828 2.31382 0.605703 0 0 0 -0.274006 -0.332359 0.943764 
226 1.33009 3.06355 2.06162 0.626232 0 0 0 -0.383175 1.88233 0.0383356 
227 0.1473 1.58649 2.08044 0.590158 0 0 0 -0.739068 -0.333822 0.957644 
234 1.08919 1.77503 1.65721 0.327873 0 0 0 -0.11158 5.13742 -13.784 
238 1.01266 1.72345 1.58263 0.333677 0 0 0 1.23697 1.37754 -3.74524 
321 1.32125 2.33263 1.84132 0.409756 0 0 0 -2.19662 3.09489 1.05805 
475 0.852218 2.20785 1.83084 0.43453 0 0 0 -2.3932 0.831354 0.935994 
476 1.236 2.27058 2.30392 0.488506 0 0 0 -0.669822 -0.59184 2.29714 
189 0.782452 2.2393 1.56136 0.444169 0 0 0 -1.2253 1.24353 -1.12488 
239 1.34949 1.89792 1.62617 0.30419 0 0 0 -5.24332 3.487 3.25306 
328 1.239 2.6119 1.80516 0.480292 0 0 0 -1.13642 2.55659 -0.289807 
185 0.0296333 2.45809 1.54538 0.667554 0 0 0 -1.48902 0.759417 -0.529513 
337 1.08115 2.12647 1.79494 0.38486 0 0 0 -3.71894 1.54311 0.134412 
462 1.494 3.28883 1.96818 0.696858 0 0 0 -0.327474 1.96138 -0.252665 
168 1.33184 1.85862 1.63156 0.298788 0 0 0 -4.91658 3.88259 2.86574 
247 1.21226 2.26018 1.82707 0.399116 0 0 0 -3.19352 2.60108 0.841747 
177 1.34231 2.09074 1.75652 0.350183 0 0 0 -4.10367 3.77399 -1.22919 
485 1.5067 2.80877 2.33205 0.583722 0 0 0 0.0958142 0.928979 1.38005 
264 1.37209 2.24532 1.82701 0.387491 0 0 0 -2.4557 3.42767 0.951439 
69 1.40449 2.22363 1.82304 0.381683 0 0 0 -2.28821 3.58828 0.832248 
483 1.42127 2.31226 1.83498 0.402125 0 0 0 -1.577 3.46074 1.19405 
350 1.43899 2.292 1.83175 0.397133 0 0 0 -1.51843 3.54177 1.19877 
249 0.810746 1.71806 2.34598 0.511764 0 0 0 1.12863 -0.642046 -0.195867 
420 1.11135 1.94426 1.68018 0.344427 0 0 0 -3.5812 1.60332 -2.54877 
240 1.42888 1.99383 1.67738 0.320761 0 0 0 -4.0493 3.95804 0.324875 
300 1.51915 1.67208 1.57346 0.24525 0 0 0 -3.20897 2.24502 -0.656797 
398 1.51862 1.67008 1.57263 0.244756 0 0 0 -3.21738 2.19445 -0.698743 
29 0.0998218 1.58839 1.57877 0.564954 0 0 0 -1.34141 0.0104143 0.251654 
224 1.1137 1.66992 1.54005 0.307835 0 0 0 2.2558 1.35955 0.491262 
111 0.951819 1.52524 1.75496 0.365721 0 0 0 2.94877 3.99192 -11.4197 
105 1.42237 1.74491 1.56875 0.264089 0 0 0 -3.21536 2.29594 8.90044 
172 1.02342 1.85687 1.56824 0.344254 0 0 0 -0.615314 -1.55262 3.58332 
153 1.36634 1.7234 1.67656 0.280169 0 0 0 -1.66371 12.4825 -21.8113 
341 1.49772 1.55244 1.52725 0.220822 0 0 0 -2.07037 -1.20572 -1.11847 
144 1.49736 1.55543 1.52765 0.221187 0 0 0 -2.02584 -1.23371 -0.918956 
332 1.49424 1.56547 1.53147 0.222686 0 0 0 -0.542238 -0.87495 -0.944412 
486 1.5315 1.94568 2.15278 0.420407 0 0 0 -0.552261 0.80701 -5.18699 
336 1.53232 1.71297 1.59081 0.255617 0 0 0 -2.864 3.07134 0.0528706 
80 1.49759 1.55013 1.52642 0.220529 0 0 0 -2.00308 -1.21767 -1.11357 
232 0.49216 2.02195 2.69549 0.642612 0 0 0 -0.0745384 -0.804791 1.41702 
233 0.819154 1.89517 2.82464 0.638637 0 0 0 0.440534 -0.774775 1.0262 
255 -0.0545611 2.84034 2.49112 0.830807 0 0 0 -1.33128 0.662503 0.395575 
266 0.366652 1.98499 2.58794 0.636923 0 0 0 -0.320958 -0.749398 1.30891 
236 1.10598 2.61864 2.76415 0.651241 0 0 0 -0.0562595 -0.16782 1.86491 
237 0.373427 2.44496 2.44691 0.637519 0 0 0 -0.879446 -0.19509 1.14199 
262 0.719182 1.67966 2.53177 0.568063 0 0 0 0.926281 -0.484204 0.339063 
254 0.214174 2.73861 3.11697 0.891497 0 0 0 -0.712465 0.273402 1.45047 
118 0.0283913 1.48111 2.6882 0.743109 0 0 0 -0.653609 -0.166583 1.0143 
241 0.939424 2.12978 3.11427 0.7283 0 0 0 0.137895 -0.661517 1.54254 
265 0.0329524 3.01139 2.61218 0.868524 0 0 0 -1.12544 0.909769 0.525459 
243 0.559647 3.01398 2.64267 0.760245 0 0 0 -0.508818 1.0028 0.858348 
244 -0.0538485 3.17009 2.96979 1.01469 0 0 0 -0.989219 0.906809 0.853293 
245 1.25688 2.18075 2.86043 0.631954 0 0 0 -0.0453246 -0.976653 1.3766 
256 0.0639194 2.93296 2.98772 0.928312 0 0 0 -0.93869 0.61775 1.10108 
260 -0.0684652 2.86215 2.72929 0.884982 0 0 0 -1.22646 0.592828 0.736853 
248 0.535507 2.66342 2.98132 0.774501 0 0 0 -0.342562 0.0705781 1.6487 
507 1.514 2.78544 2.91087 0.717643 0 0 0 0.00165074 0.241185 1.77994 
258 0.563514 2.96535 3.08818 0.865754 0 0 0 -0.344505 0.623051 1.47809 
251 0.511303 2.47669 2.63315 0.654785 0 0 0 -0.499766 -0.285971 1.47386 
252 -0.111928 2.39186 2.39214 0.756583 0 0 0 -1.48804 -0.039758 0.500042 
253 1.04036 3.18639 2.78129 0.794807 0 0 0 -0.146913 1.14522 1.12593 
267 1.82892 0.385598 0.477772 0.596855 0 0 0 -0.154286 -0.0364397 -2.08399 
268 2.77884 0.405524 0.286059 0.786134 0 0 0 1.25567 -0.459853 -1.24518 
269 2.2067 0.0402841 -0.170103 0.890934 0 0 0 0.374258 -0.769629 -1.63989 
270 2.56707 0.0594558 -0.0701775 0.911772 0 0 0 0.827068 -0.801613 -1.41333 
291 2.17938 0.517071 -0.015153 0.745449 0 0 0 0.104526 -0.0265254 -1.80512 
272 2.8825 0.826455 0.434372 0.720701 0 0 0 1.24075 0.0309397 -1.12001 
273 1.72708 1.05679 0.271324 0.594023 0 0 0 -0.639148 0.752366 0.272501 
295 2.1713 1.36023 0.380864 0.583848 0 0 0 -1.32077 0.22566 0.268006 
275 2.66358 -0.0269356 -0.00182182 0.93327 0 0 0 0.952079 -0.903072 -1.25182 
276 1.80978 0.0752459 0.0483135 0.77895 0 0 0 -0.0838287 -0.687914 -1.77593 
294 1.7398 1.32132 0.468063 0.539314 0 0 0 -1.13508 0.0487174 2.88255 
278 1.84913 0.118936 -0.0193183 0.792011 0 0 0 -0.053732 -0.613863 -1.79866 
279 2.175 0.767306 0.422027 0.586649 0 0 0 -0.127628 0.711297 -1.57241 
290 2.36631 1.24236 0.156957 0.668463 0 0 0 -0.466688 0.307264 -0.928672 
281 2.44926 1.10437 0.372453 0.618623 0 0 0 -0.226737 0.58179 -1.09596 
289 2.44024 0.744302 0.539643 0.597765 0 0 0 0.576913 0.387493 -1.48429 
292 2.33956 0.902126 0.628311 0.547958 0 0 0 0.151888 0.786986 -1.3619 
284 1.63517 0.788285 0.385008 0.570141 0 0 0 -0.50945 0.94017 -0.962151 
285 2.84964 1.17716 0.0625881 0.791311 0 0 0 0.715097 0.0555151 -1.24819 
286 1.78723 0.485721 0.444933 0.587351 0 0 0 -0.294126 0.282604 -2.06143 
287 2.57698 1.17322 0.48256 0.611561 0 0 0 0.0428283 0.539621 -1.03001 
288 2.12027 0.470308 0.103724 0.706469 0 0 0 0.0547952 -0.00961934 -1.83865 
283 2.43674 -0.038142 0.797332 0.720711 0 0 0 1.11702 -1.28525 -0.558128 
297 2.10953 0.404039 1.31448 0.507882 0 0 0 1.90402 -1.28982 1.11 
298 2.93001 0.378398 1.22614 0.699642 0 0 0 1.80709 -0.76879 0.103683 
299 2.17786 0.794496 1.15772 0.446812 0 0 0 3.04136 -0.0325513 -0.48669 
326 2.16132 0.241577 1.27565 0.557616 0 0 0 1.36191 -1.47828 0.897749 
421 1.83954 1.44084 1.50274 0.295542 0 0 0 -2.29008 -3.41426 -0.0491531 
302 2.2023 0.171766 1.03879 0.5931 0 0 0 1.23405 -1.32833 -0.190312 
409 1.68113 1.13811 1.38277 0.302342 0 0 0 7.62386 -3.47634 0.199925 
304 2.56842 0.9077 0.967201 0.53266 0 0 0 1.36624 0.342737 -0.843805 
327 2.48296 0.0221864 1.06097 0.686 0 0 0 1.27706 -1.34486 -0.00758813 
271 2.03991 0.860397 1.25086 0.407328 0 0 0 4.83273 -0.126922 -0.0685284 
325 1.98594 0.355549 1.00004 0.521515 0 0 0 1.37368 -1.15553 -1.0399 
308 1.84278 0.353841 1.39549 0.497795 0 0 0 1.14363 -1.67552 1.55101 
309 2.88629 1.00557 1.17505 0.594011 0 0 0 1.74593 0.14268 -0.102396 
352 2.85341 1.20475 1.47989 0.560578 0 0 0 1.7613 0.0542177 0.517031 
311 2.00274 0.716304 0.965143 0.458609 0 0 0 2.4257 -0.00777851 -1.77909 
312 2.53391 1.33844 0.846884 0.525579 0 0 0 -0.117185 0.548507 -0.597169 
293 2.4231 1.11164 0.861814 0.504926 0 0 0 0.210324 0.810942 -0.879237 
324 1.62813 -0.0598011 0.885014 0.633875 0 0 0 -0.114648 -1.61406 -0.685084 
315 2.60039 1.07859 1.23024 0.500886 0 0 0 1.63823 0.261065 -0.0846068 
316 2.72628 0.872234 1.06806 0.566482 0 0 0 1.689 0.083963 -0.390944 
317 2.17448 0.00895182 1.26039 0.630987 0 0 0 0.833466 -1.67315 0.738112 
345 2.10889 1.08502 1.35917 0.384712 0 0 0 3.15612 0.5303 0.357455 
323 2.38134 0.331223 1.4536 0.569986 0 0 0 1.39881 -1.12564 1.28543 
455 2.55584 1.28173 1.36755 0.472766 0 0 0 1.51381 0.132498 0.181911 
435 2.27639 1.22552 1.31463 0.41136 0 0 0 0.998907 0.0651338 0.565556 
448 2.20141 1.19778 1.32869 0.395785 0 0 0 1.29444 0.0625662 0.91366 
330 2.1282 0.968261 1.33153 0.403423 0 0 0 3.69303 0.316748 0.284985 
333 2.0246 1.08667 1.30523 0.371338 0 0 0 4.55148 0.0164933 1.82262 
320 2.05153 1.24466 1.39439 0.356994 0 0 0 1.45125 -0.218935 1.67631 
85 1.93767 0.688027 1.22732 0.424794 0 0 0 4.19013 -1.03522 -0.384162 
72 1.85279 0.835644 1.34411 0.381423 0 0 0 5.98974 -0.140245 -1.58431 
280 1.92793 1.15719 0.954528 0.418534 0 0 0 0.2819 -0.516231 5.51824 
282 1.82599 1.09003 1.37787 0.331797 0 0 0 7.68083 0.0342014 -2.0885 
58 1.53876 0.41076 0.794827 0.520967 0 0 0 -0.62891 -0.813583 -2.48362 
7 1.78038 0.749626 1.18987 0.399089 0 0 0 4.57881 -1.93046 -1.07271 
175 1.6862 0.702465 1.18441 0.40297 0 0 0 3.05501 -2.53266 -1.39649 
151 1.67338 0.694855 1.1842 0.404027 0 0 0 2.80337 -2.59537 -1.42865 
102 1.68174 0.685791 1.18738 0.406096 0 0 0 2.83198 -2.53424 -1.39618 
401 1.68764 1.21328 1.38466 0.290461 0 0 0 6.15788 -7.40116 9.30941 
431 1.82255 1.38592 1.47813 0.294159 0 0 0 -1.17528 -3.90213 1.50163 
230 1.56873 0.813985 1.19065 0.375192 0 0 0 1.90237 -3.51178 -0.549738 
402 1.95156 1.39053 1.1828 0.365145 0 0 0 -1.9285 -6.34956 17.6102 
61 2.06139 1.43224 1.48036 0.347738 0 0 0 -1.14244 -1.58271 0.681744 
305 2.1485 1.42894 1.51639 0.368182 0 0 0 -0.451805 -0.690374 -0.938114 
89 2.192 1.43909 1.48267 0.378188 0 0 0 -0.208284 -1.02951 0.257997 
363 1.70564 1.42071 1.51234 0.263041 0 0 0 1.53617 23.0315 -69.0255 
500 2.10569 1.32175 1.88389 0.412441 0 0 0 -1.339 1.80865 -6.18446 
355 2.35839 0.18445 1.86313 0.634471 0 0 0 0.366747 -1.07711 1.05971 
381 3.11613 1.01979 2.35073 0.739097 0 0 0 1.30345 -0.262249 0.688452 
331 2.87924 0.0788037 2.06589 0.792855 0 0 0 1.08634 -1.15051 0.611497 
364 1.76962 0.735995 2.16028 0.517307 0 0 0 -0.565217 2.08264 -2.77008 
456 2.33967 1.28734 1.85278 0.452109 0 0 0 -0.0215196 -0.0187931 -0.567815 
334 2.84871 0.650636 1.56623 0.619736 0 0 0 1.61398 -0.526297 0.796532 
379 2.85971 0.751267 2.16119 0.66274 0 0 0 0.957023 -0.296474 0.716408 
357 2.79171 1.1106 1.69075 0.555739 0 0 0 1.47443 -0.156995 0.97499 
349 2.50806 1.06994 1.68913 0.485856 0 0 0 1.04823 -0.243044 1.07421 
338 2.91329 1.04907 1.57017 0.592008 0 0 0 1.69177 -0.0902049 0.716343 
339 2.60637 0.208203 1.7826 0.663659 0 0 0 0.880262 -1.09951 0.93039 
340 2.03196 0.919082 1.73823 0.427766 0 0 0 0.610258 2.04095 -2.76135 
380 2.2557 1.36196 2.17206 0.492285 0 0 0 -0.922113 0.226993 -1.48841 
356 2.53184 0.904635 2.0194 0.548951 0 0 0 0.229751 -0.0734196 0.595588 
359 2.00327 -0.0960545 2.15982 0.722348 0 0 0 0.00876442 -1.20856 0.524056 
344 2.80142 -0.043783 2.11853 0.816016 0 0 0 0.909488 -1.29331 0.606381 
348 3.04077 1.33757 1.60003 0.619056 0 0 0 1.74349 -0.105231 0.435892 
346 1.58774 0.374973 1.94495 0.544623 0 0 0 0.0740984 0.360881 0.0551125 
354 2.04636 0.843234 1.58868 0.42271 0 0 0 2.33703 1.0634 -0.593118 
368 2.37677 0.682569 2.36623 0.614732 0 0 0 -0.272355 0.0966676 0.0450065 
366 1.71031 1.38232 2.04873 0.405685 0 0 0 -1.48404 7.06667 -20.3673 
371 2.18583 0.971477 2.33557 0.55166 0 0 0 -0.951509 0.813044 -1.29552 
377 1.74601 1.18747 1.97093 0.407202 0 0 0 -1.22613 7.54642 -18.0465 
360 1.90747 0.404478 2.3254 0.616733 0 0 0 -0.29088 0.209282 -0.467808 
361 2.15681 1.26107 2.27566 0.509604 0 0 0 -1.3249 0.772314 -2.22146 
335 2.54276 0.223577 1.52697 0.631494 0 0 0 1.2022 -1.16851 0.995548 
384 1.99729 -0.0776391 2.77943 0.849449 0 0 0 0.0755018 -0.817722 0.466742 
376 2.66835 0.594172 2.77917 0.779064 0 0 0 0.370224 -0.267702 0.787347 
375 2.39585 0.989107 2.70504 0.665024 0 0 0 -0.364303 0.253843 0.190228 
362 2.50173 1.42621 2.86667 0.696432 0 0 0 -0.126925 -0.207842 0.712549 
126 1.54709 0.230959 2.44275 0.66991 0 0 0 0.190676 -0.0432048 -0.289626 
383 3.11738 1.16306 2.83543 0.835525 0 0 0 1.03596 -0.275996 0.893858 
365 2.96941 -0.0926794 2.52754 0.942727 0 0 0 0.964712 -1.11943 0.62591 
374 2.49303 0.362285 2.58451 0.739406 0 0 0 0.163783 -0.519026 0.603606 
367 2.83512 -0.0952205 2.44692 0.894595 0 0 0 0.828613 -1.20581 0.631849 
382 2.46012 0.611973 2.90139 0.779649 0 0 0 0.00282714 -0.0960731 0.703929 
369 2.63778 0.580109 2.64824 0.739168 0 0 0 0.331759 -0.276064 0.688876 
373 2.14105 0.726535 2.45077 0.603869 0 0 0 -0.651251 0.594261 -0.680564 
406 2.09112 2.16896 0.43084 0.611265 0 0 0 -1.06555 -1.4341 0.48115 
386 2.0284 2.99123 0.371048 0.772707 0 0 0 -0.203153 0.499842 -0.469315 
387 2.72329 1.69898 0.609378 0.620611 0 0 0 0.125406 -0.139177 -0.670068 
408 1.85313 2.49566 0.31794 0.670083 0 0 0 -0.440786 -0.943457 0.18545 
389 2.18616 3.05826 0.428306 0.790718 0 0 0 -0.0941 0.695848 -0.557206 
390 2.98318 1.77901 0.535154 0.707932 0 0 0 0.84996 -0.129212 -0.779561 
391 2.11534 1.8316 0.648488 0.532526 0 0 0 -2.13327 -1.7888 1.75432 
403 2.5459 2.18678 0.119714 0.751351 0 0 0 -0.0754414 -0.411413 -0.815049 
393 2.66093 2.28842 0.183063 0.764203 0 0 0 0.173623 -0.246693 -0.873317 
405 2.78811 3.02173 -0.121113 1.01931 0 0 0 0.448673 0.483342 -0.802732 
395 1.8138 2.31842 0.625912 0.567286 0 0 0 -0.975054 -2.06638 1.31387 
396 2.10804 2.72738 0.663081 0.64739 0 0 0 -0.447573 -0.0233137 -0.398815 
397 2.16783 2.01055 -0.00250863 0.730132 0 0 0 -0.551801 -0.80889 -0.326877 
407 3.03609 2.65996 0.0661351 0.941522 0 0 0 0.752095 0.242137 -0.877924 
399 2.55634 2.07553 0.339479 0.678297 0 0 0 -0.217672 -0.510597 -0.66231 
400 3.03867 3.09633 0.0948041 1.03122 0 0 0 0.703319 0.615658 -0.726253 
404 2.54911 1.82912 0.135098 0.717735 0 0 0 -0.227232 -0.383289 -0.795828 
392 1.64896 1.70185 1.30247 0.313592 0 0 0 -4.39746 -24.5809 61.8174 
347 1.74968 2.58561 1.44171 0.482408 0 0 0 -0.442426 0.909015 -1.16962 
470 3.18034 2.73685 1.51285 0.777334 0 0 0 1.36502 0.545262 -0.283501 
412 2.83896 2.70487 0.904629 0.719797 0 0 0 0.791073 0.47698 -0.695051 
413 2.99687 2.31763 1.18363 0.663647 0 0 0 1.32585 -0.0830292 -0.625432 
414 2.35624 1.78557 1.13988 0.461763 0 0 0 -0.742054 -1.47663 0.040898 
415 2.18729 1.9517 0.95964 0.482594 0 0 0 -2.14024 -2.22285 1.05752 
416 1.76813 2.56765 1.21183 0.503756 0 0 0 -0.959977 -0.469344 -0.755499 
454 1.96176 3.07035 1.40585 0.634756 0 0 0 -0.187822 1.48749 -0.880993 
427 1.90156 2.97812 1.41372 0.600582 0 0 0 -0.275431 1.39297 -1.01349 
419 3.09087 2.31628 1.28366 0.685431 0 0 0 1.47359 -0.090726 -0.502468 
457 2.18048 2.18526 1.39274 0.445663 0 0 0 0.664158 -0.848392 -0.804373 
411 1.77752 1.49708 1.51758 0.279054 0 0 0 -3.50326 -3.86801 0.146279 
422 2.52327 1.82722 0.892713 0.534171 0 0 0 -0.488505 -0.711499 -0.445595 
423 2.22281 3.17065 1.41836 0.692849 0 0 0 0.211826 1.49871 -0.625281 
424 1.98908 2.69972 0.785544 0.609123 0 0 0 -0.64465 -0.213526 -0.311732 
425 2.52502 2.65947 0.978213 0.634305 0 0 0 0.284942 0.379843 -0.819765 
426 2.16555 2.22826 1.02762 0.500696 0 0 0 -1.39643 -1.51873 -0.245545 
446 2.15403 1.47216 1.43063 0.370642 0 0 0 -0.757557 -2.07791 2.30988 
441 3.15009 2.03261 1.39372 0.670919 0 0 0 1.68537 -0.393108 -0.321692 
429 2.28301 3.01719 0.830937 0.710772 0 0 0 -0.0175304 0.880809 -0.645504 
430 3.24666 2.98695 1.29672 0.86617 0 0 0 1.22318 0.801673 -0.328431 
449 2.29125 2.24049 1.41348 0.472488 0 0 0 0.979664 -0.23802 -1.01196 
388 1.59811 2.19682 1.01817 0.463182 0 0 0 -1.12531 -4.52497 4.55176 
433 2.03726 1.738 1.21708 0.39079 0 0 0 -3.06218 -5.9947 9.0761 
434 1.60082 2.73668 1.06615 0.55863 0 0 0 -0.646756 -0.104381 -0.507388 
432 2.37388 1.88404 1.3499 0.447539 0 0 0 0.877526 -1.55929 -0.547182 
436 3.01036 2.09203 0.843108 0.681815 0 0 0 1.07796 -0.223335 -0.688434 
437 2.8462 1.57157 0.966138 0.587293 0 0 0 0.941117 0.0776184 -0.585546 
438 2.8555 2.16438 1.42914 0.589203 0 0 0 1.62876 -0.368283 -0.503918 
439 3.06985 3.26361 1.23339 0.897859 0 0 0 0.949546 1.11243 -0.325506 
440 2.10108 2.01538 0.939855 0.483858 0 0 0 -2.34475 -2.61684 1.5604 
458 2.14521 2.40779 1.42054 0.480224 0 0 0 0.451854 0.376011 -1.04739 
464 2.20089 2.07551 1.39204 0.431482 0 0 0 0.776077 -1.57472 -0.489442 
443 2.58771 1.94946 2.09056 0.535522 0 0 0 1.22742 -0.883174 1.06631 
444 2.8486 1.46504 1.86655 0.570207 0 0 0 1.47568 -0.4959 0.741191 
445 2.81527 2.21551 2.1293 0.614389 0 0 0 1.21889 -0.376505 0.618654 
310 1.78294 2.08929 1.76574 0.364649 0 0 0 2.92933 1.76751 -0.104241 
372 1.61022 2.19645 1.81033 0.377711 0 0 0 0.390902 3.52847 0.842655 
296 2.37677 1.99587 1.7502 0.454791 0 0 0 2.73135 -0.912627 0.691499 
471 1.98875 1.90613 1.68087 0.358626 0 0 0 3.68213 -2.27025 -0.855644 
450 2.68 1.85887 1.96779 0.537547 0 0 0 1.57159 -0.979803 0.85043 
182 1.64286 1.8895 1.64868 0.302928 0 0 0 0.631147 1.1406 2.03357 
452 2.11881 2.90998 1.68517 0.592224 0 0 0 0.466488 1.44553 -0.398911 
453 1.56028 2.45095 2.19982 0.487036 0 0 0 0.354187 0.827333 2.3279 
469 2.08406 1.70842 2.05619 0.431064 0 0 0 0.0260853 -0.355109 -3.08912 
343 2.09718 1.70346 1.57754 0.360072 0 0 0 0.921642 -3.60548 0.0494823 
481 2.16303 2.25178 1.79844 0.45174 0 0 0 2.75666 0.771943 1.11111 
467 1.86345 2.64931 1.66668 0.495963 0 0 0 0.52845 1.84496 -0.479509 
378 1.78868 2.33536 1.81545 0.42099 0 0 0 1.83495 2.73095 1.37868 
459 3.15664 2.7618 2.17728 0.803692 0 0 0 1.33109 0.599023 0.259748 
277 1.76729 1.99982 1.70693 0.340652 0 0 0 3.00465 0.914696 -1.08448 
461 1.65114 2.97999 1.7122 0.58097 0 0 0 -0.214482 1.91982 -0.769183 
263 1.87896 1.99472 1.72044 0.355846 0 0 0 3.87546 -0.294754 -0.869914 
261 1.68405 1.99279 1.69119 0.329303 0 0 0 1.71163 1.80462 -0.603127 
176 1.90638 1.54433 1.53657 0.311137 0 0 0 -2.19387 -3.76058 0.587753 
465 1.96043 2.96194 1.89533 0.597784 0 0 0 0.441381 1.55926 0.0161931 
466 2.24247 3.27131 1.79524 0.726837 0 0 0 0.41926 1.62689 -0.194189 
319 2.24976 1.91453 1.63878 0.411733 0 0 0 2.9165 -1.83082 0.106786 
478 2.18734 3.04936 2.25827 0.683239 0 0 0 0.539355 1.21411 0.572454 
484 1.90493 2.64752 2.31715 0.562314 0 0 0 0.647536 0.489733 1.45387 
187 2.13032 2.09995 1.7054 0.413711 0 0 0 3.45055 -0.361618 0.630785 
509 3.29297 2.84291 2.26144 0.875197 0 0 0 1.37372 0.653923 0.329604 
488 2.31767 1.87767 1.72535 0.429172 0 0 0 2.78247 -1.52806 0.406195 
492 2.70859 2.30871 2.28736 0.620863 0 0 0 0.893932 -0.213765 0.823976 
494 2.94687 2.34984 2.28063 0.684461 0 0 0 1.18415 -0.127218 0.57593 
504 2.87672 1.9456 2.27657 0.631954 0 0 0 1.10364 -0.73988 0.756587 
199 1.89316 1.96045 1.70228 0.351188 0 0 0 3.89465 -0.92679 -1.12802 
120 1.67259 1.9638 1.67438 0.32149 0 0 0 1.45863 1.5348 -0.00660323 
442 2.28184 1.67739 1.7112 0.410209 0 0 0 1.68426 -1.59474 -0.504875 
498 2.04613 1.55965 1.97777 0.409434 0 0 0 -0.910437 1.08532 -7.14783 
487 1.91916 2.03368 2.33112 0.488957 0 0 0 0.0325906 -0.698182 0.224766 
209 2.03145 1.70588 1.59109 0.345964 0 0 0 0.86584 -3.84828 -0.48432 
36 2.10179 2.14084 1.72251 0.416347 0 0 0 3.40609 0.0973892 0.774163 
191 1.67812 1.96819 1.67706 0.323026 0 0 0 1.57606 1.52164 -0.148732 
417 2.33714 2.53508 1.7657 0.533536 0 0 0 1.29999 0.973433 0.259019 
451 2.99114 2.22371 1.53029 0.633453 0 0 0 1.65109 -0.275859 -0.312248 
259 1.58512 1.88708 1.64909 0.297931 0 0 0 -0.811498 2.34978 2.43771 
463 1.58447 1.9597 1.66739 0.313836 0 0 0 -0.64476 2.58975 1.31921 
307 1.54445 1.74376 1.60346 0.263564 0 0 0 -2.47183 3.24445 0.803214 
220 1.54372 1.74206 1.60278 0.263123 0 0 0 -2.49621 3.24461 0.759678 
496 2.03147 2.50601 2.78625 0.657587 0 0 0 0.0310626 -0.181227 1.52985 
472 2.0747 1.79642 2.63684 0.574766 0 0 0 -0.779177 -0.595608 -0.0764387 
473 1.75625 1.5959 2.58875 0.549214 0 0 0 -1.1776 0.121223 -2.34808 
474 2.95854 3.17647 2.68346 0.934256 0 0 0 0.901258 1.04182 0.755746 
497 1.61663 1.94127 2.57965 0.539008 0 0 0 -0.635476 -1.02513 -0.520816 
502 2.22662 2.57159 2.71503 0.667086 0 0 0 0.220393 0.0468123 1.38661 
477 3.17714 2.0138 2.59479 0.781979 0 0 0 1.29714 -0.453759 0.857166 
513 2.63017 3.0298 3.05945 0.919999 0 0 0 0.557671 0.805121 1.27698 
479 1.80984 1.75127 2.41699 0.498559 0 0 0 -1.15675 -0.356542 -2.6325 
501 1.6536 2.4538 3.00118 0.698252 0 0 0 -0.144799 -0.376352 1.73332 
503 2.03372 3.15351 2.47845 0.734327 0 0 0 0.328425 1.26101 0.849361 
482 1.57532 3.16058 3.12965 0.87585 0 0 0 0.0454626 0.862641 1.49564 
511 3.00815 2.13234 2.41307 0.702012 0 0 0 1.18575 -0.463506 0.754374 
510 2.10249 2.54653 2.61072 0.623523 0 0 0 0.225983 -0.0462981 1.38349 
508 2.62305 1.96044 3.05692 0.772123 0 0 0 0.2828 -0.40912 1.38038 
505 3.15568 2.91939 3.22206 1.06052 0 0 0 0.887151 0.587054 1.13086 
499 1.80691 1.78436 2.91322 0.645107 0 0 0 -0.705446 -0.515564 0.136699 
495 2.94832 1.72933 2.7966 0.758143 0 0 0 0.827158 -0.506854 1.07253 
489 3.12957 1.50361 3.00018 0.868011 0 0 0 0.959307 -0.334823 1.04651 
490 2.37284 2.40854 2.58346 0.629828 0 0 0 0.304719 -0.18117 1.22528 
491 2.27434 1.49882 2.74564 0.629951 0 0 0 -0.618153 -0.160389 0.104051 
506 1.97648 2.06882 3.04671 0.70028 0 0 0 -0.385094 -0.559237 1.21404 
493 3.07267 3.01075 2.79147 0.943095 0 0 0 1.00008 0.81725 0.886009 
480 2.35966 2.25058 2.39424 0.569221 0 0 0 0.406811 -0.387105 1.22444 
