ITEM: TIMESTEP
0
ITEM: NUMBER OF ATOMS
8
ITEM: BOX BOUNDS pp pp pp
0.0000000000000000e+00 4.8819591223992003e+00
0.0000000000000000e+00 4.8819591223992003e+00
0.0000000000000000e+00 4.8819591223992003e+00
ITEM: ATOMS id type fx fy fz x y z rho_SPH width_SPH omega_SPH u_SPH vx vy vz 
8 3 -0.4091101597404898 -0.1553435273424875 0.1993203052371331 1.6803260007827143 0.0926757709304676 1.4016820283688107 0.0000000000000000 0.0000000000000000 0.0000000000000000 0.0000000000000000 -15.0508184605153126 20.5840131626364844 7.8762854058318874 
4 2 -0.4756352600996547 0.6885660771821972 -0.5123387691065202 2.7270022481356526 1.9337257802056282 0.3127937079036167 0.0000000000000000 0.0000000000000000 0.0000000000000000 0.0000000000000000 3.8587364515162137 9.4370152372069551 8.0029661724122665 
6 3 0.4605339117310116 0.3273953397061241 0.0025607279021816 4.8246916802983826 2.2215343300295416 2.3036231637675928 0.0000000000000000 0.0000000000000000 0.0000000000000000 0.0000000000000000 5.3878960340127691 -19.7543855144476765 -9.5200423293884704 
7 3 -0.7482659755999056 0.0704664711068119 0.3615341054252370 3.3769858722209922 2.1199918628495138 2.9399105237482557 0.0000000000000000 0.0000000000000000 0.0000000000000000 0.0000000000000000 9.6629224265025258 -0.8296276481888255 1.6437569235565781 
1 1 2.4465604055831265 -1.4871302627731784 0.1722858526644545 1.8214807326507032 2.9619344168347586 4.1100761010512503 0.0000000000000000 0.0000000000000000 0.0000000000000000 0.0000000000000000 0.0483305442940756 -0.0568325701698801 0.0337354870151984 
2 1 6.3599221604793525 -2.5944873801537476 -4.1853178981144685 0.8765450937513494 4.1097523503185762 3.3310601555297330 0.0000000000000000 0.0000000000000000 0.0000000000000000 0.0000000000000000 -0.0483305442940758 0.0568325701698802 -0.0337354870151987 
5 2 -7.1316475495797214 3.4183546158378686 3.3208915851079128 1.3575415502453905 3.8120573883794564 3.2139034336416543 0.0000000000000000 0.0000000000000000 0.0000000000000000 0.0000000000000000 16.2865231166437461 9.0679237548820204 -0.5983492498219416 
3 2 -0.5023575327737205 -0.2678213335635877 0.6410640908840695 2.8485877161109334 4.3637470124772992 2.7984897841120846 0.0000000000000000 0.0000000000000000 0.0000000000000000 0.0000000000000000 -20.1452595681599504 -18.5049389920889702 -7.4046169225903320 
