ITEM: TIMESTEP
0
ITEM: NUMBER OF ATOMS
300
ITEM: BOX BOUNDS pp pp pp
0.0000000000000000e+00 1.7985291181993400e+01
0.0000000000000000e+00 1.7985291181993400e+01
0.0000000000000000e+00 1.7985291181993400e+01
ITEM: ATOMS id type fx fy fz x y z 
1 1 1.02601e-06 -3.38434e-07 -5.07722e-07 2.92259 2.69211 1.19422 
2 1 3.28419e-07 -6.70632e-07 -2.75744e-07 5.99002 2.45069 2.09565 
3 1 5.27293e-08 6.30695e-07 8.52313e-07 2.15159 5.67755 5.48475 
4 1 -6.3142e-07 -2.84e-07 -3.96004e-08 1.46383 1.02179 3.15876 
5 1 5.42795e-07 -7.89641e-08 -8.15602e-08 2.81438 1.93307 3.54982 
6 1 -5.59123e-07 2.32554e-07 4.5698e-08 0.314886 2.44436 5.65241 
151 2 2.41557e-07 3.20649e-07 2.97837e-08 5.84715 4.79894 1.36644 
152 2 5.70007e-07 4.37003e-07 -8.79625e-08 4.82518 5.00872 1.80498 
153 2 -2.37208e-07 9.44568e-08 3.49892e-07 2.25181 1.16314 5.30232 
154 2 2.7483e-07 -1.60571e-07 -7.64015e-08 2.52529 1.48509 3.60473 
155 2 6.70574e-08 -5.51224e-07 -2.28579e-07 1.41157 0.892485 1.27198 
156 2 -8.84793e-07 5.29424e-07 5.50918e-09 0.14513 4.38849 5.29973 
157 2 4.78915e-07 -1.01301e-06 -6.69282e-07 5.46415 1.00698 1.00305 
158 2 4.23393e-07 2.88972e-07 -3.69631e-07 2.47285 3.70344 1.09018 
159 2 -9.31828e-07 8.05264e-07 -2.13242e-07 1.30479 4.38678 0.693127 
160 2 7.19051e-07 -1.78748e-07 -5.29598e-07 5.40803 0.565925 4.6239 
161 2 -6.94982e-07 5.62915e-07 -3.94359e-08 1.40044 5.87305 3.53112 
35 1 4.07547e-07 -1.81641e-07 -1.87673e-07 3.47379 0.03513 4.74686 
7 1 -1.62075e-07 5.00574e-07 8.2954e-07 2.83655 5.40493 6.55307 
8 1 -1.56849e-07 -1.47048e-07 2.28829e-08 5.36181 3.04984 9.75942 
9 1 -1.36886e-07 4.60999e-07 1.97913e-07 4.35328 5.97924 6.37278 
10 1 -5.44394e-07 -4.28586e-07 -2.62937e-07 0.512845 0.196761 8.21643 
11 1 -8.60957e-08 1.56305e-06 1.58129e-07 1.26351 5.25826 11.025 
162 2 1.91148e-07 1.68107e-07 7.00073e-08 5.61139 1.78794 6.53945 
163 2 3.75155e-07 1.38379e-06 -5.2446e-07 1.50587 3.34575 11.6861 
164 2 -8.42255e-08 5.00943e-07 4.38109e-07 0.932245 3.66675 6.36532 
165 2 8.45159e-07 1.14423e-07 -8.00016e-08 2.43009 1.5419 11.693 
166 2 -9.32711e-07 6.76104e-07 4.19085e-07 3.81827 5.61711 9.06624 
12 1 5.44151e-07 -1.59396e-07 -2.00469e-07 1.04465 1.48084 12.1976 
13 1 7.30528e-07 -2.9905e-07 2.41991e-07 0.729281 1.61584 13.5242 
14 1 4.8953e-07 5.04336e-07 -1.11152e-07 2.84849 2.95827 12.1711 
15 1 2.69195e-07 2.05746e-07 4.26214e-08 4.4071 5.27802 16.4924 
16 1 8.7749e-08 -1.82381e-07 1.09678e-07 4.3173 3.4329 12.1463 
17 1 -3.41169e-07 6.30975e-07 6.11096e-07 0.410287 2.39535 17.4365 
18 1 6.44129e-07 1.70794e-07 -2.26879e-07 2.1491 3.16825 17.6284 
19 1 3.58422e-07 -3.50755e-07 4.69567e-07 0.51932 1.43249 16.8956 
20 1 -8.68195e-07 1.32514e-06 -4.71069e-07 3.047 5.82578 13.5071 
167 2 7.60905e-07 -8.1876e-07 2.245e-07 4.95448 0.811831 14.1494 
168 2 -1.73127e-07 1.18497e-07 4.05027e-07 0.662057 1.93768 17.7655 
169 2 -1.01805e-06 5.14769e-07 -1.19447e-07 4.76699 5.87416 13.4141 
170 2 1.05108e-06 2.46701e-07 2.0081e-07 2.23807 2.99013 14.5376 
171 2 3.18314e-07 5.91979e-07 6.78047e-07 0.130892 2.315 15.9104 
172 2 9.52692e-07 2.32791e-07 3.66074e-07 1.15349 2.36785 15.0177 
21 1 1.66813e-07 -3.67457e-07 2.5026e-07 1.18995 8.91367 1.86699 
22 1 4.13517e-07 1.77941e-07 1.56327e-07 5.95498 9.47395 2.90499 
23 1 3.31175e-07 7.76571e-07 1.3961e-07 2.16482 6.18115 3.7407 
24 1 8.23365e-07 -4.74425e-08 8.45198e-07 2.78999 10.989 2.86053 
25 1 2.74483e-07 7.32311e-07 1.24197e-07 1.98016 6.8297 3.35017 
26 1 -1.67957e-06 9.80916e-08 -3.04403e-07 0.024073 6.12262 3.52569 
173 2 4.72158e-07 -5.13367e-07 1.22057e-07 2.60751 11.5457 0.176538 
174 2 1.62141e-07 8.92647e-07 6.76159e-07 1.74184 7.55961 4.28927 
175 2 4.32038e-07 -1.03713e-07 9.97664e-07 1.19246 11.95 1.79645 
176 2 5.77356e-07 -2.8679e-07 6.67591e-09 2.80358 8.68613 0.590044 
177 2 -1.20686e-07 -2.02771e-07 -4.01059e-07 1.76467 7.50238 0.704244 
27 1 -7.81963e-07 -2.11276e-07 -3.31408e-07 5.25502 11.7453 11.8384 
28 1 -5.33483e-07 2.96533e-07 8.58384e-07 1.96736 9.41534 7.09359 
29 1 -5.61801e-07 2.78373e-07 -1.2641e-07 4.40064 10.2735 7.38845 
30 1 -9.41752e-07 -2.08555e-07 1.37737e-08 4.70818 11.2928 9.66163 
178 2 1.59816e-07 6.34722e-07 7.33736e-07 0.0858492 8.10073 8.4864 
179 2 -9.477e-07 3.17803e-07 1.4722e-08 4.65479 9.84112 8.02928 
180 2 -1.35213e-06 -6.91296e-07 1.6008e-07 2.7831 10.7761 10.6337 
181 2 -6.9685e-07 6.26936e-07 5.65213e-07 3.79108 7.8176 7.1559 
182 2 -6.61247e-07 -5.83204e-07 4.06233e-07 1.74162 11.4112 9.33331 
31 1 -6.79836e-07 -9.90498e-07 -1.8452e-06 1.66133 11.0116 16.1576 
32 1 -5.04345e-07 -5.32992e-07 -2.69782e-07 4.93226 10.3486 15.6677 
33 1 -9.86875e-07 4.9016e-07 -1.01618e-06 2.80392 7.37931 14.5869 
183 2 -1.8004e-07 6.66284e-08 -1.73524e-07 4.09655 7.21362 16.366 
184 2 -3.36088e-07 -5.97583e-07 -2.34929e-07 4.42072 10.0636 16.2549 
185 2 -3.41653e-07 8.61063e-07 -5.89359e-07 1.71934 6.1784 15.6419 
34 1 1.76305e-07 -3.8499e-07 4.19401e-07 2.48162 14.7639 3.63263 
190 2 -3.13779e-07 -7.27495e-07 4.69981e-07 2.34259 14.1328 5.24906 
36 1 1.1766e-06 -2.65949e-08 6.09889e-07 4.31906 12.632 1.02243 
37 1 7.00002e-07 1.24956e-07 -1.49132e-07 2.78398 15.4003 2.2142 
186 2 8.3468e-07 -1.47281e-07 8.06102e-07 2.87775 12.7491 2.02139 
187 2 1.26852e-06 -4.9898e-08 -7.23479e-07 4.00689 16.5889 2.10434 
188 2 4.50847e-07 -1.46521e-07 -4.80738e-08 5.475 13.1457 4.0516 
189 2 -3.75894e-07 -3.00453e-07 6.5866e-07 1.50108 14.8924 3.90373 
197 2 -9.62272e-07 -7.21889e-07 1.36023e-07 1.44436 16.532 5.99219 
284 2 -9.50858e-07 -9.89227e-08 2.83499e-07 0.0532769 17.7168 2.84382 
38 1 4.58575e-07 -2.00659e-08 -2.21699e-07 4.89724 14.0049 11.9619 
39 1 1.76547e-07 -2.84398e-07 -1.25011e-07 2.43589 17.9505 10.5751 
40 1 4.90964e-07 -4.76641e-07 2.21769e-07 4.07191 16.0203 9.78596 
41 1 2.57991e-07 -7.2024e-07 2.0339e-07 3.14236 16.4231 11.312 
42 1 -1.33754e-07 -9.39392e-07 -2.17423e-07 1.45906 17.8627 11.2762 
191 2 -1.725e-07 -7.38773e-07 -5.01558e-08 3.4725 16.0027 6.89145 
192 2 5.62873e-07 1.28893e-07 3.10066e-07 4.27644 17.5916 9.07869 
193 2 -8.96733e-07 -1.36826e-06 -1.96066e-07 0.171262 16.0329 9.13213 
194 2 -9.62489e-07 -9.03431e-07 -2.66384e-08 2.61346 13.5936 8.31409 
195 2 5.32798e-07 -4.98541e-07 2.65957e-08 4.83448 16.316 7.2728 
196 2 2.00978e-07 -6.39595e-07 9.52974e-08 3.42567 15.7597 11.7522 
198 2 -2.70788e-07 -4.72433e-07 -1.91261e-07 4.14144 12.964 8.18716 
204 2 7.69655e-07 6.69017e-07 -7.36428e-08 4.7661 14.3643 14.4347 
44 1 -8.12096e-08 1.18867e-09 -5.88302e-07 5.1368 12.7718 13.9393 
45 1 -5.43946e-08 -2.26348e-08 -4.4237e-07 4.15317 12.7059 15.982 
46 1 -5.31665e-08 3.3159e-07 -4.47088e-07 2.07077 13.8931 16.7151 
47 1 -4.49861e-07 -5.05384e-07 -1.5316e-06 0.0124707 13.4436 15.5714 
48 1 8.20676e-07 3.99185e-07 -1.18388e-07 2.94329 15.4884 16.9349 
49 1 1.09009e-06 2.54785e-07 4.91219e-07 5.60158 12.6563 17.8394 
50 1 -4.99415e-07 -8.02315e-07 -7.62655e-07 0.159479 14.9163 14.8344 
199 2 3.69085e-07 -5.4688e-07 2.72339e-07 0.470585 17.7092 17.1036 
200 2 -5.66701e-07 -1.61898e-06 -2.93034e-07 0.249117 16.5555 12.9841 
201 2 1.345e-06 -1.30697e-07 3.12185e-07 3.39825 17.3789 14.9138 
202 2 1.05543e-06 8.17982e-07 2.08948e-07 5.73432 13.1958 16.173 
203 2 4.6443e-07 -2.0023e-07 9.6224e-08 3.63848 15.5777 12.906 
51 1 -7.51676e-07 2.28753e-07 -2.77157e-07 7.56579 5.31971 3.73522 
52 1 -1.04495e-06 -1.3249e-06 2.5099e-07 8.93243 1.87976 0.0967413 
53 1 8.85699e-08 -6.34227e-07 6.14076e-07 10.9679 1.04973 1.93946 
212 2 1.16362e-06 -2.21807e-07 -5.77141e-07 11.083 4.85318 4.12369 
55 1 2.1899e-08 -7.40235e-07 1.85367e-07 10.3031 1.62647 3.40245 
56 1 -7.64316e-07 3.53076e-07 -5.88359e-08 8.05455 5.13509 2.62128 
211 2 -1.30348e-07 8.61438e-07 3.34721e-07 7.22807 5.96875 0.231899 
206 2 5.70452e-07 -6.92315e-07 -5.25825e-07 10.9388 5.0231 5.73823 
207 2 1.68208e-06 4.81338e-07 -5.91885e-07 11.5674 5.97614 2.98455 
208 2 7.32347e-07 6.65284e-07 2.66234e-07 10.4917 4.29999 1.48628 
209 2 1.39308e-06 -3.71555e-08 -8.89375e-07 11.8428 5.7852 5.83564 
210 2 -1.52195e-07 -8.07902e-07 -1.74715e-07 9.9156 4.11328 4.29491 
57 1 -9.56531e-07 -3.53566e-07 -3.1055e-07 6.45698 4.88646 7.36588 
58 1 -8.19352e-07 -4.60473e-07 -3.58094e-07 6.87812 4.56778 6.85861 
59 1 5.9145e-08 -5.86485e-07 1.26513e-07 8.7012 0.386965 6.86823 
60 1 -1.10609e-07 -9.99403e-07 7.4073e-08 10.2169 1.55811 7.07928 
61 1 -4.99255e-07 -1.52612e-06 8.56561e-08 11.0711 2.55735 9.91414 
62 1 -1.0789e-06 -5.69257e-07 -5.65421e-07 8.27257 5.90079 7.43079 
63 1 3.81487e-07 -8.17031e-07 4.93083e-07 6.3888 2.19637 10.43 
64 1 -2.21172e-07 -7.74824e-07 4.5981e-07 9.02132 5.30386 11.3601 
65 1 -1.66837e-06 -4.53113e-07 6.88414e-08 6.86724 5.67712 9.77759 
66 1 -3.49471e-07 -6.00172e-07 -1.32893e-07 7.57309 2.93916 6.55178 
213 2 -3.48783e-07 -1.11732e-06 3.30252e-07 8.87679 4.80415 11.4906 
214 2 4.71033e-07 -8.3538e-07 7.3905e-07 7.0994 1.2938 10.203 
215 2 -1.11e-06 -6.24477e-07 -1.14221e-07 6.49947 4.56573 8.56908 
216 2 -3.01935e-07 -1.28194e-06 4.87734e-07 9.66869 1.58173 9.19126 
67 1 -3.21009e-07 2.52792e-07 -4.68777e-09 11.465 3.943 13.336 
68 1 -7.61516e-07 -1.36348e-06 -6.95601e-08 8.45015 3.45023 13.4349 
69 1 -6.08027e-07 -8.49192e-07 -4.5173e-07 11.2975 3.26337 12.8231 
70 1 -4.4453e-08 -7.88417e-07 1.00147e-07 6.15406 3.91173 15.4685 
71 1 -3.43791e-07 3.74624e-07 7.70069e-07 8.17893 5.80875 13.7077 
72 1 -6.66287e-07 -4.89722e-07 2.47798e-07 10.6003 2.22432 16.5885 
73 1 -1.45252e-06 -2.01928e-06 -6.2417e-07 10.5104 0.70735 15.7741 
218 2 -1.11152e-06 -1.75098e-06 -4.14294e-07 8.24017 2.05998 15.3855 
219 2 -1.28619e-06 -1.48289e-06 -1.08916e-07 8.82326 1.92348 17.0359 
220 2 -9.15588e-07 -1.87068e-06 -3.86982e-07 10.6328 1.90222 12.2162 
221 2 -2.37815e-07 1.09634e-07 6.30006e-07 10.7566 2.56378 17.0451 
222 2 7.75725e-09 1.31024e-06 2.70328e-07 9.05724 5.19894 17.8133 
223 2 -6.93523e-07 -1.16567e-06 -1.59831e-07 9.37685 3.48419 13.1476 
224 2 -7.92421e-07 -3.90163e-07 1.2444e-07 8.08516 3.39923 16.9214 
54 1 -9.85302e-07 -1.03147e-06 2.8863e-07 8.80686 2.33028 17.9844 
74 1 2.29081e-07 7.84287e-07 -2.99046e-07 9.9481 7.35798 1.16494 
75 1 -5.39867e-07 -6.5082e-09 -6.61245e-07 9.98494 10.0163 4.28963 
76 1 -4.15927e-07 4.20009e-07 -5.41537e-07 6.96958 9.70414 4.76667 
77 1 -4.92895e-07 7.34478e-07 -8.26988e-07 9.02114 7.70836 2.99689 
78 1 -4.70006e-07 -1.32865e-07 -4.07436e-07 8.86967 10.5509 2.54753 
225 2 1.91387e-07 1.89391e-07 -8.07404e-07 10.2124 6.29575 4.86682 
226 2 7.60082e-07 2.96272e-07 -8.65922e-07 10.6199 6.15836 4.28288 
227 2 -4.74252e-07 5.24252e-07 -8.19585e-07 9.06426 8.23301 2.93858 
97 1 -2.11984e-07 3.76513e-07 5.99031e-08 11.3593 11.9724 4.91511 
79 1 -4.89825e-07 1.13789e-06 -1.2685e-07 7.02669 10.2502 8.73855 
80 1 8.30115e-07 6.56069e-07 2.60421e-08 10.603 7.81308 8.93616 
81 1 -5.06021e-07 1.1702e-06 -5.31233e-07 8.62917 9.66514 7.26759 
82 1 -1.07899e-06 7.61525e-07 -9.06903e-07 7.20879 8.55251 6.77253 
83 1 2.55282e-07 1.12748e-06 -6.08131e-08 9.74794 8.55839 8.74519 
84 1 -1.44618e-06 3.00749e-07 1.38582e-07 6.16206 9.52326 11.1088 
85 1 -4.81312e-07 1.03173e-06 5.68575e-07 8.69872 7.99705 10.1605 
86 1 -3.52888e-07 -5.77188e-07 1.98708e-07 8.90717 6.20944 9.72336 
87 1 -1.09489e-06 -4.40991e-08 -1.03373e-07 8.18264 6.80064 9.11282 
228 2 2.48972e-07 1.16889e-06 6.23891e-07 10.5291 10.5936 10.3062 
229 2 1.21013e-07 -4.01492e-08 4.42022e-07 9.47668 6.72706 10.0542 
230 2 5.58227e-07 1.35362e-06 4.55738e-07 10.1913 9.01137 9.66681 
231 2 1.10483e-06 1.7166e-07 -6.54083e-07 11.4365 6.68589 6.7542 
232 2 -1.33532e-06 5.96582e-07 6.16253e-07 7.40829 7.31846 11.8418 
233 2 3.80059e-07 1.09427e-06 7.37358e-08 7.76692 11.4647 11.6408 
234 2 -3.28931e-07 3.67425e-07 -3.4859e-07 7.64053 11.3416 6.141 
235 2 -3.18272e-07 1.08632e-06 1.22458e-08 8.95904 11.1062 7.88765 
217 2 -1.6019e-06 5.89441e-08 2.16086e-07 6.3201 6.01594 11.8811 
88 1 6.74562e-07 5.47338e-07 4.7091e-07 8.53908 10.9544 14.9885 
89 1 -1.80713e-08 4.14145e-07 2.21173e-08 6.81772 10.6641 13.6621 
90 1 -6.69916e-07 2.58135e-07 3.73746e-07 6.09177 6.54373 14.6276 
91 1 4.43538e-07 9.85869e-07 8.59408e-07 9.25349 8.41892 14.7457 
92 1 1.78293e-07 1.1223e-06 1.01501e-06 8.94207 6.674 14.1656 
236 2 5.02009e-07 1.2049e-06 9.91839e-07 9.70056 8.84649 13.3123 
237 2 5.88421e-07 1.03784e-07 6.39455e-07 7.15982 10.1157 16.6062 
238 2 4.65183e-08 6.62133e-07 7.95041e-07 7.52011 7.60379 15.4213 
239 2 3.7061e-07 1.18974e-06 6.82077e-07 11.8883 8.54826 13.1473 
93 1 -4.68527e-07 -1.16185e-07 -5.52995e-07 10.6579 12.6325 0.232042 
94 1 -9.61873e-07 -1.58394e-07 -1.04064e-06 11.1082 12.7871 1.38312 
95 1 -7.0598e-07 -5.13855e-07 -2.81112e-07 9.46205 17.0155 1.76259 
96 1 -8.28492e-07 3.52857e-07 -2.17284e-07 10.5565 13.3811 3.44613 
245 2 2.14403e-07 1.50555e-07 -2.69085e-07 6.99513 14.7302 2.12636 
240 2 -7.64868e-08 -1.27773e-07 4.74699e-08 10.5071 17.1888 5.5714 
241 2 -8.7091e-07 3.58912e-07 -3.22737e-07 10.731 13.4877 3.10246 
242 2 -7.85721e-07 -2.21761e-07 -2.60284e-07 10.4595 16.1627 1.53241 
243 2 3.8428e-07 -2.09958e-07 -4.06022e-07 6.51421 15.4333 3.76287 
244 2 -3.83114e-09 -4.20523e-07 -2.1701e-07 8.62627 17.472 5.61402 
205 2 5.43898e-07 -2.23122e-07 -4.33484e-07 6.23426 17.9389 5.49402 
98 1 -5.68926e-07 -8.14345e-08 4.11576e-07 10.8102 15.6514 9.95544 
99 1 6.88893e-07 -2.71568e-07 2.70302e-07 6.04277 17.0564 7.41381 
100 1 -1.33355e-07 1.47175e-07 3.3256e-07 8.92683 15.3343 7.82156 
101 1 -5.69701e-07 -2.70604e-07 4.68659e-07 10.369 16.2204 10.0198 
102 1 -1.13378e-08 7.1938e-07 2.3275e-07 11.5126 13.0847 8.52067 
246 2 6.71202e-07 -1.25409e-07 7.4537e-07 7.20385 16.3863 8.98667 
247 2 2.06242e-07 -1.28948e-07 -3.11136e-08 7.45888 15.1729 6.61925 
103 1 -4.79259e-07 -2.19488e-07 -3.46409e-07 11.6019 14.4882 14.7158 
104 1 6.0016e-08 2.1894e-07 -1.28017e-07 9.39239 12.3893 16.1501 
105 1 2.7067e-07 4.99845e-08 3.65939e-08 8.31258 16.4244 13.8426 
248 2 1.0834e-06 1.04305e-06 -5.55056e-09 6.5117 13.7108 14.623 
249 2 1.68338e-07 -2.3242e-09 -2.38524e-07 7.20864 16.2881 17.7817 
250 2 -2.37174e-07 2.56753e-07 6.21148e-08 10.1282 14.8604 12.9881 
251 2 -1.24809e-06 -1.79969e-06 -7.7253e-07 11.544 17.7611 14.9961 
106 1 5.3988e-07 -1.46022e-07 2.1114e-07 12.3311 0.83532 3.75697 
252 2 1.28908e-06 1.43175e-06 7.65465e-07 12.0747 4.87891 0.0863204 
253 2 1.104e-06 7.63114e-07 6.50781e-07 13.0968 2.63168 1.737 
254 2 -4.15668e-07 4.00416e-08 1.2099e-07 16.2443 0.137305 4.17338 
255 2 -1.32897e-07 3.94111e-07 -3.95872e-07 15.3805 2.10747 4.54041 
107 1 4.19404e-07 -5.00783e-07 -7.3303e-07 13.6421 1.83173 6.39342 
108 1 -1.21742e-07 -8.92195e-07 -6.74136e-07 16.1093 1.15722 9.64074 
109 1 7.47183e-09 -6.73976e-07 -6.82309e-07 15.3945 1.62978 9.12155 
110 1 6.03482e-08 3.93612e-07 -3.36625e-07 13.7396 4.10552 11.8225 
111 1 -4.40633e-07 -1.38603e-06 -4.98579e-07 16.3916 0.971578 11.5794 
112 1 9.00942e-07 1.04356e-06 -3.48912e-07 14.4834 5.07461 11.0082 
113 1 -1.96097e-07 4.73058e-07 -5.42489e-07 16.5991 3.30427 6.4475 
114 1 1.08961e-06 6.15992e-08 -7.19026e-07 12.8333 5.38053 7.53068 
256 2 5.01779e-08 -8.71068e-07 -4.6065e-07 13.0783 1.95893 7.61872 
257 2 1.04698e-06 3.73282e-07 -7.09103e-07 13.6162 5.29264 8.3654 
258 2 1.9479e-08 -1.24445e-07 -6.64486e-07 14.9989 2.89285 11.0308 
259 2 1.41822e-07 -4.13719e-07 -7.43307e-07 15.4416 1.67612 7.8691 
260 2 3.16251e-07 -8.18335e-07 -4.87686e-07 12.2763 3.04983 6.98261 
261 2 2.60343e-08 -3.67566e-07 -6.84195e-07 14.9783 2.42257 9.78881 
262 2 9.58965e-07 2.06074e-06 -2.41148e-07 16.9787 4.85741 11.7638 
263 2 6.71309e-07 1.56716e-06 -6.51242e-07 17.8381 3.59916 11.2144 
115 1 6.48155e-07 5.53503e-07 1.02905e-06 13.7457 5.7323 17.107 
116 1 -1.76067e-07 -1.36092e-06 1.16933e-07 16.2035 0.124585 15.0945 
117 1 4.36255e-07 2.09011e-06 1.28937e-06 13.8214 4.09466 15.1181 
118 1 -1.8814e-07 -8.57448e-07 -2.75032e-07 15.801 1.73919 13.4242 
119 1 -8.55495e-07 -1.31295e-06 -8.46241e-07 12.7692 2.36537 12.9709 
120 1 -7.99044e-08 7.2731e-07 2.32271e-07 17.5499 5.64318 16.1469 
121 1 -1.11559e-07 -7.35658e-07 6.77867e-07 13.3381 1.35214 16.2239 
122 1 -7.40428e-09 4.76658e-08 3.90685e-07 14.3187 2.24176 14.9873 
264 2 1.56619e-07 -2.40515e-07 1.24174e-06 13.6355 1.40744 16.7396 
265 2 1.97227e-07 -3.47045e-07 1.29754e-06 13.4401 1.0415 17.3341 
266 2 2.49481e-07 1.04759e-06 1.51014e-08 13.988 4.34611 12.607 
267 2 3.36e-07 1.6168e-06 1.20649e-06 13.8171 3.27546 15.425 
268 2 -1.06158e-07 -3.55915e-07 2.48561e-07 14.1803 1.97224 15.0638 
269 2 5.91214e-07 1.95916e-06 8.31162e-07 14.6096 4.51957 13.9533 
270 2 8.93647e-08 1.75598e-07 1.2402e-06 14.9592 1.70431 16.1382 
123 1 7.44916e-07 -3.60557e-07 1.1777e-06 15.5528 11.0523 4.04097 
124 1 9.69268e-08 -1.19061e-06 6.51471e-07 15.5373 10.1559 3.02197 
125 1 -4.69588e-07 -6.50987e-07 2.18186e-07 16.8501 8.23331 3.58239 
126 1 2.81313e-07 -5.66101e-07 2.40973e-07 13.8826 8.32256 0.288117 
127 1 1.03642e-06 1.51952e-07 -9.93348e-07 13.5185 6.45438 5.92391 
271 2 -2.77505e-07 6.45664e-07 2.95513e-07 17.613 6.71242 5.82475 
272 2 -1.37293e-07 -8.38226e-07 1.16747e-07 14.121 11.3484 2.4998 
273 2 1.12954e-07 -2.4818e-07 2.65026e-07 16.7939 11.5794 1.0802 
274 2 -4.94792e-07 -2.86691e-07 -8.86732e-07 15.5818 11.5236 0.124517 
128 1 4.37135e-07 -1.78071e-07 -1.70487e-07 16.5834 11.2863 11.2041 
129 1 7.21684e-07 6.15285e-07 5.29677e-08 15.4643 7.57938 7.98932 
130 1 1.32536e-06 1.70222e-07 5.91551e-07 14.4266 11.0946 6.18857 
131 1 1.34916e-06 1.26323e-06 2.00757e-07 13.6075 7.52741 11.0817 
132 1 1.2699e-06 2.9682e-07 -3.12553e-07 12.3293 8.54394 7.45218 
133 1 6.55588e-07 5.4354e-07 3.49908e-07 12.3573 11.0968 11.7357 
275 2 1.13443e-06 1.06064e-06 3.03553e-07 12.6887 7.4223 10.8039 
276 2 6.61421e-07 5.5043e-07 5.64003e-07 16.4886 8.6776 8.9905 
277 2 1.51615e-06 1.37201e-06 1.25413e-07 15.6766 7.4074 10.9053 
134 1 -3.37967e-07 -6.89551e-08 -6.4084e-07 14.4107 9.83159 16.3971 
135 1 -3.01639e-07 -1.0584e-06 -6.79336e-07 15.2975 9.87037 17.2722 
136 1 1.63097e-08 -1.21728e-06 -1.24415e-06 16.7357 10.1522 17.1908 
137 1 1.18191e-06 1.2751e-06 8.43536e-08 14.6194 7.74167 12.7332 
138 1 -6.6843e-07 -6.57404e-07 -1.08778e-06 15.218 10.9846 17.7169 
139 1 3.81821e-07 4.20026e-07 -9.01507e-07 17.0623 8.73537 15.0114 
278 2 9.33284e-07 1.26033e-06 2.27824e-07 14.5921 7.25992 13.3916 
279 2 -5.70871e-07 -4.53758e-08 -6.23155e-07 13.9676 10.0542 16.6279 
280 2 3.28353e-08 7.0514e-07 4.30582e-07 12.3958 7.24741 16.1197 
140 1 -1.92423e-07 6.67449e-07 6.03859e-07 15.9491 16.5653 1.9581 
141 1 -3.31721e-07 5.32862e-07 -2.763e-08 12.3893 12.93 3.23558 
142 1 -3.96368e-07 7.40291e-07 -5.06727e-07 13.2447 13.2617 1.9583 
143 1 -4.88741e-08 4.21933e-08 1.68037e-07 12.5111 12.1271 3.88115 
144 1 4.45658e-07 1.14403e-06 6.38922e-07 13.8754 14.6061 3.74215 
145 1 1.52076e-07 1.7675e-07 1.07183e-06 16.6614 13.6403 4.77586 
281 2 -4.43551e-09 1.60772e-07 5.91098e-07 14.3528 17.0993 0.501134 
282 2 -2.82078e-07 1.96403e-07 -4.37863e-09 12.4751 15.935 1.19359 
283 2 -5.69217e-07 2.30293e-07 4.38987e-07 16.66 17.5651 3.25154 
288 2 8.76709e-07 2.02293e-07 9.87277e-07 14.3234 12.0612 4.33216 
285 2 5.37518e-08 4.5505e-07 -1.00456e-08 17.3098 12.3892 0.630088 
287 2 2.03735e-07 2.08666e-08 1.20523e-06 17.0153 13.0769 4.83937 
289 2 -3.37512e-07 -1.3539e-06 -3.94117e-07 15.9756 17.2633 9.45865 
290 2 -2.09084e-07 -2.73517e-07 1.3997e-07 12.3422 15.7581 9.29051 
291 2 1.17466e-06 3.92409e-07 3.62825e-07 13.3277 12.3025 8.2255 
292 2 2.66312e-07 -6.67921e-07 2.17574e-07 15.9162 14.351 8.75073 
293 2 4.25723e-08 -9.13094e-07 -3.1746e-07 13.836 17.9207 7.93196 
294 2 1.06468e-07 -1.06843e-06 -2.49925e-07 15.8033 14.3745 11.0329 
295 2 -2.67943e-07 -5.18176e-07 8.12924e-08 12.6678 15.6173 10.5365 
296 2 8.31504e-07 2.39806e-07 2.76255e-07 13.1203 13.0497 9.68773 
297 2 1.1281e-06 4.09175e-07 4.06454e-07 13.3949 12.4874 7.78956 
286 2 1.80716e-07 1.72067e-07 1.55432e-07 12.4536 16.7376 6.00369 
146 1 -6.94063e-07 -8.61043e-07 -4.74477e-07 12.2778 15.6748 14.6426 
147 1 -5.08413e-07 -1.05505e-06 -8.11695e-07 16.0772 15.2677 14.2519 
148 1 -2.87309e-07 -2.3743e-07 -7.817e-08 15.1048 16.2272 16.9455 
149 1 3.00002e-07 4.51571e-07 1.23283e-07 12.1436 12.2254 12.4209 
150 1 6.25383e-08 -7.55517e-07 -6.56727e-07 16.8603 12.7755 12.5438 
298 2 -5.06836e-07 -4.62855e-07 -3.2464e-07 12.0809 14.8375 14.2285 
299 2 -5.36623e-07 2.81381e-07 -1.02764e-06 15.0103 13.8271 17.1016 
300 2 -4.78009e-07 -7.09371e-07 -1.2046e-06 16.6008 14.3524 14.7997 
43 1 -1.32945e-07 3.86175e-07 -8.23587e-07 17.9725 13.0166 17.3098 
