ITEM: TIMESTEP
0
ITEM: NUMBER OF ATOMS
210
ITEM: BOX BOUNDS pp pp pp
0.0000000000000000e+00 1.6119873854239600e+01
0.0000000000000000e+00 1.6119873854239600e+01
0.0000000000000000e+00 1.6119873854239600e+01
ITEM: ATOMS id type fx fy fz x y z rho_SPH width_SPH omega_SPH u_SPH vx vy vz 
13 1 0.0472959132840372 0.1490076135265577 -0.1182342642434436 2.6422971990109443 2.3570599298790533 1.0203444206404955 0.0000289426244207 2.8399800396296788 0.6993340340125769 0.0000000000000000 -0.0000000000000000 -0.0000000000000000 0.0000000000000000 
31 1 0.1105239812169567 -0.0500033815467740 -0.1159922161311338 5.3020601851221141 2.1455141718219410 1.8603876265025916 0.0000280829763786 2.8695850849639042 0.7817725962683059 0.0000000000000000 -0.0000000000000000 -0.0000000000000000 0.0000000000000000 
36 1 -0.0823605265817244 0.2960754414586302 0.0807164736983486 1.9277928457431122 5.0325787760239589 4.9033409545700444 0.0000250226018851 2.8965831124792922 0.6902785914310280 0.0000000000000000 -0.0000000000000000 0.0000000000000000 0.0000000000000000 
67 1 -0.0683190189973712 0.0494528373518187 -0.0018459330456915 1.4116796522883779 1.0405567396584250 2.8446568029148800 0.0000307876953833 2.8062207418495078 0.6435713323682930 0.0000000000000000 -0.0000000000000000 0.0000000000000000 -0.0000000000000000 
79 1 -0.0277650329730398 0.0629197794984094 0.0162981180351823 2.3702874984034468 1.7430266269537953 3.1159600184390563 0.0000304428238039 2.8114564620732359 0.6437469053002258 0.0000000000000000 -0.0000000000000000 0.0000000000000000 0.0000000000000000 
96 1 -0.2585991354740022 0.1087165259012317 0.0172689543650469 0.3119370262289295 2.1142349172283943 5.0281896321167805 0.0000280470052519 2.8579688868856099 0.7273897109778854 0.0000000000000000 0.0000000000000000 0.0000000000000000 -0.0000000000000000 
151 2 0.0002280002665511 0.1919790683911896 -0.0811607882193501 5.3534048257681235 4.3756463838727440 1.1744113388356938 0.0000261331542475 2.8985700568545747 0.7684717503273673 0.0000000000000000 -0.0000000000000000 -0.0000000000000000 -0.0000000000000000 
156 2 -0.0930001033244135 0.2391880592363796 -0.0723361443651525 4.1783585018377991 4.4686523573388648 1.5125502851299508 0.0000261453038276 2.8998022490928266 0.7762058043081547 0.0000000000000000 0.0000000000000000 -0.0000000000000000 -0.0000000000000000 
165 2 -0.0783107031929318 0.0086535271014323 -0.0368451670293579 1.9881685722128066 1.0961176096481346 4.7924715230552266 0.0000299411169427 2.8247158957376843 0.6812510854428269 0.0000000000000000 0.0000000000000000 0.0000000000000000 -0.0000000000000000 
171 2 -0.0177073624975846 0.0380154984944782 -0.0076217137468478 2.3021647030174410 1.3338126121690308 3.3159681489480408 0.0000309626622547 2.8060837972733843 0.6554971337854842 0.0000000000000000 0.0000000000000000 0.0000000000000000 -0.0000000000000000 
179 2 -0.0003586183679992 0.0797362254124244 0.0132880458485037 1.2890028152790867 0.7100169282737090 1.1529071893382350 0.0000310938225874 2.8120418171689656 0.7098131549754333 0.0000000000000000 -0.0000000000000000 0.0000000000000000 0.0000000000000000 
182 2 -0.1724933967500401 0.2664012935019510 -0.0378654078681662 0.1795237746375971 3.8781558421655533 4.7556250230401105 0.0000259158839718 2.8946741362195012 0.7528368891179368 0.0000000000000000 -0.0000000000000000 -0.0000000000000000 0.0000000000000000 
193 2 0.1343599969981218 -0.1371064727444832 -0.1684015279493050 4.8965252825098480 0.9828835007325716 0.8882595524076101 0.0000269802220842 2.8857079925695635 0.7757980274063804 0.0000000000000000 0.0000000000000000 0.0000000000000000 -0.0000000000000000 
30 1 -0.0226055188049359 0.2057533370434403 -0.1679789227279706 6.6013300895145788 4.8353118791150207 3.4026530643337649 0.0000272874799936 2.8818349350808856 0.7793748535066563 0.0000000000000000 -0.0000000000000000 0.0000000000000000 0.0000000000000000 
34 1 -0.1142355913226693 -0.1378033190727087 0.0376939128785368 8.0033402429468730 1.6804751988216569 0.0437634492384734 0.0000283671437058 2.8503190814668264 0.7172441868102356 0.0000000000000000 -0.0000000000000000 0.0000000000000000 0.0000000000000000 
57 1 -0.0344037634227937 -0.1453175534605212 0.1724950801826242 9.8173600005719681 0.9754594946083532 1.7571514327643134 0.0000274523304851 2.8654445613151376 0.7144715016471443 0.0000000000000000 -0.0000000000000000 0.0000000000000000 -0.0000000000000000 
108 2 0.2459853351285611 -0.2726901639996817 -0.0357596992712345 5.5271454889503602 0.0273919481584866 4.7764726996836648 0.0000265056057088 2.8855583648186984 0.7384673992754032 0.0000000000000000 -0.0000000000000000 -0.0000000000000000 0.0000000000000000 
120 2 0.1231847112220399 0.0142080078630336 -0.2427900070769896 9.7847052974923265 4.4002271195643008 5.2460469267436167 0.0000289235630274 2.8465795402897469 0.7367447162373177 0.0000000000000000 0.0000000000000000 0.0000000000000000 -0.0000000000000000 
181 2 0.1197176958023017 0.1717283354592475 0.0917090077537448 9.4140579966667399 3.8275908264372247 1.3762865179334285 0.0000273065991020 2.8617209812580815 0.6885767598978508 0.0000000000000000 0.0000000000000000 -0.0000000000000000 -0.0000000000000000 
185 2 0.1676889869657968 0.1166296346123703 -0.2704045781570062 10.5091679847979940 5.2584651116655294 5.2273463669569615 0.0000278179149662 2.8638934888623631 0.7442677734273312 0.0000000000000000 0.0000000000000000 0.0000000000000000 0.0000000000000000 
204 2 0.0967092087408950 0.0462831308460618 -0.0766224479902142 8.9379748397051699 3.5617107642105155 3.8335555790131877 0.0000275753723750 2.8662643282826812 0.7250182621896076 0.0000000000000000 -0.0000000000000000 0.0000000000000000 0.0000000000000000 
66 1 0.0538236193532687 -0.1562102961244339 0.1453945687120896 10.9739456639508823 0.8324227688192530 3.4335457975154222 0.0000257870505282 2.9063731847315704 0.7804932225591931 0.0000000000000000 0.0000000000000000 -0.0000000000000000 0.0000000000000000 
111 2 0.1495430929951374 0.3597794382480409 0.2145024974272597 10.8358884977169296 4.3573732244494945 0.0189346614198937 0.0000262421111516 2.8877620132048269 0.7348959646920704 0.0000000000000000 -0.0000000000000000 -0.0000000000000000 0.0000000000000000 
140 2 0.0538912257386014 0.1822824325605038 0.1644451656895945 11.7244632161986253 2.3127575102415325 1.5828918475325260 0.0000269514130718 2.8788495583189118 0.7377965877530646 0.0000000000000000 -0.0000000000000000 0.0000000000000000 -0.0000000000000000 
152 2 -0.0868831672418248 -0.0804520504233390 0.1330555754727353 14.5297596666790678 0.0272504128521646 3.7270235926006468 0.0000263184750240 2.8943619202260154 0.7766816783857018 0.0000000000000000 -0.0000000000000000 0.0000000000000000 -0.0000000000000000 
207 2 -0.0704950042332076 0.0911535460010776 0.0964605602009537 13.8512531882853729 1.9461854010566619 3.9922192665228486 0.0000258109453471 2.9091362595916732 0.7944862729904707 0.0000000000000000 0.0000000000000000 -0.0000000000000000 -0.0000000000000000 
41 1 -0.0577218498300727 -0.0773886457518175 -0.0736936906716391 1.0782354776648679 7.9711375073393862 1.7159786846990093 0.0000220134786668 2.9618163694711499 0.7124303218289606 0.0000000000000000 0.0000000000000000 -0.0000000000000000 -0.0000000000000000 
76 1 0.0324568573665497 0.1060125268028400 0.0257756252174975 5.2920474697591793 8.5028162330752970 2.5021335507549671 0.0000214924606309 3.0098408269635488 0.8313387297701189 0.0000000000000000 0.0000000000000000 -0.0000000000000000 0.0000000000000000 
77 1 -0.0762836287308217 0.1793970470894531 0.0060789355704486 1.8514835599990269 5.6588811938908403 3.3958183165855376 0.0000242058175856 2.9189010816117786 0.7190195371727652 0.0000000000000000 0.0000000000000000 -0.0000000000000000 0.0000000000000000 
128 2 0.1281765651588039 -0.1805767677920544 0.0129761350522906 2.3412821543396607 10.3107824997954989 0.0737566144275703 0.0000243062839759 2.9018434639132944 0.6501867068217496 0.0000000000000000 0.0000000000000000 0.0000000000000000 0.0000000000000000 
136 2 -0.1287219936707051 0.1054133422537798 0.0709084606360131 1.6163234297269307 6.6740055930163615 3.7379235012715704 0.0000226323820481 2.9462209738263896 0.7091710084411528 0.0000000000000000 0.0000000000000000 0.0000000000000000 0.0000000000000000 
199 2 -0.0277978331998107 -0.0440456964243630 -0.1331246140303297 2.5006341978155811 7.6982947819458607 0.5391533250781122 0.0000218888747684 2.9815931264191375 0.7753791044035208 0.0000000000000000 -0.0000000000000000 0.0000000000000000 0.0000000000000000 
2 1 0.0555380636701423 0.2793688146541722 0.0005429851259006 8.9494669335759340 6.5124860941515186 0.9428025479743967 0.0000231803499685 2.9556593376489468 0.7832522657137710 0.0000000000000000 -0.0000000000000000 0.0000000000000000 0.0000000000000000 
12 1 -0.0293529191555492 0.2987781772981105 -0.0614686180094972 8.9060652041881863 8.9372235048123247 3.8141513659103872 0.0000208312421939 2.9979420164110531 0.7419957027548727 0.0000000000000000 -0.0000000000000000 -0.0000000000000000 0.0000000000000000 
17 1 -0.0454533124374576 0.2302593352908624 -0.0645701311684325 6.2616955152652363 8.6645458340843380 4.3552531126608045 0.0000212794405017 2.9883521936197037 0.7565182027714280 0.0000000000000000 0.0000000000000000 0.0000000000000000 0.0000000000000000 
64 1 0.0324996373431472 0.2271360535824136 -0.1429844558870352 8.1177574730707089 6.8063206427781813 2.6099578615075494 0.0000238354749177 2.9354245491200399 0.7598779628433956 0.0000000000000000 0.0000000000000000 0.0000000000000000 0.0000000000000000 
116 2 0.0406638687043672 0.1355860365104513 -0.2330471554641336 9.0499811252457718 5.7062370448195461 4.3939304955202818 0.0000273248125864 2.8611994597906083 0.6911815248652976 0.0000000000000000 -0.0000000000000000 0.0000000000000000 -0.0000000000000000 
149 2 0.1998481453399773 0.1672488185292979 -0.1018984340084498 10.3626080903741347 5.3903679881383484 2.5379131096817069 0.0000244253299071 2.9249379774671960 0.7696733354289617 0.0000000000000000 -0.0000000000000000 0.0000000000000000 -0.0000000000000000 
20 1 -0.0749404117783280 -0.0003354835223212 0.1819592674317570 13.8932106997525047 9.9487868660002423 3.5683576726336126 0.0000210269135277 2.9872606310614294 0.7481848179382261 0.0000000000000000 -0.0000000000000000 0.0000000000000000 -0.0000000000000000 
21 1 -0.0770851257549459 -0.1321566331936201 0.1304882006905936 13.9883477123989675 9.0818565370724080 2.7302857945156500 0.0000210178345025 2.9729521323133721 0.6868249136768614 0.0000000000000000 0.0000000000000000 -0.0000000000000000 0.0000000000000000 
102 1 -0.0847805816779203 -0.0004281429405629 0.0274399903990429 15.0808042351841607 7.3373953242171126 3.2155456381870420 0.0000208426790272 2.9998697411657491 0.7637104225780746 0.0000000000000000 -0.0000000000000000 -0.0000000000000000 0.0000000000000000 
166 2 0.0287331112630953 0.2192537268196474 0.0610459939497230 15.7828329523266699 6.0393760483193990 5.3021596896779437 0.0000218776472922 2.9640730836127220 0.7293085390607151 0.0000000000000000 -0.0000000000000000 0.0000000000000000 -0.0000000000000000 
175 2 -0.1753226930740229 -0.1291862575143665 0.1589871602353489 12.8281353117666441 10.0646436855168577 2.3959987964688598 0.0000216324989588 2.9608538136391096 0.6990378403181968 0.0000000000000000 -0.0000000000000000 0.0000000000000000 -0.0000000000000000 
191 2 -0.1055814698453850 -0.2777249051638295 0.0760774853517252 15.2078873084110633 10.3519418350427070 0.8506879615224836 0.0000247569905050 2.8864971411122582 0.6073565372082043 0.0000000000000000 -0.0000000000000000 0.0000000000000000 -0.0000000000000000 
37 1 0.0870299459472546 -0.2544878792467315 0.2049732623669942 2.1841622317899922 13.1533428550274003 3.3760681254575968 0.0000251793572278 2.9059251136345479 0.7397289551613484 0.0000000000000000 0.0000000000000000 0.0000000000000000 -0.0000000000000000 
39 1 0.0683458998547636 -0.2691234968059331 -0.0110498126089987 3.0911152771723454 15.9913751737272811 4.2785138193352026 0.0000291863907792 2.8325194684433557 0.6707063973919613 0.0000000000000000 0.0000000000000000 0.0000000000000000 0.0000000000000000 
45 1 0.1800481106978388 -0.0466155656613251 0.0728023318027566 4.0498825311653341 11.2152956828658326 1.0343578413128440 0.0000232791959792 2.9414011306945760 0.7450815198841197 0.0000000000000000 -0.0000000000000000 -0.0000000000000000 0.0000000000000000 
89 1 0.2149728354035020 -0.1380860263246254 0.0880660498517321 2.5507810435399576 13.7447254615917398 1.9390979627898237 0.0000270372585423 2.8714292999095190 0.7150149933153984 0.0000000000000000 -0.0000000000000000 0.0000000000000000 0.0000000000000000 
138 2 0.2271026613566208 -0.1960123515437857 0.1429388984404120 2.5828560717207893 11.4726254493221198 1.8476575495019991 0.0000242291741287 2.9102299663686102 0.6843582975205074 0.0000000000000000 0.0000000000000000 -0.0000000000000000 -0.0000000000000000 
145 2 0.0503275119695331 -0.1674542699252560 0.1218004867469882 0.9686818554517462 10.8075146055984899 1.5896734984686840 0.0000251846664165 2.8874342877024572 0.6465023893694707 0.0000000000000000 -0.0000000000000000 -0.0000000000000000 0.0000000000000000 
194 2 0.2237905150744156 -0.2217916136437993 0.0138501550986504 3.5112337762652079 14.8939523146773212 1.7834174778893075 0.0000271946010495 2.8738046382264626 0.7355881109356286 0.0000000000000000 0.0000000000000000 -0.0000000000000000 -0.0000000000000000 
196 2 0.1823539206472955 -0.1866367096663703 0.1623570026260890 4.9306273987173910 11.7453500753267335 3.6850107473952400 0.0000197524228164 3.0299936213795613 0.7638002480950765 0.0000000000000000 -0.0000000000000000 0.0000000000000000 0.0000000000000000 
210 2 -0.0226590364764148 -0.2273354390275626 0.2454170753280892 1.4669639946827380 13.4082837344816923 3.5074862896388339 0.0000255378898397 2.9053185428808188 0.7623424812945088 0.0000000000000000 0.0000000000000000 -0.0000000000000000 -0.0000000000000000 
11 1 -0.1442579346905347 -0.1078933953500575 0.0793065276992655 9.4171411198854340 11.2210325458300026 0.2531829513010735 0.0000207992490892 2.9927766171696213 0.7356394892647826 0.0000000000000000 0.0000000000000000 0.0000000000000000 -0.0000000000000000 
95 1 -0.1385343199163269 -0.0629017202731024 0.1593690747285650 9.9620656309648172 11.4215329339786038 1.1654082186358741 0.0000207364574532 2.9846993683525351 0.7123361077825189 0.0000000000000000 0.0000000000000000 -0.0000000000000000 -0.0000000000000000 
104 1 -0.0890580302295060 -0.2748786258640086 0.0986413053677143 8.5290490407551616 15.4360492059291410 1.6960747598751356 0.0000243893822330 2.9279928441148400 0.7712023477210789 0.0000000000000000 -0.0000000000000000 -0.0000000000000000 0.0000000000000000 
125 2 0.0156635800364090 -0.3798609113677234 0.0620013493568194 9.3196940632366410 15.3722047921963973 4.9563846042542972 0.0000220455856059 2.9870565182187150 0.8053675281173776 0.0000000000000000 -0.0000000000000000 0.0000000000000000 0.0000000000000000 
135 2 -0.1047818235262759 -0.0364116393147360 0.1357592595777658 9.6616117621335942 12.0094607630050749 2.8715607227121205 0.0000192306275347 3.0321104785955089 0.7582760774506061 0.0000000000000000 -0.0000000000000000 -0.0000000000000000 0.0000000000000000 
147 2 -0.1608074746634817 -0.2333603218064152 0.1138542025366586 9.2698828583512523 14.5530136597891318 1.2918144917665344 0.0000229980494560 2.9403455874305067 0.7052285998592630 0.0000000000000000 -0.0000000000000000 0.0000000000000000 -0.0000000000000000 
150 2 0.1592883540254221 -0.1566417725868750 0.0332983221679410 6.0043947090381415 13.7588065423476404 3.4711181697321898 0.0000211274405415 2.9996393126617136 0.7702173867048130 0.0000000000000000 0.0000000000000000 0.0000000000000000 0.0000000000000000 
22 1 -0.1418469686211449 -0.0832964017908404 0.2483650940986627 14.1975881171391336 14.7386414857605850 1.8522403662263400 0.0000277223859764 2.8763454054327005 0.7892610934189083 0.0000000000000000 -0.0000000000000000 -0.0000000000000000 0.0000000000000000 
52 1 -0.0594577457835277 0.0097030392092308 0.1707112559954962 11.1493290770786562 11.4446580272463319 2.9607084708819360 0.0000199634796655 3.0033831499738173 0.7232396133830246 0.0000000000000000 0.0000000000000000 0.0000000000000000 0.0000000000000000 
61 1 -0.2362664587137022 -0.1604600638503972 0.2431663548811753 11.9348794004342942 11.8040565687802506 1.6905966341040948 0.0000225555847538 2.9407977785203681 0.6825572363242888 0.0000000000000000 0.0000000000000000 0.0000000000000000 -0.0000000000000000 
142 2 -0.0927175890814285 -0.1262312796702260 0.1788161979536786 12.8426104647823713 15.3712466577495164 0.4870901047766498 0.0000294023601152 2.8430779088288949 0.7525033030417128 0.0000000000000000 -0.0000000000000000 -0.0000000000000000 -0.0000000000000000 
144 2 -0.1879470658561736 -0.1808801044836051 0.2161645615617427 11.2458426754568759 14.3171577359364317 1.0638370085692217 0.0000257965757072 2.8938313929251889 0.7258760924839480 0.0000000000000000 -0.0000000000000000 -0.0000000000000000 -0.0000000000000000 
178 2 -0.1445394489371425 -0.0447492898704016 0.1604995162629345 15.0978901615918293 15.8538747326404295 2.9527750766902896 0.0000274145299297 2.8703841414196560 0.7445724358486641 0.0000000000000000 0.0000000000000000 0.0000000000000000 -0.0000000000000000 
187 2 -0.1718899872285448 -0.0595188999570326 0.1017631136834213 16.0417810347850853 15.9312082212341686 2.5137475493092682 0.0000293755658591 2.8357623322761238 0.7141552181173829 0.0000000000000000 -0.0000000000000000 -0.0000000000000000 0.0000000000000000 
190 2 -0.0513346632690290 -0.1871054815621621 0.0466701368731032 15.5640077072121414 11.0775643516336739 0.6520161209314064 0.0000261807610298 2.8676864139737166 0.6248412448214007 0.0000000000000000 -0.0000000000000000 -0.0000000000000000 0.0000000000000000 
26 1 -0.1334661964711030 0.3457897336846200 0.1532727995703892 2.5493620890468631 4.9077104145810004 6.0067308274475639 0.0000248003844154 2.9101931008501278 0.7289177606563809 0.0000000000000000 0.0000000000000000 -0.0000000000000000 -0.0000000000000000 
72 1 -0.0588285463969171 0.1153158125462599 0.0954446630018271 4.7836240080694665 2.7678841914717407 8.7430664861925198 0.0000281285557446 2.8617261215989807 0.7524460228379757 0.0000000000000000 0.0000000000000000 -0.0000000000000000 -0.0000000000000000 
91 1 -0.1950134088362752 0.2775472458759067 0.0257849953765652 3.9378810312547050 5.2830591866641896 5.6329578827593814 0.0000256713324296 2.8983731113934765 0.7371902153159035 0.0000000000000000 -0.0000000000000000 -0.0000000000000000 0.0000000000000000 
137 2 0.0794788901748444 -0.0024452170898847 0.0285110348012251 5.0277286101544219 1.4623142293988693 5.8394834928854999 0.0000288981059116 2.8504360928741921 0.7464359120148014 0.0000000000000000 -0.0000000000000000 -0.0000000000000000 0.0000000000000000 
153 2 0.0499566880227187 0.3657423924391917 0.0137107452147931 1.3775289110241111 3.0192089418181549 10.4464593846054914 0.0000259960427066 2.8961745543030863 0.7562733072288147 0.0000000000000000 0.0000000000000000 -0.0000000000000000 0.0000000000000000 
161 2 -0.1544773921452849 0.3152553622818294 0.0605167788350586 0.9810655252271259 3.3650934664347560 5.6039945948195884 0.0000273266430905 2.8744635272049903 0.7603873375829517 0.0000000000000000 -0.0000000000000000 0.0000000000000000 -0.0000000000000000 
170 2 0.0314281197092029 0.1457781806994348 0.0053964406985592 2.3137913148375109 1.3056834076233268 10.4014203626275155 0.0000298714395794 2.8254248096450589 0.6947520823696040 0.0000000000000000 0.0000000000000000 -0.0000000000000000 0.0000000000000000 
16 1 -0.1286354420967080 0.0859696074185823 0.0147962245768547 5.9475958402047162 4.3332800421516176 6.6160467536752705 0.0000291184741566 2.8495225716384276 0.7694960004482712 0.0000000000000000 -0.0000000000000000 -0.0000000000000000 -0.0000000000000000 
40 1 -0.0892053055182993 0.0849275965161931 0.0077622610051546 6.0900295485517715 4.1793796438763939 6.2108032783295037 0.0000293646362951 2.8471171808652085 0.7747458112589702 0.0000000000000000 0.0000000000000000 -0.0000000000000000 -0.0000000000000000 
55 1 0.1329063599525080 -0.3659471872994685 -0.0097844585923533 7.6807065368133367 0.2489761353685778 6.2157142034751569 0.0000248621524665 2.9170144820264063 0.7630669638228267 0.0000000000000000 -0.0000000000000000 -0.0000000000000000 0.0000000000000000 
65 1 0.0162727316987214 -0.2921724665037334 -0.0927379893896332 9.2608897554653371 1.4608304499034825 6.3325190191696921 0.0000267065268400 2.8840516072651523 0.7454697394296915 0.0000000000000000 -0.0000000000000000 0.0000000000000000 -0.0000000000000000 
85 1 -0.0666431120355443 -0.2221042058972806 -0.1137053510992161 10.0535559170793682 2.3076018644950489 8.7376303455959441 0.0000302155506396 2.8297171791635161 0.7279015158436166 0.0000000000000000 0.0000000000000000 -0.0000000000000000 -0.0000000000000000 
103 1 -0.1182781785480937 0.1028231518940085 -0.0988715278761028 7.5166287179083380 5.2744731963629983 6.6550307616993152 0.0000298909601923 2.8268462287480078 0.6929192189126251 0.0000000000000000 0.0000000000000000 0.0000000000000000 0.0000000000000000 
105 1 0.0326004448714824 0.0138433943433659 0.1225768194359571 5.6701556239580730 2.0939946597932715 9.3555500117988579 0.0000278570307808 2.8611192478912422 0.7211926845007041 0.0000000000000000 0.0000000000000000 0.0000000000000000 -0.0000000000000000 
109 2 -0.1958357593693026 0.0263992134930520 0.0572568454630662 8.0586138877203499 4.4160449949573124 10.3185352303197391 0.0000303539225767 2.8331432620741461 0.7640540868401104 0.0000000000000000 0.0000000000000000 -0.0000000000000000 -0.0000000000000000 
122 2 0.0869704733235873 -0.1551158636958928 0.0576773127183916 6.4575244337059692 1.1371985790647607 9.1374803317071862 0.0000270827943212 2.8755304473121792 0.7331438501426941 0.0000000000000000 0.0000000000000000 0.0000000000000000 -0.0000000000000000 
133 2 -0.1441380222825273 0.0559304620046797 0.0733211749955246 5.8410286485644178 4.1461850350429508 7.7178428178929996 0.0000289475396518 2.8543131741001027 0.7837785510193729 0.0000000000000000 0.0000000000000000 0.0000000000000000 0.0000000000000000 
155 2 -0.0483732685011155 -0.3342539548244485 -0.0944100473579507 8.6499178635853511 1.3912785563581906 8.3208511901291473 0.0000279821430090 2.8681101420252273 0.7712350716134229 0.0000000000000000 0.0000000000000000 -0.0000000000000000 0.0000000000000000 
8 1 0.0573725864288233 -0.1949061178380796 -0.2208586990626825 12.2832456460860246 1.6731386740164134 5.8674951049737940 0.0000261939867697 2.8883965379521594 0.7370935717595080 0.0000000000000000 -0.0000000000000000 0.0000000000000000 0.0000000000000000 
15 1 0.0173812402488441 -0.1310989182192794 -0.1755381260506685 14.4744672845086573 1.1130457835427450 8.5465607934565071 0.0000293692495017 2.8419233610247199 0.7498362963879249 0.0000000000000000 0.0000000000000000 0.0000000000000000 -0.0000000000000000 
19 1 0.0125311086005389 -0.1171616496776058 -0.2158122705487763 13.7178656765194820 1.4120573451492433 8.2326034623208493 0.0000293288112803 2.8387323683546128 0.7297941700498551 0.0000000000000000 -0.0000000000000000 0.0000000000000000 0.0000000000000000 
75 1 0.1316846952295903 0.1801157857603321 0.0029897119054406 12.2760030193636300 3.6737539506070060 10.6613710126680701 0.0000317576206636 2.7990765856278870 0.6732451074512433 0.0000000000000000 -0.0000000000000000 -0.0000000000000000 -0.0000000000000000 
87 1 0.0637313940700320 -0.0795677635586800 -0.1297121115300643 14.7006240185642092 0.8459834714370260 10.4795016671020207 0.0000311721506259 2.8146521842382244 0.7201939767817332 0.0000000000000000 -0.0000000000000000 -0.0000000000000000 -0.0000000000000000 
100 1 0.2823025808718067 0.2820758184936552 -0.0033115385106347 12.8295946124228557 4.6131853225382402 9.8900802382821045 0.0000291275658241 2.8372550354970087 0.6962154395559906 0.0000000000000000 0.0000000000000000 0.0000000000000000 0.0000000000000000 
124 2 0.0932565875369865 -0.2162582365089545 -0.1753669213414318 11.6252209077335760 1.7012241416305542 6.8154080484636310 0.0000279745076023 2.8599072918155946 0.7333872852331466 0.0000000000000000 -0.0000000000000000 -0.0000000000000000 0.0000000000000000 
163 2 -0.0555266568960641 -0.2980109011087783 -0.1410506245086104 12.3720961893461396 0.0176478732690946 7.2021294744319295 0.0000250236268656 2.9007601950375204 0.7060901427949255 0.0000000000000000 0.0000000000000000 -0.0000000000000000 -0.0000000000000000 
176 2 0.2935541662838034 0.1423304005539576 -0.1259128867647564 12.1496414376696809 4.8692261526975544 7.5569478134901447 0.0000289669396414 2.8500715289859300 0.7480195410796456 0.0000000000000000 -0.0000000000000000 -0.0000000000000000 0.0000000000000000 
201 2 0.1278429705469537 0.1319844557964449 -0.1478209705836662 13.5190916042385965 2.5790115209479483 9.9405403999445578 0.0000312204305356 2.8100687087997542 0.6982655506378395 0.0000000000000000 0.0000000000000000 0.0000000000000000 0.0000000000000000 
202 2 0.0071475002947379 -0.1188056307028212 -0.1837849184747964 13.8848719721743397 1.5367077856317131 7.0546321592602954 0.0000275409746709 2.8668603859928838 0.7392308093981564 0.0000000000000000 -0.0000000000000000 0.0000000000000000 0.0000000000000000 
4 1 -0.1581441783861892 -0.1553875672279685 -0.1353346110728595 4.6535435326456982 10.5703223987151684 10.6403213802995698 0.0000201978580839 3.0051610340706025 0.7279556963649852 0.0000000000000000 -0.0000000000000000 -0.0000000000000000 0.0000000000000000 
63 1 -0.0460047452450606 0.0964977470838103 0.2446092218742293 1.7271929777173964 8.4439801123759253 6.3973979598990196 0.0000185056651477 3.0570910841275243 0.7639906898420528 0.0000000000000000 0.0000000000000000 0.0000000000000000 -0.0000000000000000 
68 1 -0.1004601214455089 0.0970340547094697 0.1078506809592832 3.8702895132618402 9.2314071144997261 6.5908772797619015 0.0000193484924237 3.0415077790100438 0.7893025543194275 0.0000000000000000 0.0000000000000000 0.0000000000000000 0.0000000000000000 
106 2 0.1142390964950880 0.2570913562388122 0.1880316871060559 0.0636660909520302 7.3665868746458347 7.5426700566994338 0.0000175465517305 3.0647720699566765 0.7113227856485453 0.0000000000000000 -0.0000000000000000 -0.0000000000000000 0.0000000000000000 
113 2 -0.2101342308313298 0.1343222322609487 0.1250943726571805 4.1417464427483779 8.7701536787210159 7.1712747818529614 0.0000194815308494 3.0328230443301223 0.7736801248869974 0.0000000000000000 -0.0000000000000000 0.0000000000000000 0.0000000000000000 
6 1 -0.1779944504975265 0.2390731125650384 -0.0600881173098856 6.2587178288341940 9.1750379062874821 7.9014848635970916 0.0000216795017475 2.9707774973367620 0.7290799442752449 0.0000000000000000 0.0000000000000000 -0.0000000000000000 0.0000000000000000 
43 1 0.0814276137633320 0.3530354516294066 -0.0860671716737980 9.4651169008495994 7.0610268615406104 7.9236149198070125 0.0000291877173045 2.8288755344707073 0.6526373556313376 0.0000000000000000 0.0000000000000000 0.0000000000000000 -0.0000000000000000 
46 1 -0.1081708935624306 0.3139857638509908 -0.0915909066278648 7.7547810658903753 8.6296779939751538 6.6494460654253285 0.0000233133119993 2.9215268011235818 0.6551559969140395 0.0000000000000000 -0.0000000000000000 -0.0000000000000000 0.0000000000000000 
69 1 -0.1889203380017467 0.3130625084791653 -0.0575640698116628 6.4721717309465507 7.7490251795694363 6.0822971235292611 0.0000240668522054 2.9102610939952229 0.6635707995961376 0.0000000000000000 0.0000000000000000 -0.0000000000000000 -0.0000000000000000 
86 1 -0.0262209031450481 0.3902098472521587 -0.0702172356908325 8.8856246694716479 7.6120901819814977 7.8038088158149650 0.0000278427551054 2.8460110497661018 0.6464428324301515 0.0000000000000000 0.0000000000000000 -0.0000000000000000 -0.0000000000000000 
131 2 0.0687322992778132 0.3704266234459248 -0.0287361134966703 9.3977547409548894 9.5127742567730795 9.3227491148557835 0.0000227601104875 2.9485863626686943 0.7255050382838528 0.0000000000000000 0.0000000000000000 -0.0000000000000000 -0.0000000000000000 
143 2 -0.1297660350693514 0.1748919830266492 0.1303937180165598 8.4128018881370501 6.1477583838642831 9.0594629753137585 0.0000302482020834 2.8233609769386083 0.6952041494921863 0.0000000000000000 0.0000000000000000 0.0000000000000000 -0.0000000000000000 
172 2 0.0586747850640588 0.3883476319475986 -0.0191821232571872 9.1853312035156325 8.0599222110355448 8.7671794313527247 0.0000268686025500 2.8650587435926056 0.6764805313719419 0.0000000000000000 0.0000000000000000 -0.0000000000000000 -0.0000000000000000 
183 2 0.1136222696702994 0.2268385091965490 -0.2440064733435909 10.2942648316973262 6.1042102409317867 5.9761114853040382 0.0000283116390834 2.8488140567231275 0.6995761001622299 0.0000000000000000 0.0000000000000000 -0.0000000000000000 -0.0000000000000000 
197 2 -0.3347722145544567 0.1715319193498039 0.0923906773921918 6.5193128223781178 6.4745780220031062 10.6458134380389424 0.0000259932669676 2.8972998289305156 0.7522510446488329 0.0000000000000000 0.0000000000000000 0.0000000000000000 0.0000000000000000 
203 2 0.0001115838239860 0.1243464231039364 -0.0634706060867184 7.0003360597416400 10.3664972134462161 10.4791484164746738 0.0000214416620397 2.9719985529395290 0.6988505424812512 0.0000000000000000 0.0000000000000000 -0.0000000000000000 0.0000000000000000 
5 1 0.1406111691653248 -0.1178994684636892 -0.0883403467125910 14.8121928190057126 10.0370669627356754 10.1443057895458573 0.0000164833281985 3.1510272984402521 0.8220596609829481 0.0000000000000000 -0.0000000000000000 0.0000000000000000 -0.0000000000000000 
27 1 0.2475138594322250 0.2492644319129295 -0.0176384776002056 13.8410328039300854 6.8131947078225661 7.0653965607210631 0.0000223208816162 2.9571212033349292 0.7214979133896622 0.0000000000000000 -0.0000000000000000 -0.0000000000000000 0.0000000000000000 
56 1 0.0566614555392401 0.1430505844262334 0.0830142948928975 13.0719038185533041 9.8787718109593268 5.5054537456920247 0.0000193487691159 3.0469911082531178 0.7951229615363630 0.0000000000000000 0.0000000000000000 -0.0000000000000000 -0.0000000000000000 
74 1 0.3343040731291943 0.3907555993901644 0.1284316467520926 12.1552935195782830 6.8688126209864651 10.0255714455392422 0.0000248100071288 2.9032943075589706 0.6936228392229685 0.0000000000000000 -0.0000000000000000 -0.0000000000000000 0.0000000000000000 
98 1 0.1889515418110969 0.3288326412593389 -0.1291220867226809 10.9778477343111636 7.4946454598121885 6.8239298824604910 0.0000262018877920 2.8817645146013877 0.7029410424196567 0.0000000000000000 0.0000000000000000 0.0000000000000000 -0.0000000000000000 
107 2 0.2324884336508506 0.3823181466973452 0.1180637350003156 11.2359311962998891 6.7443884764806565 9.7356032858161470 0.0000272472150066 2.8630344444973801 0.6849182201711679 0.0000000000000000 0.0000000000000000 -0.0000000000000000 -0.0000000000000000 
177 2 0.2351164414623500 0.2789983819747253 0.2006085567554753 14.7992716765091679 7.7067576301616647 7.9780276609118497 0.0000181554636705 3.0406477239099843 0.6862732118549981 0.0000000000000000 -0.0000000000000000 0.0000000000000000 0.0000000000000000 
205 2 0.3771939524727194 0.4200604224857961 0.0863048503469653 14.0400908073961901 6.6176412331525887 9.6864851965470677 0.0000214976986036 2.9785722575579960 0.7534518894538724 0.0000000000000000 0.0000000000000000 -0.0000000000000000 -0.0000000000000000 
3 1 0.0424105838877174 -0.2175203959236040 -0.0925386909723941 4.4100162183673906 12.6465108256102798 10.6457581981898333 0.0000229727864873 2.9375877924145839 0.7068886264770891 0.0000000000000000 -0.0000000000000000 0.0000000000000000 -0.0000000000000000 
14 1 -0.0412283139778088 -0.1420513572808434 -0.0117699421580487 2.2968630244496078 16.0348082106224510 9.5414754350370625 0.0000296653874350 2.8261192606201249 0.6749075282794068 0.0000000000000000 -0.0000000000000000 -0.0000000000000000 -0.0000000000000000 
71 1 0.1119535163080926 -0.3187962147992577 -0.0138116285302227 3.6040212242717220 14.3782675193745053 8.8205084996765351 0.0000264931537987 2.8704373004966910 0.6767327122359121 0.0000000000000000 -0.0000000000000000 0.0000000000000000 0.0000000000000000 
81 1 0.0234469772467600 -0.2503533008123480 -0.0291098456660314 2.7974441741101455 14.7791394691199578 10.0955393991985041 0.0000281643531108 2.8447857220613701 0.6687843398764665 0.0000000000000000 0.0000000000000000 -0.0000000000000000 -0.0000000000000000 
126 2 0.0213905448384701 -0.4596784462323124 -0.0035441072220179 3.0411832633641240 14.4881247331402072 6.2058377510703515 0.0000259005682391 2.8902889907949545 0.7203550312549881 0.0000000000000000 0.0000000000000000 0.0000000000000000 -0.0000000000000000 
141 2 0.0717697483215515 -0.2115493902966633 0.0226276329053260 3.8334412978755070 15.8420635130340983 8.1987058006059357 0.0000288739733255 2.8383059632827599 0.6834224658415506 0.0000000000000000 -0.0000000000000000 -0.0000000000000000 0.0000000000000000 
158 2 -0.1896741241566693 -0.3887225124062066 -0.0750885047649341 0.0955936295089132 14.4194131254782310 8.1357766269652085 0.0000238483420265 2.9407126581261096 0.7704081520194624 0.0000000000000000 0.0000000000000000 0.0000000000000000 -0.0000000000000000 
159 2 -0.0993490822909405 -0.3669092514159353 0.0261090150529391 2.4516629424696714 12.2907802617187354 7.5118387145812431 0.0000199038533051 3.0294970075880263 0.7807359128322627 0.0000000000000000 0.0000000000000000 0.0000000000000000 -0.0000000000000000 
186 2 0.1922061847644095 -0.3326862927515263 -0.0413087277943521 4.3086482516633371 14.7002092308774834 6.6626629734308906 0.0000260085801193 2.8835507576304860 0.7043280509303907 0.0000000000000000 -0.0000000000000000 0.0000000000000000 0.0000000000000000 
206 2 0.0540159753123320 -0.2808942149913692 -0.0025326329673920 2.9775391932804021 14.1433741478705723 10.5499532265816036 0.0000262601677617 2.8710409413249751 0.6522331880414626 0.0000000000000000 0.0000000000000000 0.0000000000000000 0.0000000000000000 
1 1 -0.0048541368974841 -0.2735729111514658 -0.1171485821996941 9.6559992392789606 14.0444565382736553 8.9539938398516448 0.0000203716979054 3.0286593291250741 0.8211318458966657 0.0000000000000000 -0.0000000000000000 0.0000000000000000 -0.0000000000000000 
23 1 0.2096023761685276 -0.2936429928036025 0.0068159242350673 5.5169486821215488 15.2395679154931347 6.4678360935557837 0.0000257494206972 2.8926059561291968 0.7318117661753867 0.0000000000000000 -0.0000000000000000 -0.0000000000000000 0.0000000000000000 
129 2 0.1886439860673011 -0.2734837542150275 -0.0814234135003353 6.4708177144848271 14.6829190427976624 8.0689948310518833 0.0000231190984394 2.9503115206413875 0.7605940313342657 0.0000000000000000 0.0000000000000000 0.0000000000000000 -0.0000000000000000 
117 2 -0.0667869038754357 -0.3814764966939393 -0.2075109842965561 14.3080497742679391 15.3478389953660983 8.5211941519637477 0.0000260602140929 2.8928085428278996 0.7489511752866466 0.0000000000000000 0.0000000000000000 0.0000000000000000 0.0000000000000000 
132 2 -0.0927935761794202 -0.3292901185760100 -0.1193784128165907 11.0490003164359969 14.1649234351407216 8.2568977046764065 0.0000201253588368 3.0081671841584421 0.7381436096510792 0.0000000000000000 -0.0000000000000000 -0.0000000000000000 -0.0000000000000000 
134 2 0.0581414216969974 0.2121290861620759 -0.0507001593930973 11.8823327171386524 10.8910673986169879 7.4494701191557171 0.0000178852957743 3.0807380936800883 0.7632358427064077 0.0000000000000000 -0.0000000000000000 0.0000000000000000 0.0000000000000000 
148 2 -0.0867152052071642 -0.2792583282356018 -0.0711826553749715 14.1755579308924951 12.7952829063454825 7.8511693039480441 0.0000189445041176 3.0624609028802698 0.8174480745360694 0.0000000000000000 -0.0000000000000000 -0.0000000000000000 0.0000000000000000 
192 2 -0.0709188565264256 -0.2999190187026290 -0.1714701362662702 14.0919991028524816 12.8119683769942565 9.7614777284533307 0.0000201676529845 3.0163405345963894 0.7687170003674403 0.0000000000000000 0.0000000000000000 0.0000000000000000 0.0000000000000000 
198 2 -0.1110094534468529 -0.4543966162931146 -0.1926029216128481 11.4600782533997219 14.0331857938794116 9.5467879214003197 0.0000211856737339 2.9834116444231542 0.7299559995105264 0.0000000000000000 -0.0000000000000000 -0.0000000000000000 -0.0000000000000000 
25 1 0.1062063778220480 0.1401959838108171 -0.0472784029151532 1.0002953804251131 1.2098476907156355 10.8747580750087085 0.0000300634000397 2.8219107178143945 0.6830971393949995 0.0000000000000000 -0.0000000000000000 0.0000000000000000 -0.0000000000000000 
28 1 0.1533270791189105 0.1509147066173416 -0.0357128206853644 0.7890026169812356 1.5379346968747980 12.0608226593403334 0.0000295076746422 2.8268401345540837 0.6603110218200412 0.0000000000000000 -0.0000000000000000 0.0000000000000000 -0.0000000000000000 
48 1 0.0531607710407517 0.3527507402654340 0.0194139968381262 2.3872148995302660 2.6860201754972457 10.8545500028457393 0.0000270103730614 2.8707371822395045 0.7211041525596877 0.0000000000000000 -0.0000000000000000 -0.0000000000000000 0.0000000000000000 
49 1 -0.1619559401202166 0.2247121427197602 -0.0635158282132577 3.8685954830673173 4.6771925741867788 14.7602681627006120 0.0000234997015682 2.9332140868553074 0.7148495556951402 0.0000000000000000 -0.0000000000000000 -0.0000000000000000 0.0000000000000000 
83 1 -0.0976965313569679 0.3320728492911983 -0.0304749273761855 4.0060344744601819 3.1789883072061560 10.9049391860373337 0.0000262557782300 2.8878631518469016 0.7413833862328874 0.0000000000000000 0.0000000000000000 -0.0000000000000000 0.0000000000000000 
94 1 0.0315962640668092 0.2927340569960809 0.0071521829928812 0.3803207381170560 2.2298078949881472 15.6726877723084304 0.0000288946411226 2.8487116991964618 0.7465817233225436 0.0000000000000000 -0.0000000000000000 -0.0000000000000000 0.0000000000000000 
97 1 0.0250661065567025 0.3358547090375159 -0.1283203909178400 1.9293580248773681 2.9051040650021678 15.8246022505608934 0.0000275178536858 2.8672598453763580 0.7377204620427565 0.0000000000000000 -0.0000000000000000 -0.0000000000000000 -0.0000000000000000 
112 2 0.2033896631426732 -0.1629613016084566 0.0402085726409001 4.3240499813022781 0.5633865605582280 12.7628193988870198 0.0000267205151400 2.8919571821991799 0.7757252485629264 0.0000000000000000 0.0000000000000000 -0.0000000000000000 -0.0000000000000000 
127 2 0.0045290735276858 0.2203147066741643 0.0571649926539331 0.4875166939884867 1.6880064461745448 15.9507724954920889 0.0000297353430874 2.8342961487032583 0.7315390574803005 0.0000000000000000 0.0000000000000000 0.0000000000000000 0.0000000000000000 
162 2 -0.3208760336963504 0.2496309330934983 -0.0059895710539419 4.2267161115771001 5.1853431981247819 11.9550403789981630 0.0000225933272809 2.9659282371691988 0.7836769248286901 0.0000000000000000 -0.0000000000000000 -0.0000000000000000 0.0000000000000000 
174 2 0.0570300699172665 0.3673499714547205 -0.0026257928806569 2.0430877392448528 2.7250808324584912 13.0744541503704763 0.0000272492265478 2.8681856044020995 0.7206201319074983 0.0000000000000000 0.0000000000000000 -0.0000000000000000 -0.0000000000000000 
189 2 0.1207441425716098 0.2711437126950267 0.0199868701149834 0.1786707660835324 2.0968475351041778 14.1908895247818148 0.0000294624017169 2.8377714749183842 0.7273792244825372 0.0000000000000000 -0.0000000000000000 0.0000000000000000 0.0000000000000000 
18 1 -0.1036123652679043 0.0934272625022899 0.1540590588501014 10.1552551825152264 3.4365480071051420 11.8054365025533610 0.0000322752275893 2.8002603986224326 0.7240502005403902 0.0000000000000000 0.0000000000000000 0.0000000000000000 -0.0000000000000000 
38 1 -0.1877115494459853 -0.0634164013643745 0.0022814919611684 7.6392884605463198 3.0861596750976057 12.0596697510897712 0.0000290415368134 2.8543346642675020 0.7838056391276004 0.0000000000000000 0.0000000000000000 -0.0000000000000000 0.0000000000000000 
54 1 -0.1358850494841873 -0.0607354404869084 0.0733772227689940 10.1226733212584215 2.9417265997750217 11.4657253201805460 0.0000324572248746 2.7990008674256606 0.7322541702021531 0.0000000000000000 -0.0000000000000000 0.0000000000000000 0.0000000000000000 
70 1 -0.0838144634106929 0.1022860645336577 -0.0449690104414097 5.4902396672084954 3.5758561498443973 14.0066001617179126 0.0000267359178240 2.8833899751198855 0.7458053447151015 0.0000000000000000 0.0000000000000000 0.0000000000000000 -0.0000000000000000 
84 1 -0.1201929677376428 -0.0654723783113093 0.0321450441541686 7.8884635114177284 2.2728105958936817 16.0537837696957517 0.0000284698361647 2.8458583355648850 0.6967531167512202 0.0000000000000000 0.0000000000000000 0.0000000000000000 -0.0000000000000000 
168 2 -0.1584502667102389 -0.1870073277040957 -0.0002407570491169 7.4476393405993795 1.8015569987646576 13.7210910197772922 0.0000275649048266 2.8764003115254275 0.7810403748697426 0.0000000000000000 0.0000000000000000 0.0000000000000000 -0.0000000000000000 
169 2 -0.1835830628355474 -0.1778812851967963 0.0297459983686423 7.9034906417269832 1.7643859474162253 15.2686186100408072 0.0000282854506995 2.8527685804040850 0.7214825020637402 0.0000000000000000 -0.0000000000000000 -0.0000000000000000 0.0000000000000000 
184 2 -0.1912527945252930 -0.3523285109673814 0.0156562612005548 9.6229507052541425 1.6684103969040360 10.8794678230070261 0.0000298954821903 2.8402498958624225 0.7747699362063454 0.0000000000000000 -0.0000000000000000 -0.0000000000000000 -0.0000000000000000 
188 2 -0.1339205855520300 -0.0765640902148339 0.0985673287339959 9.5553010381558643 2.3271412014474433 15.3220211996464659 0.0000299926846793 2.8191206544908951 0.6507006261034282 0.0000000000000000 -0.0000000000000000 -0.0000000000000000 -0.0000000000000000 
195 2 -0.0395314779957213 0.2190035775833599 0.1216611507337753 8.2689049978461657 4.7232051570342390 16.0407550666358922 0.0000266840868177 2.8770071704469133 0.7085882963435365 0.0000000000000000 -0.0000000000000000 0.0000000000000000 0.0000000000000000 
29 1 0.1814943338321993 0.3526017969277654 0.1468086653725916 12.3523397237481785 5.2029095312051252 15.4630656740496768 0.0000227110290039 2.9712155461032284 0.8014633231159205 0.0000000000000000 -0.0000000000000000 -0.0000000000000000 0.0000000000000000 
32 1 0.0306181206922249 -0.1480420192664224 0.0474509362147662 14.5673614264150313 0.0429276476861717 13.4881283054987513 0.0000317404198759 2.8095373992734802 0.7336069913090766 0.0000000000000000 0.0000000000000000 -0.0000000000000000 -0.0000000000000000 
44 1 0.1365498638686561 0.4242064061221976 0.1653520256279574 12.4024000234225511 3.5751963616106064 13.4803145231310957 0.0000301689515109 2.8202541631749609 0.6802030253847767 0.0000000000000000 0.0000000000000000 0.0000000000000000 -0.0000000000000000 
47 1 0.1030780324960526 0.0430894662719404 -0.0142799733622838 14.0538423415614346 1.3794236569047973 12.0869091953828569 0.0000326357136167 2.7937035110388808 0.6993371634335647 0.0000000000000000 0.0000000000000000 -0.0000000000000000 -0.0000000000000000 
60 1 -0.1161959544782720 -0.1133752811972724 -0.0518549996608109 11.2769960337455011 2.0876710044281745 11.5174063719083684 0.0000327946414450 2.7905739046889941 0.7002665123862031 0.0000000000000000 -0.0000000000000000 0.0000000000000000 -0.0000000000000000 
80 1 0.0470258514891916 0.3970664497418682 -0.0288723355555536 15.6952040442934635 4.9669472836441031 14.4600894723637268 0.0000215128191636 3.0152352326005465 0.8423896872678124 0.0000000000000000 0.0000000000000000 0.0000000000000000 0.0000000000000000 
90 1 -0.0471700270321559 -0.0150719284087092 0.1006514875789564 11.9711345400159193 1.2381896965816375 14.4977153530615315 0.0000322093133518 2.7943027223309840 0.6735811699341612 0.0000000000000000 0.0000000000000000 0.0000000000000000 0.0000000000000000 
118 2 -0.0236022868704532 -0.0010292528850511 0.1590759037541421 12.2714275761946041 1.1730191511891590 14.9763589416740253 0.0000316803138644 2.8005836384998819 0.6717373530544208 0.0000000000000000 -0.0000000000000000 0.0000000000000000 0.0000000000000000 
119 2 -0.0523179105352010 0.0006901926511830 0.1908724924529130 12.1320534077680744 0.8968636440511182 15.5840765412715907 0.0000311007694967 2.8098921757926396 0.6857460601305853 0.0000000000000000 -0.0000000000000000 0.0000000000000000 0.0000000000000000 
123 2 0.2099369630587873 0.3114145066609236 0.0186336844842976 12.5432970698041899 3.7643433280865186 11.3421413171592214 0.0000316451241167 2.8023348167753488 0.6907300266593890 0.0000000000000000 0.0000000000000000 0.0000000000000000 0.0000000000000000 
139 2 0.1200614304837189 0.3546543022589058 0.1449927138912284 12.4358922967155259 2.9902465188456300 13.9059339906268278 0.0000314649254731 2.8045705069323050 0.6887273695441549 0.0000000000000000 -0.0000000000000000 -0.0000000000000000 -0.0000000000000000 
208 2 0.0241381338337036 0.0767217818696077 0.1053506539151656 12.6301547659249671 1.7551396263733201 13.5332124116544872 0.0000333614017856 2.7822399035525160 0.6889129946130946 0.0000000000000000 -0.0000000000000000 0.0000000000000000 0.0000000000000000 
33 1 -0.0503436231143317 -0.3004060197209938 -0.3095898992305039 1.4102877377328189 10.0239307735528040 14.3523903458018243 0.0000217654212876 2.9601904443848936 0.6920745732530972 0.0000000000000000 -0.0000000000000000 0.0000000000000000 -0.0000000000000000 
121 2 -0.1791455898747579 0.0827339175932657 -0.1382696068619292 3.6925145172229246 6.4522324585795481 14.6713144022427997 0.0000214517805875 2.9945893389124825 0.7903324154328033 0.0000000000000000 -0.0000000000000000 -0.0000000000000000 -0.0000000000000000 
53 1 0.0444763686790175 0.1068848934017863 0.0352634804894482 7.5412425094833546 9.7830666209509243 13.6091511189047871 0.0000222761868552 2.9469372562427312 0.6896676895855220 0.0000000000000000 -0.0000000000000000 -0.0000000000000000 -0.0000000000000000 
73 1 -0.1020212952704783 0.0027885251358192 -0.0219348301528164 6.1236059035753971 9.6404011398191614 12.1704787072618448 0.0000225061837372 2.9390639025494742 0.6689278536706645 0.0000000000000000 -0.0000000000000000 -0.0000000000000000 0.0000000000000000 
82 1 -0.1845543080803827 0.1754211276185290 -0.0029345798567865 5.4839068022251922 5.8914471925614826 13.1634636853513598 0.0000242310229361 2.9241097035344401 0.7493934649814172 0.0000000000000000 -0.0000000000000000 0.0000000000000000 -0.0000000000000000 
88 1 0.0540162384558931 0.2322642276973087 0.1364263323548284 8.3443217027047059 7.5886672464391971 13.1698637632294204 0.0000243046059966 2.9242861850242177 0.7521339712429128 0.0000000000000000 0.0000000000000000 -0.0000000000000000 -0.0000000000000000 
93 1 -0.1122282792889405 0.2215389308597754 0.1721058616687277 7.9226158339628601 6.0525926827145575 12.5622072977747283 0.0000272256587659 2.8759987237888751 0.7534012513955138 0.0000000000000000 -0.0000000000000000 0.0000000000000000 -0.0000000000000000 
154 2 0.0602804775156186 0.2256088787008834 0.1649727342110764 8.7736931767150654 8.0123011137602731 11.8372530479258629 0.0000247669844094 2.9124710428284271 0.7334274079261449 0.0000000000000000 0.0000000000000000 0.0000000000000000 -0.0000000000000000 
164 2 0.0053489662331102 -0.0261100143416949 0.0928903598587482 6.3581539459548582 9.2193031325447095 14.8690347552323843 0.0000221656329828 2.9609854973455283 0.7264872270429995 0.0000000000000000 -0.0000000000000000 -0.0000000000000000 0.0000000000000000 
173 2 -0.0948724632894295 0.1727657123321246 0.1164505237705091 6.8649394562489432 6.9709315968888443 13.9145892196115391 0.0000242150310662 2.9212716266867851 0.7339963756920130 0.0000000000000000 0.0000000000000000 -0.0000000000000000 0.0000000000000000 
7 1 0.0717585612235704 -0.1724474065857084 -0.1195607269845775 12.9358026475954322 8.7437424610350583 14.6703703883478056 0.0000192850134872 3.0471321306662729 0.7799962079732957 0.0000000000000000 -0.0000000000000000 0.0000000000000000 0.0000000000000000 
59 1 0.0126732705268101 -0.2672536889301809 -0.1393145801678923 13.7451237378770461 8.7717350021976088 15.5088307444966986 0.0000200626471119 3.0039433259163735 0.7219243975376424 0.0000000000000000 -0.0000000000000000 0.0000000000000000 0.0000000000000000 
62 1 -0.0290366560753856 -0.3503026769923169 -0.2250761944673415 15.0514970546426881 9.2460615502345274 15.3636897187124752 0.0000212211416568 2.9612601234723552 0.6622647969864701 0.0000000000000000 0.0000000000000000 -0.0000000000000000 -0.0000000000000000 
209 2 0.3099556328534157 0.4031831882177998 0.1570702516175248 12.9920219290622878 6.4212060744750392 12.0966794627437793 0.0000220667502250 2.9760234995541643 0.7745802330460075 0.0000000000000000 0.0000000000000000 0.0000000000000000 0.0000000000000000 
35 1 -0.0008456772985424 -0.0786489393289415 -0.0615403082158285 4.5248815428952858 11.5722401519532330 12.5091894638900403 0.0000228622028914 2.9351280356036291 0.6905630797294832 0.0000000000000000 -0.0000000000000000 -0.0000000000000000 -0.0000000000000000 
42 1 0.0684834320973011 -0.0638258514309941 -0.0555191798814754 3.5949260551695894 11.3662305179410801 14.4604770827553768 0.0000234134937166 2.9213776656814328 0.6584403640438161 0.0000000000000000 -0.0000000000000000 0.0000000000000000 0.0000000000000000 
51 1 0.0787938625453434 -0.2132964424288110 -0.1525351137069884 1.8304719981328936 12.4235587303878265 14.7971530726228853 0.0000266953609016 2.8789166661930761 0.7246758303568087 0.0000000000000000 0.0000000000000000 0.0000000000000000 0.0000000000000000 
101 1 -0.0240213218365086 -0.3357270985370039 -0.2025180732443919 0.0992898915940067 12.1689923932828439 13.9650950688298874 0.0000256979782177 2.8977925844046375 0.7446466368515267 0.0000000000000000 -0.0000000000000000 0.0000000000000000 -0.0000000000000000 
114 2 0.0125713375258984 -0.0040388013424333 0.0232418367797771 0.3194751441503748 15.8666831243003656 15.1969113015961010 0.0000306854556151 2.8293441005398323 0.7655189579755189 0.0000000000000000 -0.0000000000000000 -0.0000000000000000 0.0000000000000000 
115 2 0.0546897933088260 -0.2962967741518328 -0.1314410426051414 0.3283052203206656 14.7021679084211012 11.6427182079458351 0.0000282228270328 2.8587735908250957 0.7352712636477592 0.0000000000000000 -0.0000000000000000 0.0000000000000000 0.0000000000000000 
146 2 0.2449760965573245 -0.0871563114010907 0.0142471429450567 3.1145800658518987 15.6391588263299433 13.3891090898532603 0.0000278693781314 2.8776977105434751 0.8001415659451371 0.0000000000000000 -0.0000000000000000 0.0000000000000000 -0.0000000000000000 
180 2 0.1219085749724109 0.0101521302958261 -0.0366589680244912 5.1959540945963552 11.8419072786229407 14.4077292517090214 0.0000230374568175 2.9364450997445513 0.7013626423423590 0.0000000000000000 0.0000000000000000 0.0000000000000000 0.0000000000000000 
200 2 0.1387357405478011 -0.2723140846395011 -0.0490047020910317 3.3108907854747200 13.8561297639593306 11.4828132648157730 0.0000261955928283 2.8816789683874462 0.7056888438477072 0.0000000000000000 0.0000000000000000 0.0000000000000000 0.0000000000000000 
10 1 -0.1513396663498444 -0.2196888904306967 -0.1381364965484616 10.2959837060607651 13.0412788501466999 13.2911089434170044 0.0000225098182768 2.9703313514267053 0.7922061767963614 0.0000000000000000 0.0000000000000000 -0.0000000000000000 -0.0000000000000000 
50 1 0.0785840089378028 0.0031765685174215 -0.0025738468369185 8.3202871701140761 11.0137755920901093 14.5076487469510358 0.0000208250927384 2.9850791436063551 0.7094405063917351 0.0000000000000000 -0.0000000000000000 0.0000000000000000 0.0000000000000000 
58 1 0.0520872916557038 -0.1409893028450481 -0.0399803976122687 7.4530958737726296 14.7177095159926417 12.4770190664549361 0.0000222773012246 2.9966904254266535 0.8351244479085600 0.0000000000000000 0.0000000000000000 -0.0000000000000000 0.0000000000000000 
110 2 0.1006208153343294 0.0261654798497199 -0.0638368341238115 5.9311663238128309 12.3714805384755255 13.2483281827851052 0.0000226961440913 2.9454317240814776 0.7169994280197973 0.0000000000000000 0.0000000000000000 0.0000000000000000 0.0000000000000000 
130 2 0.0272346457213742 -0.1596426381201348 -0.0720359271821970 6.5717732783998155 14.6468661348028402 15.8873917248147922 0.0000231226799827 2.9746618657639301 0.8377452051727023 0.0000000000000000 -0.0000000000000000 0.0000000000000000 -0.0000000000000000 
9 1 0.0061668600201847 -0.2036218804395120 -0.1221941248616150 16.1091756208086601 11.5954214550132875 15.5760195667735299 0.0000269433170687 2.8621641006952485 0.6649798288962266 0.0000000000000000 0.0000000000000000 0.0000000000000000 0.0000000000000000 
24 1 -0.1617319159879858 -0.2628356100451844 -0.1223384438324284 10.9460815992625324 14.0434843212088509 13.2536893401500890 0.0000252483367340 2.9218415258306090 0.8108947852689554 0.0000000000000000 0.0000000000000000 -0.0000000000000000 -0.0000000000000000 
78 1 -0.1148787549328923 -0.4101093891920492 -0.1424529558251646 14.4266558454972103 13.6654334435395981 12.7734259913860804 0.0000265748736059 2.8927933187608801 0.7837059211089447 0.0000000000000000 -0.0000000000000000 -0.0000000000000000 -0.0000000000000000 
92 1 -0.0605058463228317 -0.2149978543144130 -0.0312114506585008 13.4949438411764362 14.6512159623032296 15.1022018020569444 0.0000300243275675 2.8367048057172246 0.7673770176567848 0.0000000000000000 -0.0000000000000000 -0.0000000000000000 -0.0000000000000000 
99 1 0.0937646009985052 0.0841242095644305 -0.0458429088406562 10.9109237538775687 11.0168728786124781 11.1517594811316965 0.0000194551735201 3.0427505633975800 0.7760719769316379 0.0000000000000000 -0.0000000000000000 0.0000000000000000 0.0000000000000000 
157 2 -0.1228666595494695 -0.3072512273161117 -0.1779527922524610 10.7797377970708066 13.2748180887520491 12.7838189319838182 0.0000232728686889 2.9613264711154152 0.8224833377837527 0.0000000000000000 -0.0000000000000000 -0.0000000000000000 0.0000000000000000 
160 2 -0.1677396547157649 -0.2682300475345446 -0.1701975651780150 13.4763312343149533 12.3401760923608581 15.3315320112612277 0.0000257021940744 2.8916659541222476 0.6991599638103698 0.0000000000000000 0.0000000000000000 -0.0000000000000000 -0.0000000000000000 
167 2 -0.1116012912662775 -0.3661258732161888 -0.1932005998176455 14.8940484226862413 12.9829365637774430 13.1562814237873553 0.0000255937100167 2.9073241144160962 0.7771004510559615 0.0000000000000000 -0.0000000000000000 -0.0000000000000000 0.0000000000000000 
