ITEM: TIMESTEP
0
ITEM: NUMBER OF ATOMS
300
ITEM: BOX BOUNDS pp pp pp
0.0000000000000000e+00 1.7985291181993400e+01
0.0000000000000000e+00 1.7985291181993400e+01
0.0000000000000000e+00 1.7985291181993400e+01
ITEM: ATOMS id type fx fy fz x y z 
1 1 1.22234e-05 -4.92295e-06 -5.48563e-06 2.9226 2.69211 1.19422 
2 1 -5.79231e-06 -1.51642e-07 -5.24876e-06 6.45698 4.88646 7.36588 
3 1 6.87663e-07 -7.06536e-06 1.17093e-05 2.83655 5.40492 6.55308 
4 1 -1.06308e-05 9.18973e-07 5.25966e-06 7.56578 5.31971 3.73522 
5 1 5.00147e-06 -4.19663e-06 6.80715e-06 5.99002 2.45069 2.09566 
6 1 7.3846e-06 -2.1253e-06 9.27544e-06 2.1516 5.67755 5.48475 
7 1 -1.16834e-06 -3.32055e-06 -8.90271e-06 6.87812 4.56777 6.8586 
8 1 -3.95821e-06 1.70118e-06 -2.28619e-06 1.18995 8.91367 1.86699 
9 1 3.1177e-06 8.32228e-06 4.56969e-06 8.70121 0.386974 6.86824 
171 2 -4.51977e-06 -8.23244e-06 -6.6941e-06 1.40044 5.87305 3.53112 
11 1 -9.33259e-06 -7.86137e-07 -2.82825e-06 1.46382 1.02179 3.15876 
12 1 -5.38171e-06 -5.65305e-06 -5.01678e-06 7.20879 8.55251 6.77253 
13 1 1.67725e-05 -1.95858e-06 -2.9354e-06 2.16483 6.18114 3.7407 
14 1 7.49259e-06 7.63906e-06 1.73239e-06 2.81439 1.93307 3.54982 
170 2 -6.48232e-06 1.5171e-07 -6.90425e-06 1.76466 7.50238 0.704237 
16 1 3.75864e-06 4.60995e-06 -7.4622e-06 4.35328 5.97924 6.37277 
17 1 -1.06431e-06 -3.69036e-06 1.8641e-06 0.314886 2.44436 5.65242 
18 1 5.40277e-07 1.54864e-07 -3.46884e-06 8.27257 5.90079 7.43078 
19 1 4.95689e-07 2.145e-06 -2.79273e-06 0.512846 0.196763 8.21642 
20 1 -6.2053e-06 -5.48628e-06 2.93926e-06 8.05454 5.13508 2.62128 
21 1 1.25225e-05 9.51583e-06 -4.42008e-06 1.98018 6.82971 3.35017 
22 1 2.49688e-06 -2.85678e-07 -3.96799e-06 7.5731 2.93916 6.55178 
23 1 -3.08164e-05 -3.98143e-06 -1.23084e-05 0.0240438 6.12261 3.52568 
151 2 4.61106e-06 -7.16577e-06 7.64898e-06 0.0858537 8.10072 8.4864 
169 2 8.24584e-06 6.50975e-06 -5.46674e-06 5.40804 0.565932 4.6239 
153 2 -3.21255e-06 -5.52762e-06 4.21833e-06 6.49947 4.56573 8.56908 
154 2 4.97366e-06 2.72597e-05 9.67718e-06 1.74185 7.55964 4.28928 
155 2 -8.36696e-06 5.06111e-06 2.17356e-06 5.61138 1.78795 6.53945 
156 2 -1.88436e-06 -2.3918e-07 3.91046e-07 5.84715 4.79894 1.36644 
157 2 3.30155e-06 5.28927e-06 3.69725e-06 4.82518 5.00872 1.80499 
158 2 5.80734e-06 -3.3039e-06 1.84307e-05 0.932251 3.66675 6.36533 
159 2 6.44277e-07 2.61827e-06 1.22952e-05 2.25181 1.16315 5.30233 
160 2 2.7138e-06 1.92338e-06 -9.38387e-07 2.52529 1.48509 3.60473 
161 2 1.67332e-06 -1.08976e-05 -4.7276e-06 1.41157 0.892474 1.27198 
162 2 -1.3061e-05 -1.13121e-06 -2.72807e-06 0.145118 4.38849 5.29973 
163 2 -2.00853e-06 -4.14128e-06 -8.16076e-06 5.46414 1.00698 1.00304 
164 2 1.01671e-05 -2.49974e-06 3.70322e-06 2.80359 8.68613 0.590048 
165 2 4.89063e-06 3.50119e-06 -1.57659e-07 2.47285 3.70344 1.09018 
166 2 -1.42707e-05 6.98414e-06 -3.43693e-07 1.30478 4.38678 0.693127 
167 2 -2.91798e-08 -9.86089e-07 7.2639e-06 3.79108 7.81759 7.1559 
168 2 -2.99587e-06 6.94965e-06 3.68933e-07 7.22807 5.96876 0.231899 
50 1 2.21787e-06 -2.32885e-06 1.35785e-06 3.47379 0.0351278 4.74686 
84 1 -4.30883e-06 -9.37656e-06 1.05451e-05 8.93243 1.87975 0.0967516 
24 1 -6.42185e-06 -3.44617e-06 4.65361e-06 1.04465 1.48083 12.1976 
25 1 -4.41176e-06 -5.29536e-06 6.93028e-06 0.729276 1.61584 13.5242 
26 1 -5.83888e-06 -3.54542e-06 -2.16771e-06 8.45014 3.45022 13.4349 
27 1 5.59378e-06 1.70854e-06 1.42317e-06 2.8485 2.95827 12.1711 
28 1 6.16693e-06 -5.42268e-06 1.15542e-06 4.4071 5.27801 16.4924 
29 1 -3.37775e-06 -8.50333e-06 1.10717e-06 6.15405 3.91172 15.4685 
30 1 -8.42726e-06 -2.04934e-06 -7.02008e-06 5.3618 3.04984 9.75941 
31 1 -4.06187e-08 1.1731e-06 7.97045e-08 6.09177 6.54373 14.6276 
32 1 3.22054e-06 -4.43074e-06 4.27672e-06 4.3173 3.43289 12.1463 
33 1 9.07213e-06 -1.32799e-06 4.3508e-06 8.94208 6.67399 14.1656 
34 1 -1.32531e-05 9.42769e-06 6.46993e-06 0.410274 2.39536 17.4365 
35 1 1.64338e-05 2.58944e-06 -9.47765e-06 2.14911 3.16826 17.6284 
36 1 2.46388e-06 -3.58344e-06 4.41989e-06 6.3888 2.19637 10.43 
37 1 6.62629e-07 1.61415e-06 4.43109e-06 8.17893 5.80875 13.7077 
38 1 -9.77611e-06 9.09269e-06 9.97387e-06 8.69871 7.99706 10.1605 
39 1 -1.59679e-06 1.03656e-05 -5.38809e-06 1.26351 5.25826 11.025 
40 1 -1.07045e-05 3.50544e-06 5.21696e-06 6.86723 5.67713 9.77759 
41 1 2.96393e-06 -1.15601e-05 -1.84508e-06 0.519322 1.43248 16.8956 
42 1 -7.56701e-06 1.12324e-05 -1.09568e-05 2.80391 7.37932 14.5869 
43 1 -2.51866e-06 5.35789e-06 -3.68332e-06 3.047 5.82578 13.5071 
44 1 6.8042e-06 -1.2236e-05 -1.33947e-06 8.90718 6.20942 9.72336 
45 1 -9.8973e-06 1.63021e-06 -4.89514e-06 8.18263 6.80064 9.11281 
172 2 2.70354e-06 -3.81694e-06 -3.31905e-06 8.8768 4.80415 11.4906 
173 2 5.41852e-06 -3.40488e-06 2.81395e-06 4.95448 0.811828 14.1494 
174 2 5.54648e-06 -2.50351e-07 7.38834e-06 4.09656 7.21362 16.366 
175 2 4.08484e-06 -4.58275e-06 7.18048e-06 7.09941 1.29379 10.203 
176 2 -6.90022e-06 -1.59313e-06 7.46423e-06 0.662051 1.93768 17.7655 
177 2 -4.68366e-06 5.74718e-06 -6.47353e-06 1.50587 3.34576 11.6861 
178 2 1.76033e-06 -2.43292e-07 -4.05608e-06 4.767 5.87416 13.4141 
179 2 -9.9783e-06 -1.04109e-05 -8.89472e-06 8.24016 2.05997 15.3855 
180 2 -5.85426e-06 -9.60396e-06 -4.95596e-06 8.82326 1.92347 17.0359 
181 2 9.31012e-06 3.38681e-07 -2.26921e-06 2.4301 1.5419 11.693 
182 2 -2.66395e-06 2.86893e-07 5.26988e-06 7.5201 7.60379 15.4213 
183 2 1.05657e-05 -5.82389e-07 7.06584e-06 2.23808 2.99013 14.5376 
184 2 -4.38309e-06 9.41081e-06 -5.87865e-06 0.130888 2.315 15.9104 
185 2 -1.19729e-05 1.02166e-05 -8.54447e-09 7.40828 7.31847 11.8418 
186 2 -1.02453e-05 3.1194e-06 -3.7732e-06 6.3201 6.01594 11.8811 
187 2 -6.24496e-06 4.77094e-06 4.19657e-06 3.81826 5.61712 9.06625 
188 2 6.10073e-06 2.07643e-06 -2.17799e-06 1.1535 2.36785 15.0177 
189 2 -5.18648e-06 9.77078e-06 -2.89538e-06 8.08515 3.39924 16.9214 
190 2 -5.31866e-06 7.2379e-08 -7.9106e-07 1.71933 6.1784 15.6419 
15 1 -4.16995e-06 -1.34333e-06 1.03605e-05 8.80685 2.33028 17.9844 
46 1 -1.92673e-07 5.37279e-06 4.36375e-06 7.02669 10.2502 8.73856 
47 1 -7.56138e-06 1.93976e-07 1.92769e-06 6.96957 9.70414 4.76668 
48 1 4.57401e-07 3.5202e-06 5.91461e-06 6.04277 17.0564 7.41382 
49 1 4.4185e-06 6.70527e-08 2.23094e-06 2.48162 14.7639 3.63264 
210 2 2.12749e-06 -1.28432e-05 -1.87048e-06 7.45888 15.1728 6.61925 
51 1 6.90702e-06 -8.79e-08 1.20259e-06 4.31907 12.632 1.02243 
52 1 2.0052e-06 -1.74461e-06 -6.02502e-06 8.62917 9.66513 7.26759 
53 1 -6.16875e-06 7.00835e-06 -6.57789e-06 1.96735 9.41535 7.09358 
54 1 -1.84919e-06 2.2149e-06 -1.41845e-05 4.40064 10.2735 7.38844 
55 1 7.29632e-07 -2.85547e-06 6.31061e-07 5.95498 9.47395 2.90499 
56 1 -1.34644e-06 5.04975e-06 -7.60233e-06 2.78398 15.4003 2.21419 
57 1 -2.25276e-06 -8.80882e-06 -3.30345e-06 8.92683 15.3343 7.82155 
58 1 -6.76611e-06 1.51115e-07 -8.33713e-06 8.86967 10.5509 2.54753 
59 1 5.48661e-06 -4.52917e-06 1.22632e-05 2.78999 10.989 2.86054 
191 2 3.35287e-08 -9.9623e-06 2.30298e-06 4.65479 9.84111 8.02928 
192 2 -1.59656e-06 -2.32192e-06 5.75947e-07 3.47249 16.0027 6.89145 
193 2 -1.64473e-06 -4.4351e-06 -2.18232e-06 2.60751 11.5457 0.176535 
194 2 8.60493e-08 -3.75708e-06 1.47268e-05 7.20385 16.3863 8.98669 
195 2 9.57343e-07 -6.83196e-07 -1.48061e-06 2.87775 12.7491 2.02139 
196 2 -3.39854e-06 -1.80736e-06 3.84855e-06 1.19245 11.95 1.79646 
197 2 2.41939e-06 -1.97287e-07 -5.58643e-07 6.51421 15.4333 3.76287 
198 2 -1.10136e-05 -1.90398e-06 -8.70874e-07 2.61345 13.5936 8.31409 
199 2 -8.60099e-07 -6.88715e-06 1.1467e-07 4.83448 16.316 7.2728 
200 2 5.99717e-06 6.53883e-07 -5.92229e-06 4.0069 16.5889 2.10434 
201 2 2.37111e-06 -2.55494e-06 3.6261e-06 5.475 13.1457 4.05161 
202 2 -9.90756e-06 3.46744e-07 -9.76044e-07 1.50107 14.8924 3.90372 
203 2 -9.0434e-06 -4.28791e-07 4.37288e-06 1.44435 16.532 5.99219 
204 2 -9.66892e-07 9.80549e-06 -2.01618e-07 7.64053 11.3416 6.141 
205 2 1.02082e-05 2.51e-06 -5.85188e-06 4.14145 12.964 8.18716 
206 2 -1.84778e-07 1.23309e-05 2.22749e-06 8.95904 11.1062 7.88765 
207 2 2.81409e-06 2.07019e-06 -9.42341e-06 8.62627 17.472 5.61401 
208 2 1.7365e-06 -1.22746e-05 5.46728e-06 2.3426 14.1328 5.24907 
209 2 2.7743e-06 1.2152e-07 4.48446e-07 6.99514 14.7302 2.12636 
152 2 2.5102e-06 4.98863e-06 -6.89484e-06 6.23427 17.939 5.49401 
281 2 -2.03992e-06 -2.81645e-06 -6.21165e-06 0.0532758 17.7168 2.84381 
60 1 9.39028e-06 1.43837e-06 -7.9889e-06 4.89725 14.0049 11.9619 
61 1 -2.33591e-06 -3.49058e-06 -5.81122e-07 5.25502 11.7453 11.8384 
226 2 -3.06332e-06 -4.14929e-06 2.80731e-07 4.42072 10.0636 16.2549 
63 1 4.40707e-07 6.27853e-06 -9.15779e-06 2.43589 17.9505 10.5751 
64 1 -3.70237e-06 -5.59032e-06 -1.42972e-05 1.66132 11.0116 16.1576 
65 1 -1.04628e-05 -7.98403e-06 -8.08933e-06 5.13679 12.7718 13.9392 
66 1 -1.37803e-05 -1.23596e-06 -5.45648e-06 4.15315 12.7059 15.982 
67 1 -3.61633e-06 5.95296e-06 -3.9118e-07 2.07077 13.8931 16.7151 
68 1 7.48707e-06 3.13009e-06 -2.55717e-06 8.53909 10.9544 14.9885 
69 1 -1.66676e-06 4.61468e-06 -2.11162e-06 8.31258 16.4244 13.8426 
70 1 7.45697e-06 -6.86183e-06 1.77014e-06 4.07192 16.0203 9.78596 
71 1 -2.20883e-06 -4.07467e-06 -6.03936e-06 6.81772 10.6641 13.6621 
72 1 1.13524e-06 -4.02482e-06 2.59462e-06 3.14236 16.4231 11.312 
73 1 5.02872e-06 -8.90332e-06 -7.71121e-06 0.0124762 13.4436 15.5714 
74 1 -8.48572e-06 -5.80936e-06 4.35248e-06 6.16205 9.52326 11.1088 
75 1 -9.34218e-06 -6.92025e-06 1.55111e-06 1.45905 17.8627 11.2762 
76 1 -5.54867e-06 -6.19039e-06 -7.75149e-06 4.93226 10.3486 15.6677 
77 1 5.81099e-06 4.65823e-06 2.49108e-06 4.70818 11.2928 9.66163 
78 1 5.49957e-07 6.70179e-06 1.46972e-06 2.94329 15.4884 16.9349 
79 1 1.03227e-05 -1.84174e-07 7.39753e-06 5.60159 12.6563 17.8394 
80 1 1.11143e-05 6.1929e-06 -1.33547e-06 0.159491 14.9163 14.8344 
211 2 1.49921e-05 1.06589e-05 -1.50531e-06 6.51171 13.7108 14.623 
212 2 4.10896e-06 -6.91418e-06 2.93541e-06 0.470589 17.7091 17.1036 
213 2 -1.42514e-06 -7.74966e-07 -2.01557e-06 0.249116 16.5555 12.9841 
214 2 -1.40448e-06 1.74964e-06 -3.00148e-06 7.20864 16.2881 17.7817 
215 2 -3.64495e-07 1.20398e-05 3.92711e-07 4.27643 17.5916 9.07869 
216 2 6.33748e-06 2.42347e-06 6.33187e-06 3.39825 17.3789 14.9138 
217 2 -3.56041e-06 -5.91849e-06 -3.85747e-06 0.171259 16.0329 9.13212 
218 2 4.15951e-06 -4.25447e-06 1.48363e-05 7.15982 10.1157 16.6062 
219 2 5.72274e-06 8.74254e-06 6.93449e-06 5.73433 13.1958 16.173 
220 2 -2.67292e-06 1.59015e-07 6.19308e-06 3.63847 15.5777 12.9061 
221 2 6.0563e-06 1.28768e-05 -1.8809e-06 7.76692 11.4647 11.6408 
222 2 -1.05416e-06 -8.16141e-06 1.98913e-06 3.42567 15.7597 11.7522 
223 2 -5.67014e-06 -1.12053e-05 1.70786e-05 2.78309 10.776 10.6337 
224 2 -2.29312e-06 8.94146e-06 2.21544e-06 4.76609 14.3643 14.4347 
225 2 -8.57722e-06 5.87658e-06 -2.31075e-06 1.74161 11.4112 9.3333 
81 1 5.66564e-06 9.75162e-06 -1.12797e-05 9.94811 7.35799 1.16493 
82 1 2.34103e-06 -7.36705e-07 -1.01806e-05 13.6421 1.83173 6.39341 
83 1 -3.00959e-08 -7.56958e-07 -8.09879e-06 15.4643 7.57938 7.98931 
246 2 1.03127e-05 -1.35589e-05 -8.12244e-06 11.083 4.85316 4.12368 
85 1 8.95738e-06 -4.87776e-06 -5.05679e-07 10.603 7.81308 8.93616 
86 1 3.58863e-06 -3.35413e-06 5.10652e-06 10.9679 1.04973 1.93947 
87 1 -2.0817e-06 4.35053e-06 3.98217e-06 10.2169 1.55811 7.07928 
88 1 4.29779e-06 -4.69008e-07 -3.98659e-06 12.3311 0.835319 3.75696 
89 1 8.19365e-07 2.54663e-06 -7.15577e-06 9.74795 8.55839 8.74518 
90 1 3.05469e-06 5.46658e-06 -4.70162e-06 12.3293 8.54394 7.45217 
91 1 -5.28872e-06 -6.27186e-06 1.03028e-06 16.8501 8.2333 3.58239 
92 1 -6.19017e-06 -1.80341e-07 1.88317e-06 10.303 1.62647 3.40246 
93 1 1.07251e-06 -5.94516e-06 1.54127e-05 13.8826 8.32255 0.288132 
94 1 1.78108e-07 8.85542e-06 -1.87327e-06 16.5991 3.30428 6.4475 
95 1 1.37965e-06 -4.12388e-06 8.02217e-06 12.8333 5.38053 7.53069 
96 1 1.62939e-05 6.10055e-06 -1.41861e-05 13.5185 6.45438 5.9239 
227 2 8.32964e-07 5.04828e-06 3.85573e-06 12.0747 4.87891 0.0863235 
228 2 -9.75938e-06 1.0052e-05 5.59029e-06 10.2124 6.29576 4.86683 
229 2 -6.36597e-06 -1.26869e-05 8.97942e-06 10.9387 5.02309 5.73824 
230 2 -7.64895e-06 3.12259e-07 5.72302e-06 13.0783 1.95894 7.61872 
231 2 1.2191e-05 6.90775e-06 4.70383e-06 13.0968 2.63169 1.73701 
232 2 2.32777e-05 6.8218e-06 -9.10194e-06 11.5674 5.97615 2.98455 
233 2 -5.35306e-06 -3.97088e-06 7.79718e-06 16.2443 0.137301 4.17339 
234 2 -8.30133e-06 3.20013e-06 2.40825e-06 17.613 6.71242 5.82475 
235 2 2.56571e-06 -8.20931e-07 -1.26783e-06 13.6162 5.29264 8.3654 
236 2 -2.43969e-06 1.07443e-05 -1.65771e-06 16.4886 8.67761 8.9905 
237 2 4.09675e-06 -8.80125e-07 -5.02777e-07 10.4917 4.29999 1.48628 
238 2 -3.10558e-06 6.1912e-06 2.70235e-06 11.4365 6.68589 6.75421 
239 2 7.96092e-06 3.61954e-07 5.26937e-07 11.8428 5.7852 5.83564 
240 2 9.57987e-06 -4.62042e-07 -6.69519e-06 15.4416 1.67612 7.8691 
241 2 -8.84998e-06 -1.51835e-05 3.85828e-07 9.91559 4.11326 4.29491 
242 2 -1.39903e-06 1.09208e-05 -1.3924e-05 15.3805 2.10748 4.5404 
243 2 1.53043e-06 9.04878e-06 -3.002e-06 10.6199 6.15837 4.28288 
244 2 -3.21056e-06 -1.56418e-06 2.66357e-06 12.2763 3.04983 6.98262 
245 2 1.1166e-06 4.95709e-06 -4.46794e-06 9.06427 8.23302 2.93857 
10 1 -4.46402e-06 3.82043e-06 -2.17088e-06 9.02114 7.70836 2.99689 
97 1 7.8108e-06 -3.84927e-06 1.87765e-06 16.1093 1.15722 9.64074 
98 1 -1.86104e-06 1.50303e-05 3.49272e-06 11.465 3.94301 13.336 
99 1 1.33766e-06 8.02934e-07 1.13771e-06 15.3945 1.62978 9.12155 
100 1 1.00518e-05 -4.52461e-07 7.57078e-06 13.7457 5.7323 17.107 
101 1 -1.92148e-06 -2.13165e-06 -3.84164e-06 16.2035 0.124584 15.0945 
102 1 -3.1592e-06 1.57279e-05 5.97264e-06 13.8214 4.09467 15.1181 
103 1 -1.86248e-06 -6.69674e-06 -1.64324e-06 15.801 1.73919 13.4242 
104 1 3.96769e-07 2.54337e-06 -5.63401e-06 11.2975 3.26338 12.8231 
105 1 -3.58647e-06 -1.75257e-05 -1.19893e-05 12.7692 2.36535 12.9709 
106 1 -5.92864e-06 4.58806e-06 -5.21703e-06 13.6075 7.52741 11.0817 
107 1 -8.11439e-06 -1.91716e-06 -7.57822e-06 13.7396 4.10551 11.8225 
108 1 -1.20177e-06 1.84122e-06 4.77443e-06 17.5499 5.64318 16.1469 
109 1 -1.29742e-06 3.04954e-07 -3.69175e-07 11.0711 2.55735 9.91414 
110 1 -8.08695e-06 -9.96427e-06 6.62436e-06 16.3916 0.971569 11.5795 
111 1 7.55107e-06 -8.20348e-08 6.36648e-06 9.2535 8.41892 14.7457 
112 1 -6.55604e-06 -9.38938e-06 -1.11453e-06 13.3381 1.35213 16.2239 
113 1 1.50823e-06 -3.858e-06 -8.67268e-06 14.4834 5.0746 11.0082 
114 1 3.26008e-06 5.56667e-06 -3.44698e-06 10.6003 2.22432 16.5885 
115 1 2.9395e-06 9.88603e-06 3.22193e-06 14.6194 7.74168 12.7332 
116 1 7.65849e-06 -1.52008e-06 2.81552e-07 9.02133 5.30386 11.3601 
117 1 5.93498e-06 3.61621e-06 -5.079e-06 17.0623 8.73537 15.0114 
118 1 -7.98179e-06 -1.37658e-05 -3.11236e-06 10.5104 0.707338 15.7741 
119 1 5.47366e-06 -3.35666e-06 -1.02135e-05 14.3187 2.24175 14.9873 
247 2 -2.86189e-06 -2.94666e-06 1.38277e-06 12.6887 7.4223 10.8039 
248 2 2.59237e-07 -2.78912e-06 1.03127e-05 13.6355 1.40744 16.7396 
249 2 -1.56085e-07 -4.75675e-06 1.32045e-05 13.4401 1.0415 17.3341 
250 2 -2.71606e-06 6.17983e-07 -8.23433e-07 13.988 4.34611 12.607 
251 2 -2.61965e-06 1.50889e-05 5.91295e-06 13.8171 3.27547 15.425 
252 2 1.13019e-05 -8.31312e-06 6.15903e-06 9.47669 6.72705 10.0542 
253 2 2.6536e-06 3.54036e-06 -2.13396e-06 9.70056 8.8465 13.3123 
254 2 9.54209e-07 -7.1967e-07 4.83537e-06 9.66869 1.58173 9.19127 
270 2 1.20439e-07 2.16286e-06 5.46406e-06 11.8883 8.54826 13.1473 
256 2 -6.38226e-07 -1.74224e-05 -6.37342e-06 10.6328 1.90221 12.2162 
257 2 4.93893e-06 1.06775e-05 2.03274e-06 10.7567 2.56379 17.0451 
258 2 3.74682e-06 6.78367e-06 -4.91444e-06 9.05724 5.19894 17.8133 
259 2 9.55689e-07 -2.5342e-06 6.76671e-07 14.9989 2.89285 11.0308 
260 2 1.05288e-05 4.6587e-08 3.22748e-06 15.6766 7.4074 10.9053 
261 2 2.01477e-06 -8.30636e-06 -1.28827e-05 14.1803 1.97223 15.0638 
262 2 1.84276e-06 1.04936e-06 6.82231e-06 14.5921 7.25992 13.3916 
263 2 1.2172e-05 6.57501e-06 6.38422e-06 14.6096 4.51957 13.9533 
264 2 -4.08129e-06 5.37218e-06 1.23231e-06 14.9783 2.42257 9.78881 
265 2 1.39203e-05 1.81997e-06 7.71317e-06 14.9593 1.70431 16.1382 
266 2 1.15006e-06 9.89649e-07 1.32258e-07 9.37685 3.48419 13.1476 
267 2 6.31018e-06 4.97663e-06 6.70476e-06 16.9787 4.85742 11.7638 
268 2 -7.46801e-06 9.19358e-07 -1.38246e-06 12.3958 7.24741 16.1197 
269 2 -6.44637e-07 3.55688e-06 -8.01561e-06 17.8381 3.59916 11.2144 
120 1 -4.62051e-08 -5.52898e-06 -2.77066e-06 10.6579 12.6325 0.23204 
121 1 7.82602e-06 -6.52327e-06 3.10458e-06 9.98495 10.0163 4.28963 
122 1 1.04259e-05 -5.79244e-06 8.1004e-06 15.5528 11.0523 4.04098 
123 1 8.10123e-08 -1.54016e-05 4.73952e-06 15.5373 10.1559 3.02198 
124 1 3.7081e-06 -2.89067e-06 -2.02718e-06 15.9491 16.5653 1.9581 
125 1 6.82092e-06 3.79756e-06 -2.25201e-06 12.3893 12.93 3.23558 
126 1 5.25282e-06 -8.97296e-06 3.11711e-06 14.4266 11.0946 6.18857 
127 1 8.98624e-06 9.38966e-06 -1.3643e-05 13.2447 13.2617 1.95829 
128 1 -2.02426e-06 -8.79314e-06 -1.38788e-05 11.1082 12.7871 1.38311 
129 1 -4.76196e-06 -2.37554e-06 3.14957e-06 9.46205 17.0155 1.76259 
130 1 -3.84183e-07 -1.20511e-05 1.95925e-06 12.5111 12.1271 3.88116 
131 1 -1.29032e-05 6.51851e-06 8.84803e-06 10.5565 13.3811 3.44614 
132 1 1.32367e-06 1.10345e-05 6.72189e-06 13.8754 14.6061 3.74216 
133 1 -4.79884e-06 -4.78322e-06 8.06054e-06 11.3593 11.9724 4.91512 
134 1 -1.42207e-05 -1.3382e-06 -1.00213e-05 11.5125 13.0847 8.52066 
135 1 -3.75372e-06 9.32777e-06 3.82233e-06 16.6614 13.6403 4.77586 
271 2 -2.61521e-07 -3.36522e-06 -1.10201e-06 10.5071 17.1888 5.5714 
272 2 5.37481e-06 -4.3684e-06 -1.53851e-06 13.3277 12.3025 8.2255 
273 2 -1.00316e-05 7.66488e-06 3.53607e-06 10.731 13.4877 3.10247 
274 2 1.09144e-06 -1.36649e-06 3.58428e-06 14.3528 17.0993 0.501137 
275 2 1.16799e-06 1.08337e-06 -3.29314e-06 12.4751 15.935 1.19358 
276 2 1.56182e-06 1.00909e-06 -6.22409e-06 10.4595 16.1627 1.5324 
277 2 8.23565e-06 -5.63898e-07 -4.48448e-06 15.9162 14.351 8.75072 
278 2 -6.75544e-07 -6.80387e-06 -2.21754e-06 13.836 17.9207 7.93196 
279 2 -8.36621e-06 -9.83244e-06 -3.75128e-06 14.121 11.3484 2.49979 
280 2 -5.90399e-06 9.11386e-07 2.18265e-07 16.6599 17.5651 3.25154 
288 2 4.19715e-06 5.24781e-06 -5.86875e-06 13.3949 12.4874 7.78955 
282 2 2.07596e-06 1.35577e-05 3.16257e-06 17.3098 12.3893 0.630091 
283 2 6.76393e-06 1.0776e-06 6.0376e-06 16.7939 11.5795 1.08021 
284 2 2.92396e-06 -4.07614e-06 -1.14493e-06 12.4536 16.7376 6.00369 
285 2 4.65142e-06 -3.73487e-06 7.22365e-06 17.0153 13.0769 4.83937 
286 2 1.88894e-06 6.3923e-06 4.55692e-06 14.3234 12.0612 4.33216 
287 2 -4.71589e-06 1.2189e-05 -9.23787e-07 15.5818 11.5236 0.124517 
136 1 -8.42943e-06 -2.68487e-06 9.7334e-07 10.8102 15.6514 9.95544 
137 1 2.19753e-06 8.15915e-07 4.35756e-06 16.5834 11.2863 11.2041 
138 1 -5.51622e-06 1.82992e-07 -1.58409e-05 14.4107 9.83159 16.3971 
139 1 -5.36407e-06 -8.94459e-06 1.04317e-05 11.6019 14.4882 14.7158 
140 1 5.57342e-06 8.34905e-06 4.40663e-07 12.2778 15.6748 14.6426 
141 1 2.80013e-07 9.77318e-08 2.01677e-06 9.39239 12.3893 16.1501 
142 1 8.03962e-06 -1.66862e-05 1.05427e-06 15.2975 9.87036 17.2722 
143 1 1.72555e-05 -1.72498e-05 -6.99736e-06 16.7358 10.1522 17.1908 
144 1 -8.01254e-06 5.02598e-06 -7.01775e-06 16.0772 15.2677 14.2519 
145 1 1.91696e-06 -3.40691e-06 3.91517e-06 15.1048 16.2272 16.9455 
146 1 -5.6498e-08 -5.50057e-06 3.89092e-06 12.1436 12.2254 12.4209 
147 1 4.45465e-06 -7.52496e-06 -1.33663e-06 16.8603 12.7755 12.5438 
148 1 4.2081e-06 -1.42565e-06 3.78077e-06 12.3573 11.0968 11.7357 
149 1 -6.61384e-06 7.30545e-06 -1.17566e-06 15.218 10.9846 17.7169 
150 1 -7.9538e-06 6.54842e-06 5.94459e-06 10.369 16.2205 10.0198 
289 2 -4.06803e-06 -4.02432e-06 1.23681e-06 15.9756 17.2633 9.45865 
290 2 -9.80794e-06 3.08579e-06 2.17583e-06 10.5291 10.5936 10.3062 
291 2 4.49436e-06 6.11531e-06 -9.73256e-06 12.3422 15.7581 9.2905 
292 2 6.89983e-06 -1.74685e-06 -3.80556e-06 12.081 14.8375 14.2285 
293 2 -6.42097e-06 1.28709e-06 -5.0237e-07 15.0103 13.8271 17.1016 
294 2 -6.60504e-06 -5.37699e-06 -1.09838e-06 16.6008 14.3524 14.7997 
295 2 -1.74294e-06 3.46165e-06 1.0167e-06 15.8033 14.3745 11.0329 
296 2 8.229e-06 8.22244e-06 1.08218e-05 12.6678 15.6173 10.5365 
297 2 5.83084e-06 -3.81472e-06 5.1195e-06 13.1203 13.0497 9.68774 
298 2 -1.20106e-05 -3.03918e-06 -3.25897e-06 10.1282 14.8604 12.9881 
299 2 -6.60988e-06 3.89995e-06 -3.36771e-06 11.544 17.7611 14.9961 
300 2 -1.87512e-05 7.1441e-06 -9.53278e-06 13.9675 10.0542 16.6279 
62 1 9.82869e-07 8.63485e-06 1.32127e-06 17.9725 13.0167 17.3098 
255 2 5.60194e-06 5.83848e-06 6.20587e-06 10.1913 9.01138 9.66682 
