ITEM: TIMESTEP
0
ITEM: NUMBER OF ATOMS
300
ITEM: BOX BOUNDS ss ss ss
2.2891217507104182e-04 1.8023261720858873e+01
5.6838054685397687e-03 1.8026620549130637e+01
4.0733519049940430e-02 1.7912334477634939e+01
ITEM: ATOMS id type fx fy fz x y z rho_SPH width_SPH omega_SPH 
13 1 0.0000103873777285 0.0000036066082380 -0.0000141056983508 2.8844753519733408 2.6606661823679647 1.3108892466331512 0.0000315202692591 1.6733324232467595 0.6289100015089271 
36 1 0.0000134803571169 0.0000002757387223 0.0000113085401818 2.2781677354911753 5.7369830102373172 5.4807659551297583 0.0000398063758475 1.6513827700110493 0.6527665645766280 
67 1 -0.0000202918860189 -0.0000174195601541 -0.0000016798000629 1.5978573742494766 1.1270093623364221 3.3064222763778841 0.0000324387866009 1.6657872803571012 0.4912674968749327 
79 1 0.0000171353730792 0.0000097065706986 0.0000068975157333 2.7432490760659607 1.8927304162150609 3.3806885526538974 0.0000368512361004 1.6563099319284040 0.5870447300114715 
96 1 -0.0000231288132449 -0.0000020409240953 0.0000018923303634 0.2252905743596135 2.4071330903172909 5.5467124095608975 0.0000253821012325 1.6951167561000338 0.6234713237333286 
201 2 0.0000105969689201 0.0000063382524535 0.0000024958517919 4.6623132773364162 5.0170872183288386 1.7917826940886625 0.0000269246260338 1.6970999672901272 0.8514932907746359 
210 2 0.0000093916629392 -0.0000114581216253 0.0000180491453533 2.1754301774009384 1.1935556117771848 5.3826536376286409 0.0000274276499176 1.6882244758503142 0.6538285862997206 
216 2 0.0000118358817453 -0.0000070910292519 0.0000064179074145 2.5193805288882034 1.3450179731874690 3.6884609373031889 0.0000358557853218 1.6563342995445669 0.5023797486569194 
224 2 -0.0000172270349043 -0.0000195530579634 -0.0000211894984235 1.3606529639067686 0.7879326105885704 1.2766391433158439 0.0000196988545518 1.7230029816021983 0.6123747322475822 
227 2 -0.0000240584688403 0.0000051988747511 0.0000054741491341 0.1429854460184501 4.3270295523342854 5.3699464730090369 0.0000288251288936 1.6833750917613080 0.6629104449767387 
238 2 0.0000026123647578 -0.0000150261055967 -0.0000092738671872 5.4886701176252055 1.0969397968969063 1.1272242585711920 0.0000183564368719 1.7372382351943900 0.7781546594439382 
266 2 0.0000064647163881 0.0000058997401395 -0.0000157966974865 2.5272557264025792 3.7479563398442188 1.0305784294343654 0.0000298404098426 1.6785987757607530 0.6453213568428829 
271 2 -0.0000175569949366 0.0000005273018998 -0.0000187493309481 1.2629791607885832 4.4176355308323991 0.8290741298854005 0.0000234995785146 1.7074390367120260 0.7331704728032231 
283 2 0.0000078069610457 -0.0000048497479820 -0.0000007430243730 5.5202399594159663 0.5801648523817557 4.7348285556069758 0.0000232564208656 1.7049574614014977 0.6653798885385900 
295 2 -0.0000028512096795 -0.0000092743163808 -0.0000029303789977 1.3821582118141786 5.8711045812428448 3.5621324415935094 0.0000446142063836 1.6371499436398864 0.5124133183274763 
30 1 -0.0000087320002455 0.0000003676742514 0.0000081190348285 7.4184158582195563 5.3014926525188288 3.8274722459815473 0.0000310291767247 1.6857726339648735 0.9526414693434577 
31 1 0.0000062826702753 0.0000016403647914 0.0000086302299436 6.0117212096386705 2.4836057224328325 2.1778050122496406 0.0000249953191414 1.7058092833316940 0.8531137018497573 
34 1 0.0000003062637560 -0.0000122469023553 -0.0000133771850198 9.0516974325826300 1.7658412038509668 0.0425320481681398 0.0000203508151085 1.7132791359263635 0.5335719778567259 
57 1 0.0000032822582064 -0.0000185739783838 0.0000000621801655 10.9113225573935360 1.0975815710115671 1.8802098760917207 0.0000225868801437 1.7075220811579035 0.6227916031223624 
84 1 -0.0000048251876364 0.0000015438352287 -0.0000122817371909 8.6327169892573252 2.3280198181671161 0.0677472137589628 0.0000215085040434 1.7099905192597511 0.5949553960259839 
108 1 -0.0000087418871701 -0.0000052271551523 0.0000104905637403 10.4803990692713871 1.6995425709539509 3.3391153733005945 0.0000263356801008 1.6964784130877884 0.7796056811549228 
138 1 -0.0000076623573224 -0.0000021343176546 0.0000082166171771 8.0121089420470071 5.2236854703974815 2.4664750991551423 0.0000341433460913 1.6713233913799903 0.8140162484537974 
153 2 0.0000037670594508 -0.0000184090089315 0.0000016178675641 6.2736144216152434 0.0452122322466105 5.5080677292412750 0.0000211786901885 1.7104570065898606 0.5625219704053844 
165 2 -0.0000063053316408 -0.0000096925417010 0.0000097376182749 11.0779588946318412 5.0434539926608917 5.8270296193399282 0.0000496457170643 1.6312346761748646 0.6636937450035961 
194 2 0.0000223738353629 0.0000099952996101 -0.0000055686660792 11.5537919850969395 5.8705031741029909 2.9098764684977927 0.0000368035878313 1.6612498378945286 0.7331893056827073 
196 2 -0.0000006956283061 0.0000046133281125 -0.0000026323106719 6.0135419205424094 4.7509644401733713 1.3105571638687594 0.0000273704534582 1.6888128414357353 0.6900156054083976 
226 2 0.0000003727732290 0.0000063058482365 0.0000002414428467 10.4777367868086024 4.1212726431039304 1.4579500223337700 0.0000302341201958 1.6863300078152208 0.8490438467881386 
230 2 0.0000077532084165 0.0000043110564051 0.0000010148000085 11.8011326712734466 5.8922672771913795 5.8323931095193338 0.0000505563489175 1.6278315578993776 0.5823435615899196 
249 2 -0.0000105016963851 -0.0000105590638605 0.0000057340836050 10.0038806812373160 4.0658614490203160 4.3063705291223089 0.0000406857677721 1.6534003470438803 0.8042292161711898 
275 2 -0.0000037953245975 0.0000088577036118 -0.0000195428133784 7.3277740360315748 5.9731761344928920 0.2564927197292842 0.0000199966106499 1.7281144427696977 0.7892572023007141 
300 2 0.0000088193108441 -0.0000073708219718 -0.0000028353284800 11.0584692358130603 4.9919342024603708 4.0672101329866459 0.0000488804563371 1.6312587688030842 0.6046388466731603 
66 1 -0.0000009122742816 -0.0000140895762352 0.0000008172169163 12.2568822033310525 0.9638268682275669 3.8314564715896817 0.0000215563184578 1.7188183371667798 0.7689811184040753 
156 2 0.0000085209262313 0.0000051689995186 -0.0000125220784541 12.0443091499595010 4.7594846640555284 0.0433010685281248 0.0000166101761375 1.7485234583935023 0.7630299005017663 
185 2 0.0000159086456873 0.0000033861768823 -0.0000080872905990 13.0959245748291622 2.6383257497107877 1.6463143096461896 0.0000180571668187 1.7419802839710115 0.8056585273580165 
197 2 0.0000066797768104 -0.0000148383145249 -0.0000023807985443 16.2087440016532085 0.0074823345867391 4.2039479827771817 0.0000111878151272 1.7846661035004681 0.5640202951656826 
252 2 0.0000045741003330 0.0000124888084382 -0.0000100567616647 15.3192926930735442 2.1543665831764360 4.4554397437765099 0.0000187632999658 1.7333614687058931 0.7360714783985058 
41 1 -0.0000223502800232 0.0000051613208401 0.0000041763652270 1.2239974615745670 8.9410642155711599 1.7977398759776373 0.0000263972542961 1.6938984761257849 0.6794168627132758 
77 1 0.0000254962193804 -0.0000015215244848 0.0000015094329873 2.1077769583166224 6.2680617639605920 3.6883947787982634 0.0000453435160644 1.6355560969357947 0.5116961756026420 
139 1 0.0000108007458584 -0.0000066834113350 0.0000239786980160 2.8356293770204180 11.0174360428514362 2.8358841194315163 0.0000256043614874 1.7003530981097492 0.7757086463904406 
140 1 0.0000186759905879 0.0000113287692903 0.0000033690635349 1.9725348180044198 6.9421985321656354 3.3609787515806291 0.0000436389391911 1.6385733810885263 0.4942626725399307 
150 1 -0.0000474401388218 0.0000031689920474 -0.0000031528797711 0.0602121882602995 6.1901282834987299 3.5936713942040797 0.0000314040195986 1.6724816002610257 0.5952932437271137 
173 2 0.0000009112876779 0.0000038582733481 -0.0000300722911393 2.4717863348167439 11.5072272360195171 0.1123008770139509 0.0000207341877141 1.7168605492102351 0.5989440236285876 
181 2 -0.0000018120383464 0.0000282987801750 0.0000178774419607 1.6482495325121478 7.5125887566316045 4.1432019339213770 0.0000383409481393 1.6519677414533724 0.5591355522010834 
190 2 -0.0000344728210850 0.0000015866256070 0.0000036957991439 1.1476529884615827 12.0194228745972609 1.8180373049086651 0.0000230566340099 1.7050012638285406 0.6073624248330558 
244 2 0.0000209855470681 -0.0000038285855080 -0.0000120801560886 2.8207786549940392 8.5435686271066000 0.7225680451887678 0.0000235207001676 1.7046398118980632 0.6742041246257857 
294 2 -0.0000039830070789 -0.0000036292728341 -0.0000226742910792 1.8298494157868197 7.4396151103657253 0.6529056237487708 0.0000249379524164 1.6980416848126976 0.6519999727841798 
2 1 0.0000037421129246 0.0000099574055329 -0.0000157321918961 10.0033172788466960 7.2745514640882707 1.1614503489175534 0.0000246433044790 1.7069909338420097 0.8281530898663614 
12 1 0.0000028690705870 -0.0000044925596567 0.0000037639230506 9.9426313179198331 9.9144827306653820 4.3656179462509925 0.0000284446613136 1.6970163835457943 0.9866409503047930 
17 1 -0.0000054148155034 0.0000011314026706 0.0000012300714803 7.0098388431887937 9.5251089660816444 4.7716348298715436 0.0000273843546856 1.6966560590653983 0.8833604527639912 
64 1 -0.0000055183321496 0.0000056198750877 -0.0000009155305327 8.9345210714468557 7.5827162431649278 2.9203793558258679 0.0000374118604544 1.6583285756729147 0.7009530806203045 
76 1 0.0000045903737407 -0.0000000407240013 0.0000008198108367 6.0200382477666565 9.3569596176610030 2.7965250873683405 0.0000195195455692 1.7394053551924484 0.9875010718544085 
134 1 -0.0000075447089447 -0.0000032757865472 -0.0000066407513625 8.7653122454839210 10.4898615255026719 2.4573205111254084 0.0000239303442314 1.7122857765885509 0.8800798403602590 
161 2 -0.0000109525012501 0.0000074903828865 0.0000080771181956 10.0548285347537263 6.2576231521689643 4.7800225417463036 0.0000494625789950 1.6318629134490501 0.6749055026848949 
258 2 0.0000020033958661 0.0000102383353716 0.0000000923294379 10.6155015161110207 6.1442248162059458 4.2607496492131247 0.0000514304465044 1.6264387759971568 0.5836525035894636 
280 2 -0.0000016558686568 0.0000060341601192 -0.0000004651490055 8.9306583986769077 8.2294747469624880 3.1130972872306031 0.0000353210380106 1.6636880230544249 0.7017631952118465 
20 1 0.0000058384828704 -0.0000093004226548 0.0000144010548708 15.5162619169204596 11.0162285369394759 3.9524907203377762 0.0000359706931712 1.6594056771224961 0.6032148406476548 
21 1 -0.0000025652473842 -0.0000212633416810 0.0000041939544636 15.5400853316903351 10.2830544846205107 3.0845678977094919 0.0000315068058626 1.6728076055363550 0.6215960661135039 
102 1 0.0000028690164142 -0.0000057169455433 -0.0000079775968092 16.7705006838723989 8.2968143558108078 3.6344027813903979 0.0000150211639116 1.7581358141686587 0.7286956518376111 
117 1 0.0000027871905876 -0.0000018757149041 -0.0000072191596427 13.8985586763871360 8.2212786185499951 0.1830489573085023 0.0000104331253933 1.8078047745849828 0.8670391124315224 
149 1 0.0000159060453513 0.0000075666751891 -0.0000119144967462 13.3432889714075227 6.3919667215505775 5.8813514339279012 0.0000338221885043 1.6701473687087991 0.7636686828502793 
211 2 0.0000106961045191 0.0000005650590152 0.0000012796196261 17.6861414567801312 6.7496040241338973 5.7138595816831765 0.0000115674128788 1.7870343958860855 0.6881581960710215 
220 2 -0.0000128164824156 -0.0000153602899651 -0.0000092156702328 14.2294897576886683 11.3579370235129851 2.5915825211099262 0.0000385570501944 1.6552255502485784 0.6752892196042646 
236 2 0.0000180831416318 -0.0000121575215083 -0.0000004492343973 16.9617584156122767 11.5877819308532377 1.0506741255155763 0.0000240512420413 1.6950857890555415 0.4918759086459983 
263 2 -0.0000038739068474 0.0000019268867395 0.0000125912246782 14.3875371633321514 11.9829714103255593 4.3449536869519516 0.0000416477285460 1.6474288749140849 0.6541542489637936 
276 2 -0.0000210841002267 -0.0000052768808834 -0.0000286067469990 15.4974541855950836 11.6146472858238212 0.2322422391003308 0.0000220337151145 1.7098527354763591 0.6193300441593964 
37 1 0.0000086708494119 -0.0000048495336780 0.0000093345144307 2.6317595937795364 14.7222201489625331 3.6890851990582583 0.0000331442380658 1.6659626164196908 0.5607255487668189 
39 1 0.0000025440292473 0.0000217866464240 -0.0000008684591006 3.5161323166022251 17.9862915345623158 4.8165601345897828 0.0000167795211540 1.7512957155774798 0.8081495575496789 
45 1 0.0000230636748841 -0.0000032815191760 -0.0000135197537389 4.4807471885856156 12.5134174123420951 1.1845834582634227 0.0000213316126189 1.7189180460632425 0.7333966570679830 
89 1 -0.0000066562927601 0.0000107092671124 -0.0000190367626008 2.7557455896142895 15.5105568908011691 2.1206493833428741 0.0000252536462679 1.6946222833398270 0.5919947181310123 
183 2 0.0000052211709988 -0.0000030749392128 0.0000017663101835 2.7067401847446977 12.7322877222848607 1.9491578881655147 0.0000309453571659 1.6736867301049365 0.5732457696685644 
239 2 0.0000082795173172 0.0000161810427431 -0.0000135042924293 4.0221394250334512 16.7369138853397033 1.9923096018076627 0.0000176725973380 1.7368025506346094 0.6702000469748162 
241 2 0.0000087692335585 -0.0000074168031351 0.0000066646616734 5.5194530643775677 13.1881902488970439 3.9475448361580363 0.0000210008633920 1.7328136142279327 0.9979085973886255 
255 2 -0.0000273661566487 0.0000006532307780 0.0000036778662919 1.6634491226154571 14.8608769424784111 3.8605836238445583 0.0000290350451043 1.6777234763221369 0.5277261726948005 
257 2 -0.0000186257022839 0.0000118520176305 0.0000010318559504 1.4773143434569487 16.4935852461083599 5.9788300141774737 0.0000211662849232 1.7195112669057842 0.7187826040989956 
286 2 -0.0000021964574376 -0.0000195499861089 0.0000123346140585 2.2381676442231635 14.0444190400342794 5.2076447924012221 0.0000268256145442 1.6919714396708694 0.7046393747505423 
11 1 -0.0000050951227623 -0.0000096302078718 -0.0000258670131343 10.6031960856871006 12.4713435859890804 0.3942251442574846 0.0000213622416959 1.7139491376445919 0.6658877559701785 
95 1 -0.0000026196532118 -0.0000091790536933 -0.0000185654107797 10.9980305654126749 12.8325010349216608 1.3231390736809938 0.0000327418544743 1.6687706325379201 0.6101999302229003 
104 1 -0.0000058744370417 0.0000153516562601 -0.0000063979599071 9.3306602906333556 17.1059534153027712 1.8621700796179486 0.0000165434456930 1.7416919600794549 0.6376515781599080 
124 1 -0.0000124078009923 0.0000040908820105 0.0000157024675579 10.6699815369039985 13.3788575515965320 3.4930063892365588 0.0000385877296168 1.6524254458730252 0.6068011379121845 
132 1 -0.0000060955333983 -0.0000067646329176 0.0000126709689290 11.4240285959687835 12.0704698075407446 4.7860861572853919 0.0000352872267232 1.6654108255164775 0.7534903812733619 
170 2 0.0000032632549946 0.0000083181863893 0.0000029208897564 10.4630171548926736 17.2617484734698685 5.4875592296773723 0.0000189848858112 1.7286348097637905 0.7075781813217374 
180 2 -0.0000113128373818 0.0000049558261304 0.0000121728655414 10.7126223079672549 13.5090257497184716 3.1966703522779918 0.0000392090935214 1.6508514706733610 0.5975313520192852 
192 2 0.0000002085488715 0.0000053619514567 -0.0000058444964777 10.5334792418034109 16.1180315063681263 1.5358801678602325 0.0000219351310951 1.7123842008306396 0.6734738493637803 
195 2 0.0000040574978354 -0.0000018055002905 0.0000032742654912 6.6538443239161937 15.4249608445630546 3.7411888352221401 0.0000212478485555 1.7222686695958349 0.8333440766706876 
285 2 -0.0000031365156762 0.0000175222473554 0.0000004590172722 8.7536284738145724 17.6651055764267966 5.4883752727591579 0.0000180983600612 1.7358786249233125 0.7201603882151196 
291 2 -0.0000019495753652 -0.0000043739556007 -0.0000085634525526 7.1409360243393030 14.8532440707513302 2.1525915803600557 0.0000187173630421 1.7345557249271999 0.7890428916144988 
22 1 -0.0000062908340129 -0.0000162504622652 -0.0000143973077568 15.9667591914649307 16.5241202955437920 2.0258879421614595 0.0000195077180089 1.7220286461804606 0.5888264582057626 
52 1 0.0000051017346347 0.0000041998136137 0.0000023745395943 12.4879959864890466 12.9377442023761500 3.1895598997477603 0.0000480445487172 1.6317044415638942 0.5461324898977697 
61 1 0.0000080652960548 0.0000074535858172 -0.0000180956284830 13.3152342451515544 13.1094244098669126 2.0190056866258685 0.0000380155801698 1.6578511612946487 0.7149360787110034 
114 1 -0.0000035652263924 -0.0000132399126520 0.0000097945842115 12.3557221098488732 12.2106644833898521 3.8714084877473383 0.0000454033525323 1.6375802770714314 0.5895812489065660 
131 1 -0.0000010686817051 0.0000161555707999 0.0000122184880563 14.0009839663977367 14.4831745301213690 3.7714352309593653 0.0000292961828701 1.6908509532710152 0.8922196239269395 
145 1 0.0000063597420171 0.0000090349391494 0.0000094438469496 16.5065483565905780 13.6499212956884630 4.7170989549821822 0.0000241373796640 1.7002448623249606 0.6600641298819293 
187 2 -0.0000057861478777 0.0000120003579603 -0.0000231126815744 14.4611260775606940 17.2696818712751430 0.5019234337141893 0.0000141896505881 1.7572545324752251 0.5705710989511603 
189 2 0.0000004073349922 0.0000036077178598 -0.0000034765496588 12.5986654790048753 15.9043928205141061 1.2102943675334996 0.0000212799279296 1.7212782550719474 0.7750401218486498 
223 2 -0.0000240895372784 0.0000189031965816 0.0000269652849380 16.7095756883989317 17.7414921653926712 3.1178227256157083 0.0000176778744388 1.7220766352720278 0.3538515361263285 
232 2 0.0000418736706778 0.0000076976176175 -0.0000058126677404 18.0214631917406720 17.8688316887436294 2.8132792542442626 0.0000143079574777 1.7431575538564419 0.3006183599329186 
235 2 0.0000220766372659 0.0000170193130828 -0.0000097514190390 17.3207289318680004 12.4166172696273946 0.6200794338520103 0.0000194552435859 1.7154998438693512 0.4668736802740908 
259 2 0.0000215476574324 0.0000003698779211 0.0000099444146109 17.0966800315884520 13.2154750493422668 4.7787563937339055 0.0000216116100541 1.7101505081043391 0.6211838636683181 
26 1 0.0000038962892438 -0.0000026131712262 0.0000119285390775 2.9120910668637956 5.4090514025676253 6.7340607126719281 0.0000327730140230 1.6722454957945492 0.7413415293530615 
72 1 -0.0000045243473400 -0.0000033991057567 -0.0000048524123188 5.4415032935166670 3.0752212506689238 9.8047912291653390 0.0000311387158329 1.6805185482517120 0.8271724651821284 
91 1 0.0000069856804455 0.0000030222516076 -0.0000034594069158 4.3324516543461042 5.8436912143830924 6.3590167469751355 0.0000324260548813 1.6760472460207814 0.8230578914619143 
119 1 -0.0000056450380172 -0.0000089741838253 -0.0000023820666919 0.3376069205378601 0.1747389495019446 8.0636863706859589 0.0000099940251591 1.8051639412493423 0.7035723772860348 
127 1 -0.0000121092880259 0.0000092998430000 0.0000007594642588 1.2867740534677874 5.2272908683790265 10.9513047289864041 0.0000181620570255 1.7411313570200559 0.8431578457510965 
182 2 -0.0000057441663868 0.0000049181980129 0.0000102536607065 5.5640222050563830 1.7507134469790604 6.6569228054795300 0.0000254594067221 1.7025506596747619 0.8274957099608137 
198 2 -0.0000160641432310 0.0000209769541189 -0.0000108617862686 1.5464566190290479 3.3677991105142140 11.8166856409369405 0.0000322421373271 1.6699036123836601 0.5921441310735273 
206 2 0.0000015602485677 0.0000040099351912 0.0000195307934286 1.0184031901647983 3.6179870074278422 6.3248558821066547 0.0000284873755113 1.6843850959628264 0.6734456853132159 
215 2 0.0000158523600690 -0.0000232607732739 -0.0000130603234784 2.4711737466517878 1.4336464395492530 11.6116063361399569 0.0000283965473031 1.6823630262443776 0.5905868221937279 
279 2 -0.0000035941582448 0.0000038558940116 0.0000034485064873 3.8232129588356782 5.6241618074049748 9.1280868519377680 0.0000252085717844 1.7128748237144540 1.0294440805891834 
16 1 -0.0000037063558206 0.0000018177281335 -0.0000049409182139 6.4931890458873491 4.8805562264180402 7.2819963148076488 0.0000407648319977 1.6494754743420439 0.6985600526462218 
40 1 -0.0000017280131540 0.0000007899824525 -0.0000066061224592 6.8147497424535128 4.5180699760288361 6.7420405785925031 0.0000381962577968 1.6561932708546430 0.7266147049709347 
55 1 0.0000047665635434 -0.0000132873614565 0.0000016493709247 8.5616954677183550 0.3803548552199016 6.8280836597575867 0.0000205096959577 1.7241200705614552 0.7667158981785919 
65 1 -0.0000008596897252 -0.0000035281445726 0.0000015491600830 10.1546203652819358 1.6256536156485002 6.9762909292986865 0.0000264734518811 1.6994548226042037 0.8600976707394589 
85 1 -0.0000030882405201 -0.0000000675435737 0.0000001297271015 11.0671333374857106 2.6206144503238744 9.8725347034517537 0.0000289161253268 1.6960181754012109 1.0186933018032645 
103 1 -0.0000035165432541 -0.0000000615575300 -0.0000030186686570 8.2365825238958905 6.0069095414176950 7.3694742451410322 0.0000416993746353 1.6550554655612615 0.9405486004813411 
105 1 0.0000008808475753 -0.0000075318728937 0.0000013270060233 6.3014431526511991 2.3072176857475002 10.5795436717461229 0.0000291226584045 1.6844167184257248 0.7703634897435720 
120 1 0.0000079041496010 -0.0000017937883842 0.0000007323613496 8.9750588309433734 5.4453163298960767 11.3608886518173975 0.0000504527456283 1.6321168561023929 0.7648039161129057 
128 1 -0.0000112680735803 0.0000041155559807 0.0000023175825926 6.9280145429664755 5.8040309123304521 9.8993209873005448 0.0000466115573343 1.6407576468493068 0.8106624374094757 
147 1 0.0000025653495889 0.0000057292410327 -0.0000021080970732 7.4844867640532220 2.8329893173272227 6.6570645390887870 0.0000315382914716 1.6808720391679872 0.8636077164154113 
154 2 0.0000046193109186 -0.0000024387143200 -0.0000029084853424 8.8665116915978786 4.7934928087559383 11.4959830425810221 0.0000472357419780 1.6389356438728169 0.7979929692572896 
167 2 -0.0000008506165360 -0.0000156621706155 0.0000036399520558 7.2116700062525094 1.3126600687728913 10.2824616932176589 0.0000229022594567 1.7117931232065002 0.8070452288044254 
178 2 -0.0000034069126048 -0.0000015200217271 0.0000016572287609 6.5687680718143397 4.6150623273290652 8.6703120654839836 0.0000424916736404 1.6480677997956321 0.7677110471866004 
200 2 0.0000010464957440 -0.0000090118582588 0.0000045181011802 9.7681000003330958 1.4553236388477300 9.2958595824264627 0.0000243775414805 1.7078114186625446 0.8575747910245302 
8 1 -0.0000053491570302 -0.0000055338592596 -0.0000027863713355 13.5342463691265351 1.9574964688988987 6.3592831329061568 0.0000312984391645 1.6765450279850913 0.7229057611184556 
15 1 0.0000172264929979 -0.0000226304433560 -0.0000027153727705 16.1041619134310174 1.1629144117987307 9.5960172756136917 0.0000313432792288 1.6698083538223352 0.5161922515046758 
19 1 -0.0000074917919840 -0.0000106329826075 0.0000006625247274 15.2137278663929223 1.6262720206098744 9.2586588139607340 0.0000380534602794 1.6511177127037941 0.5096769306105917 
75 1 -0.0000119212418831 0.0000037116343092 -0.0000074937517873 13.6928882020345721 4.1063759807408253 11.8563169994063227 0.0000468517981151 1.6384780144824314 0.7543048778190251 
87 1 0.0000094785687846 -0.0000184859519410 0.0000037595720864 16.4382944072643085 0.9612603610514993 11.6851169829660861 0.0000255774032269 1.6985558310455640 0.7266363074142307 
100 1 -0.0000029187732994 0.0000029224312087 -0.0000073722103781 14.4840173798399583 5.1482404800180612 10.9402690830177640 0.0000398485695323 1.6561812441380488 0.8276561197111358 
137 1 0.0000134258411198 0.0000074573781556 -0.0000018659698434 16.6270230343357284 3.3345590964105507 6.2739279029596489 0.0000172945000539 1.7473879689374194 0.8331740014819025 
148 1 0.0000018789633599 0.0000002781808870 0.0000045953454049 12.8823869258463120 5.3220075925887151 7.4776054476805269 0.0000398171292764 1.6538622050706793 0.7679584815283707 
169 2 -0.0000131340194040 -0.0000108495122554 0.0000043791743184 13.0478458038420069 1.8450572995828662 7.5941410866219483 0.0000330543874259 1.6706353540555920 0.7121649988313464 
221 2 -0.0000007033028138 0.0000031010886213 -0.0000011698936516 13.5287977916393576 5.3610427982012858 8.4312002563244448 0.0000340846015158 1.6748325795914893 0.9336977929555913 
246 2 -0.0000086012403136 0.0000046193427392 0.0000001799227885 14.9098102609351972 2.8051079603781504 11.0883985477397466 0.0000434891653042 1.6451441328276473 0.7271157802323734 
247 2 0.0000083290098585 -0.0000014288466741 -0.0000053378083385 15.3798815270788332 1.8375644307820029 7.7947545367100375 0.0000324631388756 1.6699313614962679 0.6154312518182274 
261 2 -0.0000059409135758 0.0000007454019347 0.0000042887708815 12.1467272593930335 2.9785489904615563 6.9229963262292005 0.0000357268859188 1.6665905373290577 0.8222599108953423 
264 2 -0.0000118532458646 0.0000092651285887 0.0000007343763950 14.9022983815369408 2.3751394058390534 9.7844220206037082 0.0000411754244418 1.6470811539413717 0.6244393476499751 
281 2 0.0000135337314124 0.0000083213185248 0.0000027933844696 17.0242055495864122 4.9035207617399763 11.8802300464550470 0.0000243622425449 1.7085009190706522 0.8491145045393894 
293 2 0.0000208187456459 0.0000051433399624 -0.0000021217575905 17.9001086625418964 3.5520717920484164 11.2211254138772976 0.0000194747555123 1.7297319369067001 0.7674066094396579 
4 1 -0.0000010285723298 -0.0000047728335465 -0.0000026681775865 5.2513169011243663 11.8902249006156282 11.8320305518993205 0.0000300060570451 1.6847016030784570 0.8199285188476141 
63 1 -0.0000048027113542 0.0000055651205039 -0.0000034516705311 1.9250996844055703 9.3776671029640344 7.0938661064578437 0.0000214665328046 1.7236832831363165 0.8611100851439549 
68 1 0.0000018625628604 0.0000025617943128 -0.0000113963980725 4.3205229146927797 10.2684697828078715 7.3150608453359824 0.0000305204258829 1.6790110446996072 0.7316234576596973 
123 1 0.0000061983157542 0.0000003394854101 0.0000022564237108 4.6922824043834215 11.2859819778042691 9.6653177866454882 0.0000321614924553 1.6754455880989307 0.7533380066621235 
151 2 -0.0000108800384917 -0.0000006459799302 0.0000044103439337 0.0997684117651380 8.1671647178290740 8.4684142901687487 0.0000123105651271 1.7851749576097242 0.8081921362780770 
158 2 0.0000023128689928 -0.0000053052865371 0.0000006370211625 4.6597175083608908 9.8233333260061588 8.0285805156939531 0.0000331780015881 1.6702124895360786 0.7180048391159403 
262 2 -0.0000079811700390 -0.0000095100309704 0.0000141492616546 2.7011929429110775 10.8219768786499682 10.5868948784604413 0.0000220076493992 1.7152921648034147 0.7623068134627361 
273 2 0.0000020649753887 0.0000010022525383 0.0000050725953051 3.9241690488463061 7.7487312528032470 7.1569749493693582 0.0000294728114542 1.6884218438559870 0.8703547356700471 
278 2 -0.0000158137700558 0.0000022613885696 0.0000024958713102 1.6750428210658002 11.4273778020013843 9.3272753457526107 0.0000209622231657 1.7187104996437232 0.6982839034974250 
6 1 0.0000005232513541 0.0000053763589560 0.0000028587938723 6.9645370352973774 10.2264944614962694 8.7691066233108206 0.0000343960638685 1.6736080580776376 0.8978739222983323 
43 1 0.0000072046289498 -0.0000028357263683 -0.0000009231946788 10.5941565145909458 7.7543372292191348 8.8655380010759863 0.0000498812346988 1.6321900430209260 0.7261322092170450 
46 1 0.0000001542380369 0.0000030428387248 -0.0000047561634596 8.7751438829524364 9.6968104760825291 7.3811252584037659 0.0000379936647350 1.6605000503176384 0.8260190891457035 
69 1 -0.0000038253116800 -0.0000009585873723 -0.0000039345934679 7.0157143313985388 8.6189388877444042 6.8371916296045390 0.0000331422963084 1.6804527234370739 0.9877056964489682 
86 1 0.0000007846314747 0.0000054754074787 -0.0000052125386560 9.7718845103414598 8.5172238793301887 8.8574280336988753 0.0000522588705583 1.6265643026583680 0.6591217657623372 
107 1 -0.0000061357709411 -0.0000021177164674 0.0000028934829799 6.1208074890293283 9.4857317917883321 11.1260494717986482 0.0000284289363936 1.6990347907046091 1.0370049757443194 
122 1 -0.0000095033714814 0.0000102979883844 0.0000080785326353 8.7367270885442831 7.9035291766349536 10.0569093072539708 0.0000553853006068 1.6220680424563003 0.6781454244259773 
142 1 0.0000059251692629 -0.0000122587409006 -0.0000028069071954 8.8933420289109915 6.2532130635656396 9.5818110120866482 0.0000567537753117 1.6192677106687285 0.6509812703867133 
146 1 -0.0000092301698548 0.0000002436530930 -0.0000044835164969 8.3131032707444241 6.8355313499748194 9.2722832015508949 0.0000570480292334 1.6189794975622067 0.6533871669966097 
176 2 -0.0000064846864399 0.0000035759741695 0.0000032091515285 10.6574857234350429 10.5950558581689265 10.4696280960496697 0.0000315357732581 1.6834430171386181 0.9298711176821941 
188 2 0.0000096716250343 -0.0000063294097920 0.0000062995220785 9.4547760555168257 6.9084903761680145 10.0724129110450278 0.0000573732918036 1.6181845003501265 0.6414662548169826 
217 2 0.0000039962089541 0.0000076008887839 0.0000050857480834 10.2390540683748412 8.9695253533264836 9.7330053975030211 0.0000471402786306 1.6368608748055682 0.7119024643795252 
228 2 -0.0000010508573734 0.0000069141229097 0.0000025970176938 11.4909311048413176 6.6787946397221090 6.7205649624134995 0.0000460840342414 1.6396854046837919 0.7361807550811564 
242 2 -0.0000116383000382 0.0000101343197573 -0.0000002683471565 7.4264916275538244 7.1753073236682141 11.9539888182071792 0.0000440773275052 1.6475288510118562 0.8611239827603272 
248 2 0.0000033821126013 0.0000065270495574 -0.0000033039719659 7.7468090140382202 11.5387904278659352 11.7171306247958125 0.0000250619952518 1.7123471947889550 1.0243263865097454 
267 2 -0.0000005806679960 0.0000021454927251 0.0000006995838474 7.6284735562501726 11.4635929209362946 6.1169852904871096 0.0000255985893658 1.7060657551845368 0.9308761326392000 
272 2 -0.0000017767469568 0.0000074177033056 0.0000015471030756 8.9156487585836324 11.1068248452204390 7.9823854513663592 0.0000306830479718 1.6833386052219392 0.8696638391652662 
5 1 0.0000057258534916 -0.0000014081178368 -0.0000013914792362 16.5898383837317169 11.2165017027965099 11.2325417369847109 0.0000156084927194 1.7563334723487094 0.8054435369218409 
27 1 -0.0000018059071363 0.0000000964132155 -0.0000021554905566 15.3885333157578916 7.5704061172006742 7.8907745091011288 0.0000223215923095 1.7197497195591405 0.8867278038550357 
56 1 0.0000019985537807 -0.0000055631530054 0.0000083635218632 14.5943560153793719 11.1097638840517305 6.2121813957555947 0.0000268956792811 1.6983859479127852 0.8665681312032811 
74 1 -0.0000050247022886 0.0000043057774986 -0.0000025909218380 13.5945433731014749 7.5915008228581407 11.1405517125121669 0.0000360913375376 1.6629978595032455 0.7590222496146011 
98 1 0.0000021883008254 0.0000043235037813 -0.0000034968895256 12.2779984456989144 8.4756241046601559 7.5233154061949028 0.0000312544201500 1.6875971822117160 1.0115976322165883 
115 1 0.0000003064942896 -0.0000014868896302 0.0000036349462653 12.3371717452654028 11.0457986887740205 11.6713270173080996 0.0000260924431636 1.6994722583348731 0.8558342185308726 
152 2 -0.0000021357367587 -0.0000011854334224 0.0000013834787272 12.5511679427462006 7.4466829037023317 10.8079379251987149 0.0000357834776397 1.6696717284659301 0.9293628046135300 
222 2 0.0000107003730253 0.0000035227878542 -0.0000000258296577 16.5896692094311327 8.7620541214135663 8.9416236554782547 0.0000170923931814 1.7431108268531270 0.7624061548368883 
250 2 0.0000085502737001 0.0000025903685262 -0.0000012329603043 15.6324817200877551 7.4336480225717114 10.8084263778035474 0.0000282992210776 1.6896342159171900 0.7773651864434619 
3 1 0.0000109439170286 -0.0000029915916449 -0.0000071425242386 5.0396826413733775 14.0085698990639127 11.9355678666817386 0.0000302240022329 1.6842360736329678 0.8234732248757386 
14 1 0.0000022688973219 0.0000287341451736 -0.0000036272683451 2.4514519405653799 18.0248220200124365 10.5428936476937789 0.0000269705447951 1.6859092865333638 0.5420879942120436 
71 1 0.0000120958656192 -0.0000157544092926 -0.0000009070039250 4.0861035334183864 15.8817127005914127 9.8255421785737447 0.0000339889541465 1.6692422729396226 0.7266108338808771 
81 1 0.0000057568489886 -0.0000100450926504 0.0000038702920355 3.0824630607035002 16.4068916412144077 11.2083066397184705 0.0000375117093322 1.6530440980455996 0.5183545974474582 
110 1 -0.0000172598392934 0.0000152020547877 0.0000041426512340 1.4565205399045575 17.7120997514110599 11.1973849861488510 0.0000249851496684 1.6940292766346969 0.5469888676716165 
171 2 0.0000037278767372 -0.0000067521698813 -0.0000001838459651 3.3057227230548363 16.0321710525573060 6.9124748417661364 0.0000297932811483 1.6832618092246672 0.7500085286107322 
186 2 0.0000119368002299 0.0000229823712154 0.0000002568204403 4.3426654608924524 17.6960144032263251 9.1175035212002040 0.0000263920196229 1.6947970107137327 0.7042591277796648 
203 2 -0.0000192677984854 -0.0000091208757062 -0.0000039032754631 0.2429521071567228 16.0444564320150285 9.1151000968883835 0.0000150037688042 1.7667186641339037 0.8494311734321596 
204 2 -0.0000069669135392 -0.0000082007849725 -0.0000022423989204 2.5443290752310985 13.6220061616940349 8.3252417428105456 0.0000246164723534 1.7082760451031169 0.8686853651673256 
231 2 0.0000060300784772 -0.0000076888277218 -0.0000038520740141 4.7848961430995809 16.3007057584796584 7.2532230592975191 0.0000307668956048 1.6775481907311649 0.6951805982840851 
251 2 0.0000037582096347 -0.0000148116921045 0.0000038289406772 3.3906174634326067 15.7580784196717598 11.7485363941579788 0.0000365798510052 1.6561647180525250 0.5598607503200735 
270 2 0.0000089325471583 -0.0000019454400928 -0.0000052222360569 4.2377717533997021 12.8584850875150636 8.3039100041450933 0.0000272477768903 1.6970715323354015 0.8794726710577451 
1 1 -0.0000089414258269 -0.0000013733491067 0.0000012766809127 10.6604011089889461 15.6384696327368129 10.0058370324917139 0.0000293688484907 1.6778052371510652 0.5872880405760138 
23 1 0.0000056580943009 0.0000156728085912 -0.0000022060939105 6.2136347885403440 17.0785783607954649 7.3362586684467193 0.0000264389956471 1.6923812223127270 0.6630308308767461 
113 1 -0.0000027400352691 -0.0000111330262688 -0.0000027994825726 8.8921982860454083 15.3525210516050716 7.8233417191426451 0.0000249809222326 1.7021591297111134 0.7717409279968618 
121 1 -0.0000079202816100 0.0000152956630702 0.0000041916529311 10.3353676529088059 16.1898280168293454 9.9420608470501364 0.0000265739132978 1.6879350275457454 0.5907557459211746 
135 1 -0.0000104256033055 -0.0000036982472588 -0.0000075567222477 11.5050879355829458 13.0237139705774059 8.4169236099590279 0.0000286386902494 1.6904677544722384 0.8534730269463277 
174 2 0.0000021539160534 0.0000027582171333 0.0000116619203095 7.3042326971932034 16.3027241389155293 8.9983782402901937 0.0000234438327221 1.7093933314835668 0.7686240075460538 
292 2 0.0000011798230261 -0.0000144903589611 -0.0000011199423314 7.4615314275839273 15.1337435238761842 6.7515341027083702 0.0000246546237243 1.7045232443469440 0.7995227427611449 
162 2 0.0000112045719235 0.0000107579513028 0.0000037393145062 15.8167584550512856 17.2728551511729691 9.6241619442939150 0.0000134005313354 1.7687760799398149 0.6461302957421854 
177 2 -0.0000004775515266 0.0000038380935529 -0.0000059116258908 12.4066863988478069 15.9118758620315557 9.3333027605396133 0.0000291676453779 1.6817065896299761 0.6548555634894252 
179 2 0.0000017735493885 -0.0000061091334890 -0.0000008618934785 13.2157093458880617 12.1166601699655132 8.3520712280997014 0.0000315071211528 1.6722112324642773 0.6495889407639590 
193 2 0.0000111868961465 -0.0000030478065310 -0.0000060628382116 15.8658429356104360 14.4468199927300045 8.7161731724612537 0.0000182555149162 1.7418505320742335 0.8427029401094225 
208 2 -0.0000011097793788 0.0000151689859594 -0.0000047881546524 13.8396179754536135 17.8715885874446272 8.0707868103867462 0.0000152425324546 1.7548411640058850 0.6770744575147633 
237 2 -0.0000000424116427 0.0000005244422185 -0.0000045268748919 15.7817352446963355 14.3599180178035049 10.9435571471418029 0.0000205833057062 1.7252333418580443 0.7757585241644914 
243 2 0.0000019486098657 0.0000042831144738 0.0000042074543047 12.7932231233420595 15.4792616415290585 10.6525825198803084 0.0000276361594269 1.6906415111153614 0.7471745851536643 
256 2 0.0000029716153143 0.0000026276591878 -0.0000025633579993 12.4728116194800815 16.7562763746738490 6.0621849350435904 0.0000173310152862 1.7468127805563962 0.8649934020126628 
265 2 0.0000005143561734 -0.0000080188644343 0.0000010049724057 13.1233523636760321 13.0617016691550596 9.7761327390568997 0.0000315467786810 1.6765539839977637 0.7321127817868949 
299 2 0.0000014801874096 0.0000008709392268 -0.0000009336376873 13.4473066248062416 12.3722553822911383 7.7631333872059054 0.0000306778969247 1.6759408306400099 0.6796411404874475 
25 1 -0.0000189305843998 -0.0000192170161387 -0.0000114333288731 0.9808698786725054 1.3512204208351175 12.2885398363902443 0.0000285297746117 1.6791178430003768 0.5069708287209779 
28 1 -0.0000150473599707 -0.0000170435064154 -0.0000050848688017 0.7829891930868760 1.5370273658953004 13.5904526123256399 0.0000317581812421 1.6699877105579106 0.5425643898263437 
48 1 0.0000136083446183 0.0000074183726104 -0.0000013414245134 2.8208773934242730 2.9585483297858404 12.0830099471769348 0.0000368504192163 1.6570718720732547 0.6018507099673741 
49 1 0.0000110934277237 -0.0000045185475607 0.0000147123317495 4.3150320638555817 5.3503928068349129 16.3034192168540670 0.0000266515243212 1.6951582088644646 0.7601204905300065 
83 1 0.0000102599436380 0.0000003459985496 0.0000033851908823 4.2917988386366055 3.4807116630055246 12.1268786302115696 0.0000319784293130 1.6796149744256690 0.8603042556685235 
94 1 -0.0000167262848879 0.0000285632611041 0.0000232499744926 0.5399426659095919 2.4538816351925452 17.4828881107183918 0.0000334778332834 1.6575331762842851 0.2935212862256321 
97 1 0.0000391174435285 0.0000181500742437 0.0000195669229498 2.2598065314537727 3.3180382616677400 17.6193234368498040 0.0000238142614721 1.7034024248116955 0.6421116002292672 
129 1 -0.0000036726841438 -0.0000567154789940 -0.0000061092614218 0.5206947356598763 1.4983241017812556 16.8823757211280139 0.0000333553168331 1.6587795313039568 0.3236735427105758 
136 1 -0.0000006081810493 0.0000098022824873 -0.0000114254027200 3.1623293240804720 5.9746806375201107 13.5649102935978387 0.0000303105318324 1.6819365362551308 0.7705831870762523 
157 2 0.0000037070325803 -0.0000141012922819 0.0000033007323638 4.8529497767294290 0.6337141638298422 14.1382461739605567 0.0000137984960964 1.7833225034035813 0.9962243621476484 
172 2 -0.0000011466567666 -0.0000151507948581 0.0000457341382543 0.6326160365716097 2.0041923230009839 17.8320618254996575 0.0000304391588257 1.6660766550487396 0.2878430397700493 
207 2 0.0000032007296210 0.0000017981278253 -0.0000077506751952 4.8357686382955816 5.7925031601771364 13.3746957971121816 0.0000344144517439 1.6702600032066446 0.8218546508653306 
219 2 0.0000235671856486 0.0000113569868393 0.0000009362360346 2.2535217722368786 3.1012252148223789 14.5090105827201636 0.0000346942165121 1.6689593929257509 0.7746908250222474 
234 2 -0.0000419408225321 0.0000169156462774 -0.0000316633619331 0.1543606006835403 2.2870071372376732 15.9231134142167488 0.0000346483788840 1.6581300466203159 0.4214993293950769 
284 2 0.0000142487535464 0.0000037717212428 -0.0000156421583520 1.2028445518237865 2.2574102859173193 14.9444037477398517 0.0000375882347197 1.6539403189954542 0.5454660791503317 
18 1 -0.0000022477364829 0.0000136249598202 -0.0000006807006606 11.3450292182425247 4.0057223565596232 13.1929971744400376 0.0000421445724319 1.6502015304565398 0.8299578443640053 
38 1 -0.0000022856819812 -0.0000009951016568 -0.0000037207921110 8.6139429190101566 3.4921102533271688 13.3919035959715558 0.0000386229868950 1.6577244678788103 0.7969001134421539 
54 1 -0.0000033666863191 0.0000040713549579 -0.0000067083685108 11.3480232289917726 3.3148908800884951 12.8657574632263465 0.0000442751500527 1.6427184633009912 0.7271867024242933 
70 1 -0.0000001821535261 -0.0000047219868796 0.0000022584336105 6.0704782291724557 3.9795911543317533 15.6170397938543957 0.0000255355583779 1.7075225516693817 0.9402389333559246 
109 1 0.0000021446981662 0.0000025670561491 0.0000039153647018 8.2634742863954589 5.8545091624400047 13.6984874211014702 0.0000432726599726 1.6468089013317004 0.7817668687313044 
112 1 -0.0000037429869324 0.0000079536096836 -0.0000021276897271 10.6345409272534450 2.2062784455533953 16.4825402386095128 0.0000360960591124 1.6607894842624518 0.6687169300014848 
141 1 -0.0000082462613318 -0.0000312630608330 -0.0000126191230671 10.4149926255422436 0.5690308038117224 15.7605089310209703 0.0000249221010351 1.7034031680813859 0.7785361844249051 
213 2 -0.0000088666884666 -0.0000128542847984 -0.0000119661563796 8.1140435355591958 1.9496446619836392 15.3939993357306939 0.0000275810155100 1.6911457974899511 0.7442388424508062 
214 2 -0.0000090512908600 -0.0000144478620358 0.0000179142803609 8.8458743170035987 1.9966150705252292 17.1478850517058277 0.0000285228747905 1.6798457568600265 0.5297385386216058 
229 2 -0.0000014860086587 -0.0000202626493661 -0.0000065401182372 10.6380477933597852 1.9240236304398342 12.1923989111787581 0.0000323601190966 1.6754129494446373 0.7906722202520656 
233 2 0.0000009895806256 0.0000165778361282 0.0000160398368180 10.8065076532462907 2.6178120107567100 17.2051981222456689 0.0000315139531781 1.6747225003138118 0.6872826091677396 
240 2 0.0000037125555304 0.0000116509471093 0.0000146364489769 9.2276502245514767 5.2044975552992998 17.8974154014610995 0.0000162522055722 1.7552194417265294 0.8569119681054105 
269 2 -0.0000084453701480 0.0000039975436136 -0.0000032923684585 6.3550061336995602 5.9402284896790496 12.0054788748654353 0.0000398269182760 1.6577915803876002 0.8825808466065870 
277 2 0.0000000653831363 -0.0000003325977048 -0.0000033592896811 9.2199714306554501 3.4359843539880148 13.0838900510901777 0.0000414009143157 1.6490927933984070 0.7303415009834544 
287 2 -0.0000060647068972 0.0000080252874548 0.0000108396094326 7.9958711107540577 3.4700662700346490 17.0319824882480084 0.0000264540655484 1.6922888222525274 0.6644631880263596 
29 1 -0.0000000960271290 -0.0000018491726050 0.0000153138990073 13.7623251891173144 5.7339112872480120 17.1988172543209856 0.0000187915748835 1.7414204308982559 0.9249274383495122 
32 1 0.0000170107395778 -0.0000212144132176 -0.0000009668508615 16.3308572455909484 0.0203436708686526 15.2199506441567074 0.0000194638499453 1.7293253800517774 0.7194422098582679 
44 1 -0.0000051264984241 0.0000277072075761 0.0000036506973450 13.8795439867511927 4.0080663037870217 15.0433354034883102 0.0000478100138324 1.6348187202294655 0.6697300756834602 
47 1 0.0000092014160617 -0.0000064089463474 -0.0000058963810493 15.7408938674376238 1.6943850122651758 13.4004209887530781 0.0000344781604856 1.6713335921673487 0.8229702098420524 
60 1 -0.0000128715550270 -0.0000174674595228 -0.0000155312562401 12.6640519711957147 2.2663605627716485 13.0050070901723380 0.0000423402177580 1.6504829672893382 0.8258985342720562 
80 1 0.0000078289215148 -0.0000055701548292 0.0000045586331687 17.5344137236062814 5.4837460356350149 16.2268579211056334 0.0000111549681056 1.8025717377994290 0.9084933533381505 
90 1 -0.0000169854942748 -0.0000153497542547 -0.0000026566994717 13.4732080579158495 1.4087008738812046 16.2625083440424554 0.0000499270905023 1.6262194475208458 0.4462822060748561 
143 1 0.0000059049130449 0.0000031732814515 -0.0000193430108235 14.3740182196544239 2.2812026164412886 14.9664623341950573 0.0000564155284067 1.6174686610744298 0.5148810607256147 
163 2 -0.0000058523550308 -0.0000057379566365 0.0000186653065802 13.6832178316459636 1.4653432616416127 16.6511194332174561 0.0000475861516035 1.6297308143187879 0.4223989955545209 
164 2 -0.0000026723665695 -0.0000221171745583 0.0000383689954290 13.5501619706156173 0.9176345510810971 17.3994699276605331 0.0000333738666304 1.6635796097395672 0.5027998669404676 
168 2 -0.0000070010267439 0.0000050595495183 -0.0000044937976402 14.0183952232096676 4.1808616785967674 12.5486810584968254 0.0000492475760860 1.6334068276824012 0.7239723456955237 
184 2 -0.0000046281803391 0.0000341067981618 0.0000074069601613 13.8577226928553028 3.4130860530131093 15.5542815164205699 0.0000513542532636 1.6267529679807113 0.5858137106156655 
253 2 -0.0000075628677203 -0.0000063695389068 -0.0000238734105150 14.0190732588622833 1.9655651875398434 15.1924374990777942 0.0000568147982782 1.6163765523643323 0.4887265570981519 
260 2 0.0000108723311324 0.0000120204034679 0.0000033255073744 14.7915042986021472 4.5588532483590329 13.9864986322153619 0.0000424132239958 1.6490069369388904 0.7838080385772596 
274 2 0.0000405228771904 0.0000056918258415 0.0000158300860658 15.1008161009792943 1.6736085367294395 16.1657379446926939 0.0000438098678905 1.6384813352802161 0.4824591753550859 
33 1 -0.0000050428953157 -0.0000133725020439 -0.0000067545316523 1.7265290063590062 11.0334413157150788 16.0809988811907658 0.0000181503202567 1.7411718729486418 0.7994248808235397 
111 1 -0.0000041096894626 -0.0000033552638844 -0.0000079423458112 4.8573485232679570 10.2301177955064730 15.6665280362291899 0.0000297966231370 1.6823364166506469 0.7477791655531369 
133 1 -0.0000110261406877 0.0000098080091768 -0.0000147059372106 2.8170596219621111 7.4600156549007712 14.6803638817487361 0.0000257860301398 1.6949239017386706 0.6719915626192530 
166 2 0.0000046908521244 0.0000002573044698 0.0000179926987470 3.9829748200499964 7.0307974249630796 16.2649453039825502 0.0000267675500355 1.6921021903543449 0.6891686084432569 
296 2 -0.0000043879222730 -0.0000023148075049 0.0000109253751349 4.3100498246444126 10.0694805352960479 16.4026786692444126 0.0000261347003314 1.6941221436829383 0.7028683122634785 
297 2 -0.0000185058030017 0.0000130108439459 0.0000034089292478 1.6248754358443349 6.1863170388542352 15.6381001679788731 0.0000214028753536 1.7190028451867347 0.7532732425955115 
53 1 0.0000058752364392 0.0000018132062634 -0.0000053997047864 8.5778444003174137 10.9620597131479585 15.0591935310018439 0.0000274995939397 1.6929686617402424 0.7977093431876716 
73 1 -0.0000020730971486 -0.0000023038111722 -0.0000113107498387 6.7680450865228625 10.6750537001372479 13.5934748162871397 0.0000309448360558 1.6853791214828291 0.9140723006592105 
82 1 0.0000029258119639 0.0000008827401160 -0.0000019413569902 6.1056778785149737 6.4800567885207609 14.6111537052561804 0.0000352261335166 1.6687583414525053 0.8310971052211233 
88 1 0.0000066102345999 0.0000008096536288 0.0000048942716577 9.2777341717466086 8.4543738730892066 14.7262380300321105 0.0000319561414747 1.6745462471693147 0.7353722792769283 
93 1 0.0000072863117805 0.0000015703986851 0.0000041843181472 8.9248955059086068 6.6835718567506888 14.0223749973885763 0.0000395152067638 1.6550713073509082 0.7793493733510241 
199 2 0.0000021439308886 0.0000053739980305 -0.0000015889066033 9.6810750561615624 8.8493571708838150 13.2774631674875092 0.0000327385375983 1.6783305627170284 0.9082398020919812 
209 2 0.0000063530748676 -0.0000053730705217 0.0000147746571484 7.2571117995176397 10.2195558723713749 16.5189155977663127 0.0000249362408289 1.7052599756564182 0.8124997409731132 
218 2 -0.0000000179463807 -0.0000012457440294 0.0000078832736233 7.6743355781093623 7.6887360968157887 15.3294358106905229 0.0000313796945963 1.6795169722421610 0.8104737557715641 
298 2 -0.0000012380129591 0.0000030239543709 0.0000019951123800 11.8509106444911083 8.4885213579258565 13.1541566290423599 0.0000280082731256 1.6986924589908718 0.9881597075074522 
7 1 -0.0000193838256201 -0.0000017353629617 -0.0000272704379131 14.4341555157643562 9.7866198992895086 16.3193121027580368 0.0000305792898955 1.6692454979046158 0.4306412030230408 
59 1 0.0000021001913718 -0.0000286470471051 0.0000255362456930 15.1933989559284406 9.7804623359970311 17.3180749518359711 0.0000314071035021 1.6641228067749476 0.3227026480567668 
62 1 0.0000515976282733 0.0000008686351702 0.0000069014563665 16.7555854776617181 10.3280261429413134 17.3010057759103475 0.0000223212498059 1.7028004809918009 0.4560039009745000 
116 1 0.0000010600067450 0.0000075607789672 0.0000002584910119 14.5983326400770341 7.7449652328607188 12.7503601775916948 0.0000323307181728 1.6719717140403152 0.7023006523828500 
118 1 -0.0000066578267126 0.0000265938828655 0.0000287312631495 15.1786693297541291 11.1529413140045328 17.7174467803467728 0.0000262528209401 1.6838500533499747 0.3923790460878759 
125 1 0.0000211242539617 -0.0000041029902485 -0.0000150603552608 17.0263356173233049 8.7924983215015224 15.0840351475586871 0.0000165375202839 1.7531378651048144 0.8199476504665646 
254 2 -0.0000006669907778 0.0000015374251582 0.0000015611755718 14.5508082491032003 7.1691091252558063 13.3808330732802236 0.0000321188010193 1.6757998098876579 0.7869122878559096 
289 2 -0.0000393263342418 0.0000039345066714 -0.0000084809043853 14.0469602609510389 9.9734218081682489 16.6657994587715912 0.0000291690285999 1.6730636020995917 0.4115695886035483 
290 2 -0.0000075916429373 -0.0000050571604142 0.0000043056861208 12.2865020830016878 7.2851736822947268 16.1667723321690389 0.0000193048275825 1.7422869320330285 1.0023490880616761 
9 1 -0.0000131128855724 -0.0000064269281239 0.0000285020933144 0.0020274412932704 12.9568449753044206 17.4829911189810367 0.0000165816755933 1.7379427917241126 0.5207805216777555 
35 1 -0.0000063944793910 -0.0000079721909602 -0.0000145711706862 5.1932611021909141 12.7352187352557600 13.9662341751055230 0.0000364754906560 1.6616259893679362 0.7159194736756018 
42 1 -0.0000059449023821 -0.0000046096818796 -0.0000029321122144 4.1627121563622049 12.7651145782688040 16.0034208240971267 0.0000334861348240 1.6702705772160011 0.7090304198490708 
51 1 0.0000110169732919 0.0000025959114315 0.0000079921232745 1.9535484790820947 13.9166059347676754 16.5749322029918034 0.0000262888545855 1.6936608456596618 0.6673551750548466 
101 1 -0.0000130388062370 -0.0000124022217339 -0.0000218345220609 0.0906121544409683 13.4779128429175881 15.5598514199260283 0.0000222049107200 1.7042360292093643 0.4973255294685063 
126 1 0.0000082235820422 0.0000091533390060 0.0000158054501983 2.8707490052196230 15.5730680524144827 16.9347009137154281 0.0000200520992462 1.7273417221178182 0.7647056255795310 
130 1 0.0000037410358373 -0.0000014472646841 0.0000257125175270 5.7329266792650166 12.6948645163024398 17.9105359485167384 0.0000200579426327 1.7262458701937482 0.7442308407013675 
144 1 -0.0000116280965140 0.0000012143071124 -0.0000136494260204 0.0652329869755721 14.8080625979870888 14.7876021834898008 0.0000204925753087 1.7172545891937401 0.6107786175130421 
159 2 -0.0000043145247870 0.0000089816608592 0.0000058379395262 0.4301394330933135 17.8020010724541216 17.0799820028598432 0.0000096489822145 1.8065319479683197 0.6203928183082861 
160 2 -0.0000150248658118 0.0000016351339266 -0.0000030012055337 0.2363659937702708 16.4295244712169328 13.1205448771747335 0.0000174040342210 1.7440155909777411 0.7616884048086846 
191 2 0.0000111259458814 0.0000184121449813 0.0000014569893995 3.5258049762120387 17.3213229656639314 14.9894665456288099 0.0000165229419805 1.7549737198654911 0.8601329716858412 
225 2 0.0000077258718554 0.0000063627858649 0.0000027612342775 5.8255716471640318 13.2344805249518345 16.0593554384298649 0.0000338357676005 1.6669234702839211 0.6515276730640618 
245 2 0.0000040309267654 -0.0000039063079276 0.0000047975654664 3.6433637487411388 15.5317296208786573 12.7930056945451387 0.0000332466820181 1.6684866733518569 0.6594508273053258 
268 2 0.0000022634562769 0.0000052930272814 -0.0000048119307740 4.6448693906374325 14.4487952282910381 14.4806686709159091 0.0000334831826385 1.6706915603520796 0.7305939333454654 
10 1 -0.0000109228825324 -0.0000193396130878 0.0000138903736416 11.5414536607869831 14.5114332840369702 14.7718944410422193 0.0000273665151448 1.6816954754148146 0.4967866239697553 
50 1 0.0000025426349209 -0.0000040146866072 0.0000127113841514 9.4425294361261454 12.3573405953925075 16.1680923003289365 0.0000180298535864 1.7424853156679074 0.8598353795195468 
58 1 -0.0000039498535473 0.0000134361855493 -0.0000014089410718 8.3379545483630917 16.3443012421278198 13.7847752810143707 0.0000153077399881 1.7632820022098237 0.8830977281144363 
155 2 0.0000124140118304 0.0000073145181381 -0.0000076684769213 6.6749486197358578 13.7137606017640419 14.6532627867621983 0.0000307724887855 1.6802787376019490 0.7665527741027545 
175 2 0.0000011955060798 0.0000037671630241 0.0000055952337752 7.1729862730704372 16.3774267006730874 17.8909984203216510 0.0000089726698303 1.8176765366631851 0.7172280800804003 
282 2 -0.0000124419459692 -0.0000050986983211 -0.0000071735127255 9.9890201577185618 14.8939659371207895 12.9983699587541359 0.0000234258365667 1.7119082017341607 0.8159452960606763 
288 2 -0.0000047617977550 0.0000252685825108 0.0000029785611069 11.5190524643149939 17.8255892356024148 14.9929105948788273 0.0000135866286339 1.7653343102098802 0.6133668779448312 
24 1 0.0000012150073161 0.0000081002011359 0.0000022950001145 12.2683704498977413 15.6579103502389163 14.7237525708249724 0.0000269644019810 1.6824365419737490 0.4662793646117326 
78 1 0.0000066180320442 0.0000154593649751 -0.0000107977651179 16.1567435515685780 15.2358360311563281 14.1092564175610278 0.0000190523814791 1.7206890260841781 0.5322743715245374 
92 1 0.0000056554548319 0.0000140382133797 0.0000134506303750 15.1111902497704893 16.3208213484946469 16.8025566204527976 0.0000133866022802 1.7670271535864708 0.5962801346323605 
99 1 -0.0000007640534699 -0.0000099541662976 -0.0000009201351791 12.2353977279929378 12.3186618720450269 12.4391718210224163 0.0000233568269879 1.7132034671830949 0.8874693751969801 
106 1 0.0000104767141515 -0.0000093628607407 -0.0000009673896798 16.9624671427273341 12.7993760674650776 12.4918635722710700 0.0000171003129717 1.7378829848455601 0.6222234876476286 
202 2 0.0000011460035636 -0.0000099189810094 -0.0000056752045617 12.0745556694290066 14.9127490638881550 14.2975166493651411 0.0000290754156521 1.6749471235844600 0.4754323774858395 
205 2 -0.0000046711793841 0.0000011566516536 0.0000118097472566 14.9370126016637581 13.9281546749847553 17.2745389762988317 0.0000156757901713 1.7548401841556136 0.7275085449562123 
212 2 0.0000174553961332 -0.0000074771124947 0.0000010770433336 16.5027216783869868 14.5349173761932562 14.6578378209421434 0.0000191270684126 1.7193220716567086 0.5089662944536997 
